LAMMPS (22 Jul 2025)
OMP_NUM_THREADS environment is not set. Defaulting to 1 thread.
  using 1 OpenMP thread(s) per MPI task
package omp 0
using multi-threaded neighbor list subroutines
# Input Script of lammps for assembly simulation of polimeric network.
# Main code is based on: https://github.com/PipeB62/Hydrogel-Simulation
# Patchy particles are with bond style.

# Felipe Benavides modified by Fco. Vazquez

# Initialization
units lj
dimension 3
boundary p p p

# Styles of atoms and that stuff
atom_style full
bond_style harmonic
angle_style harmonic
pair_style hybrid/overlay zero 0.0 lj/cut/omp 1.12 table/omp linear 5000000 threebody/table

newton on

# Create simulaiton box
region simulation_box block -$L $L -$L $L -$L $L
region simulation_box block -9.796741 $L -$L $L -$L $L
region simulation_box block -9.796741 9.796741 -$L $L -$L $L
region simulation_box block -9.796741 9.796741 -9.796741 $L -$L $L
region simulation_box block -9.796741 9.796741 -9.796741 9.796741 -$L $L
region simulation_box block -9.796741 9.796741 -9.796741 9.796741 -9.796741 $L
region simulation_box block -9.796741 9.796741 -9.796741 9.796741 -9.796741 9.796741
# N-atom-types region-ID keyword value Is necesesary the extra/special/per/atom (# of special neighbors per atom)
create_box 4 simulation_box     bond/types 1     angle/types 2     extra/bond/per/atom 10     extra/angle/per/atom 6     extra/special/per/atom 10
Created orthogonal box = (-9.796741 -9.796741 -9.796741) to (9.796741 9.796741 9.796741)
  2 by 2 by 2 MPI processor grid

# Atom types
mass 1 1.0      # CL
mass 2 1.0      # MO
mass 3 1.0      # PA
mass 4 1.0      # PB

# Coefficients
include potential.in
# Script with the pair-wise interaction and bonds between particles

bond_coeff 1 100.0 0.45
angle_coeff 1 100.0 180
angle_coeff 2 100.0 109.4712
pair_coeff 1 3 zero 0.5
pair_coeff 1 4 zero 0.5
pair_coeff 2 3 zero 0.5
pair_coeff 2 4 zero 0.5
pair_coeff 3 3 zero 0.5
pair_coeff 1 1 lj/cut/omp 1.0 1.0 1.12
pair_coeff 2 2 lj/cut/omp 1.0 1.0 1.12
pair_coeff 1 2 lj/cut/omp 1.0 1.0 1.12
pair_coeff 3 4 table/omp sysFiles/pachTab.table POT 0.6 # sw/omp sysFiles/patchyPot.sw NULL NULL PA PB
Reading pair table potential file sysFiles/pachTab.table with DATE: 2024-07-08
WARNING: 7 of 1000000 force values in table POT are inconsistent with -dE/dr.
WARNING:  Should only be flagged at inflection points (src/pair_table.cpp:469)
pair_coeff 4 4 table/omp sysFiles/pachTab.table POT 0.6 # sw/omp sysFiles/patchyPot.sw NULL NULL PA PB
Reading pair table potential file sysFiles/pachTab.table with DATE: 2024-07-08
WARNING: 7 of 1000000 force values in table POT are inconsistent with -dE/dr.
WARNING:  Should only be flagged at inflection points (src/pair_table.cpp:469)
pair_coeff * * threebody/table swapMech.3b NULL NULL PA PB
pair_modify pair lj/cut/omp shift yes


# Molecules
include molecules.in
# Script with all molecule information and create groups for computes

# Read the molecule information
molecule CL sysFiles/molecule.patchy.CL
Read molecule template CL:
# Patchy Cross-Linker
  1 molecules
  0 fragments
  0 bodies
  5 atoms with max type 3
  4 bonds with max type 1
  6 angles with max type 2
  0 dihedrals with max type 0
  0 impropers with max type 0
molecule MO sysFiles/molecule.patchy.MO
Read molecule template MO:
# Patchy Monomer
  1 molecules
  0 fragments
  0 bodies
  3 atoms with max type 4
  2 bonds with max type 1
  1 angles with max type 1
  0 dihedrals with max type 0
  0 impropers with max type 0

# Introduce the molecules
# ID style args keyword arg
region spawn_box block -$L $L -$L $L -$L $L
region spawn_box block -9.796741 $L -$L $L -$L $L
region spawn_box block -9.796741 9.796741 -$L $L -$L $L
region spawn_box block -9.796741 9.796741 -9.796741 $L -$L $L
region spawn_box block -9.796741 9.796741 -9.796741 9.796741 -$L $L
region spawn_box block -9.796741 9.796741 -9.796741 9.796741 -9.796741 $L
region spawn_box block -9.796741 9.796741 -9.796741 9.796741 -9.796741 9.796741

# create_atoms type style args keyword values
# style_random: N seed region-ID
# keyword_mol: template-ID seed
# keyword_overlap: overlap value = only insert if at least this distance from all existing atoms
# keyword_maxtry: maxtry value = number of attempts to insert a particle before failure
create_atoms 0 random ${NCL} ${seed1} spawn_box mol CL ${seed1} overlap 1.0 maxtry 5000 #xls
create_atoms 0 random 25 ${seed1} spawn_box mol CL ${seed1} overlap 1.0 maxtry 5000 
create_atoms 0 random 25 3234 spawn_box mol CL ${seed1} overlap 1.0 maxtry 5000 
create_atoms 0 random 25 3234 spawn_box mol CL 3234 overlap 1.0 maxtry 5000 
Created 125 atoms
  using lattice units in orthogonal box = (-9.796741 -9.796741 -9.796741) to (9.796741 9.796741 9.796741)
  create_atoms CPU = 0.009 seconds
create_atoms 0 random ${NMO} ${seed2} spawn_box mol MO ${seed2} overlap 1.0 maxtry 5000 #mon
create_atoms 0 random 475 ${seed2} spawn_box mol MO ${seed2} overlap 1.0 maxtry 5000 
create_atoms 0 random 475 6321 spawn_box mol MO ${seed2} overlap 1.0 maxtry 5000 
create_atoms 0 random 475 6321 spawn_box mol MO 6321 overlap 1.0 maxtry 5000 
Created 1425 atoms
  using lattice units in orthogonal box = (-9.796741 -9.796741 -9.796741) to (9.796741 9.796741 9.796741)
  create_atoms CPU = 0.008 seconds

# Create patchy particles
group CrossLinker type 1 3
125 atoms in group CrossLinker
group Monomer type 2 4
1425 atoms in group Monomer
group Patches type 3 4
1050 atoms in group Patches
group CL type 1
25 atoms in group CL
group MO type 2
475 atoms in group MO
group PA type 3
100 atoms in group PA
group CM type 1 2
500 atoms in group CM

# Neighbor list
neighbor 1.8 bin # extra-distance style
#neigh_modify delay 0 every 1 check no
#neigh_modify exclude molecule/intra CrossLinker
#neigh_modify exclude molecule/intra Monomer

# COMPUTES

# Compute global kinetic and potential energy and temperature
compute t all temp
compute p all pressure t
compute ep all pe
compute ek all ke
variable eT equal etotal
variable eB equal ebond
variable eA equal eangle
variable eM equal emol
variable ec equal ecouple
variable eC equal econserve

# Potencial energy per pair-wise interaction
compute wcaPair all pair lj/cut/omp epair
compute patchPair all pair table/omp epair
compute swapPair all pair threebody/table epair

# Compute the pressure
compute press all pressure t ke virial
compute pressVirial all pressure t virial
compute pressVirialMod all pressure t pair bond angle

# Computes for the stress
compute cstress all stress/atom t ke pair bond angle
compute cstressVirial all stress/atom t virial
compute cstressVirialMod all stress/atom t pair bond angle
compute stress all reduce sum c_cstress[*]
compute stressVirial all reduce sum c_cstressVirial[*]
compute stressVirialMod all reduce sum c_cstressVirialMod[*]

# Displacement of the central particles
compute disp CM displace/atom
compute redDisp CM reduce ave c_disp[*] # All, because yes

# Get the number of central particles per cluster
compute clusters all aggregate/atom 0.6                             # Create the clusters
compute Nclpart CM chunk/atom c_clusters compress yes discard yes   # Get the number of clusters
compute clsize CM property/chunk Nclpart count                      # Counts the atoms in each chunk
compute idcl CM property/chunk Nclpart id                           # Get the ids of the clusters

# DUMPS and FIXES

thermo ${NsaveStress}
thermo 1000

# Save global energies and temperature
fix Energy all ave/time 1 ${Nsave} ${Nsave} c_t c_wcaPair c_patchPair c_swapPair c_ep c_ek v_eT v_ec v_eC c_p v_eB v_eA v_eM c_redDisp[*] file ${Dir}/${file1_name}
fix Energy all ave/time 1 1000 ${Nsave} c_t c_wcaPair c_patchPair c_swapPair c_ep c_ek v_eT v_ec v_eC c_p v_eB v_eA v_eM c_redDisp[*] file ${Dir}/${file1_name}
fix Energy all ave/time 1 1000 1000 c_t c_wcaPair c_patchPair c_swapPair c_ep c_ek v_eT v_ec v_eC c_p v_eB v_eA v_eM c_redDisp[*] file ${Dir}/${file1_name}
fix Energy all ave/time 1 1000 1000 c_t c_wcaPair c_patchPair c_swapPair c_ep c_ek v_eT v_ec v_eC c_p v_eB v_eA v_eM c_redDisp[*] file /home/franvt/GitRepos/molDynLammps/polymericGels/gel-bonds-1/data/0.050.30.05500-2026-01-21-161335/${file1_name}
fix Energy all ave/time 1 1000 1000 c_t c_wcaPair c_patchPair c_swapPair c_ep c_ek v_eT v_ec v_eC c_p v_eB v_eA v_eM c_redDisp[*] file /home/franvt/GitRepos/molDynLammps/polymericGels/gel-bonds-1/data/0.050.30.05500-2026-01-21-161335/system_assembly.fixf

# Save Pressure and Stress tensor
fix fixStress5 all ave/time 1 ${NsaveStress} ${NsaveStress} c_p c_press[*] c_pressVirial[*] c_pressVirialMod[*] c_stress[*] c_stressVirial[*] c_stressVirialMod[*] file ${Dir}/${file2_name}
fix fixStress5 all ave/time 1 1000 ${NsaveStress} c_p c_press[*] c_pressVirial[*] c_pressVirialMod[*] c_stress[*] c_stressVirial[*] c_stressVirialMod[*] file ${Dir}/${file2_name}
fix fixStress5 all ave/time 1 1000 1000 c_p c_press[*] c_pressVirial[*] c_pressVirialMod[*] c_stress[*] c_stressVirial[*] c_stressVirialMod[*] file ${Dir}/${file2_name}
fix fixStress5 all ave/time 1 1000 1000 c_p c_press[*] c_pressVirial[*] c_pressVirialMod[*] c_stress[*] c_stressVirial[*] c_stressVirialMod[*] file /home/franvt/GitRepos/molDynLammps/polymericGels/gel-bonds-1/data/0.050.30.05500-2026-01-21-161335/${file2_name}
fix fixStress5 all ave/time 1 1000 1000 c_p c_press[*] c_pressVirial[*] c_pressVirialMod[*] c_stress[*] c_stressVirial[*] c_stressVirialMod[*] file /home/franvt/GitRepos/molDynLammps/polymericGels/gel-bonds-1/data/0.050.30.05500-2026-01-21-161335/stress_assembly.fixf

# Save the global cluster information
fix 1 CM ave/time 1 1 ${Ndump} c_idcl c_clsize file ${Dir}/${file3_name} mode vector
fix 1 CM ave/time 1 1 1000 c_idcl c_clsize file ${Dir}/${file3_name} mode vector
fix 1 CM ave/time 1 1 1000 c_idcl c_clsize file /home/franvt/GitRepos/molDynLammps/polymericGels/gel-bonds-1/data/0.050.30.05500-2026-01-21-161335/${file3_name} mode vector
fix 1 CM ave/time 1 1 1000 c_idcl c_clsize file /home/franvt/GitRepos/molDynLammps/polymericGels/gel-bonds-1/data/0.050.30.05500-2026-01-21-161335/clust_assembly.fixf mode vector

# Save atom positions with cluster id
dump dumpID all custom ${Ndump} ${Dir}/traj/${file5_name} id mol c_clusters type x y z vx vy vz
dump dumpID all custom 1000 ${Dir}/traj/${file5_name} id mol c_clusters type x y z vx vy vz
dump dumpID all custom 1000 /home/franvt/GitRepos/molDynLammps/polymericGels/gel-bonds-1/data/0.050.30.05500-2026-01-21-161335/traj/${file5_name} id mol c_clusters type x y z vx vy vz
dump dumpID all custom 1000 /home/franvt/GitRepos/molDynLammps/polymericGels/gel-bonds-1/data/0.050.30.05500-2026-01-21-161335/traj/traj_assembly.*.dumpf id mol c_clusters type x y z vx vy vz
dump_modify dumpID pbc yes # remap atoms via periodic boundary conditions

# RUN SIMULATION

# Brownian Dynamics using Langevin Thermostat

timestep ${tstep}
timestep 0.001

fix VelVerlet all nve # Use Velocity Verlet integrator

# First elevate the temperature
fix ThermoLng all langevin 0.0 ${temp} ${damp} ${seed3} tally yes zero yes # Brownian Dynamics: langevin + nve
fix ThermoLng all langevin 0.0 0.05 ${damp} ${seed3} tally yes zero yes 
fix ThermoLng all langevin 0.0 0.05 1 ${seed3} tally yes zero yes 
fix ThermoLng all langevin 0.0 0.05 1 2010 tally yes zero yes 
run ${stepsheat}
run 500000
WARNING: Using a manybody potential with bonds/angles/dihedrals and special_bond exclusions (src/pair.cpp:250)
Hybrid pair style last /omp style table/omp
Last active /omp style is angle_style harmonic/omp
Neighbor list info ...
  update: every = 1 steps, delay = 0 steps, check = yes
  max neighbors/atom: 2000, page size: 100000
  master list distance cutoff = 2.92
  ghost atom cutoff = 2.92
  binsize = 1.46, bins = 14 14 14
  7 neighbor lists, perpetual/occasional/extra = 6 1 0
  (1) pair zero, perpetual, skip from (7)
      attributes: half, newton on, omp
      pair build: skip/omp
      stencil: none
      bin: none
  (2) pair lj/cut/omp, perpetual, skip from (7)
      attributes: half, newton on, omp
      pair build: skip/omp
      stencil: none
      bin: none
  (3) pair table/omp, perpetual, skip from (7)
      attributes: half, newton on, omp
      pair build: skip/omp
      stencil: none
      bin: none
  (4) pair threebody/table, perpetual, skip from (6)
      attributes: full, newton on, omp
      pair build: skip/omp
      stencil: none
      bin: none
  (5) compute aggregate/atom, occasional, copy from (6)
      attributes: full, newton on, omp
      pair build: copy
      stencil: none
      bin: none
  (6) neighbor class addition, perpetual
      attributes: full, newton on, omp
      pair build: full/bin/omp
      stencil: full/bin/3d
      bin: standard
  (7) neighbor class addition, perpetual, half/full from (6)
      attributes: half, newton on, omp
      pair build: halffull/newton/omp
      stencil: none
      bin: none
Per MPI rank memory allocation (min/avg/max) = 20.03 | 20.03 | 20.03 Mbytes
   Step          Temp          E_pair         E_mol          TotEng         Press     
         0   0              0.00041490155  0.15480456     0.15521947    -0.21361809   
      1000   0.038128237    0              0.00013757075  0.057293028    0.0036255212 
      2000   0.00015524756  8.543009e-08   0.020977048    0.021209855    0.068369326  
      3000   0.0053601671   0              0.0001566732   0.0081917366   0.0024773034 
      4000   0.00032043582  0              0.0030278828   0.0035082264  -0.026562159  
      5000   0.0011098552   0              0.00027894739  0.0019426561  -0.0005261401 
      6000   0.00052871377  0              0.00073390715  0.0015264661   0.0095531329 
      7000   0.00072896697  0              0.00040823029  0.0015009753  -1.2979742e-05
      8000   0.0007251149   0              0.00053299756  0.0016199682  -0.0032626071 
      9000   0.00081771509  1.3387704e-06  0.00052435467  0.0017514747   2.4759112e-06
     10000   0.00090243713  0              0.0006006103   0.0019533927   0.0011493598 
     11000   0.0010197323   0              0.00066288448  0.0021914962  -0.00042254769
     12000   0.0011051079   0              0.00072884253  0.0023854349  -0.00024522879
     13000   0.0011985165   0              0.00078137006  0.0025779849   0.00057614678
     14000   0.0013249056   0              0.00085482435  0.0028409006   0.00081224385
     15000   0.0014112991   0              0.00096232634  0.0030779093  -0.00010780047
     16000   0.0015343975   0              0.0010154688   0.0033155802  -0.00081771796
     17000   0.0016020278   4.7441589e-08  0.0010642477   0.0034657865   0.00030980887
     18000   0.0017598133   0              0.0011497192   0.003787736    0.0012942109 
     19000   0.0018430414   0              0.0012059735   0.003968752    5.7970273e-05
     20000   0.0019080305   0              0.0012946994   0.0041548986  -0.00044607826
     21000   0.001992366    5.7799363e-07  0.0013610759   0.0043482748   0.00069963965
     22000   0.0021283243  -3.6672612e-09  0.0014649008   0.0046553239   0.00056659963
     23000   0.0025735469  -0.0015218821   0.0017283014   0.004064249    0.00012610136
     24000   0.0024444094  -0.0016039619   0.0016864538   0.0037467405  -0.00025353478
     25000   0.0024681684  -0.0016016608   0.0016795706   0.0037777739  -0.00025316254
     26000   0.0025092316  -0.001589946    0.001707866    0.0038793392   0.00073864395
     27000   0.0030589285  -0.0031177114   0.002012252    0.0034799731   0.00066127919
     28000   0.002845273   -0.0031717067   0.0020052056   0.003098655   -0.00065030665
     29000   0.0028512639  -0.0032042003   0.0019482227   0.0030181589  -0.00057429635
     30000   0.0032344357  -0.0047618896   0.0020775691   0.0021642029  -0.00033739482
     31000   0.0030894149  -0.0048363168   0.0022389438   0.0020337595  -5.3009553e-05
     32000   0.0032581607  -0.0048324545   0.0021927205   0.0022443541   0.0004081845 
     33000   0.0032215756  -0.0048326584   0.0023286392   0.0023252265   0.00081874659
     34000   0.0040031854  -0.0075381178   0.0027834668   0.0012462531  -0.00038818505
     35000   0.0034571004  -0.0077706526   0.0024728762  -0.00011547145 -0.00047436738
     36000   0.0044781808  -0.010762873    0.002879389   -0.0011705465   0.00029027022
     37000   0.0046349367  -0.012733258    0.0026719396  -0.0031133985   0.0014358727 
     38000   0.003998545   -0.012685588    0.002635141   -0.004056499    0.00085337462
     39000   0.0042627611  -0.014426017    0.0027870632  -0.0052489372  -0.00031597353
     40000   0.004134619   -0.014466278    0.0026197665  -0.0056485844  -0.0001137876 
     41000   0.0039847584  -0.014424344    0.0027835834  -0.005667479    0.0012337074 
     42000   0.0041003877  -0.014461977    0.0027443035  -0.00557106     0.00093054757
     43000   0.0046610268  -0.016092878    0.0029636582  -0.0061421907  -0.00089918803
     44000   0.0050067312  -0.017410171    0.0032844405  -0.0066204791   0.00065734213
     45000   0.004455419   -0.017661738    0.0034852371  -0.0074976837   0.00065597604
     46000   0.0051730411  -0.018875657    0.0031358034  -0.0079852986   0.0012827956 
     47000   0.0048234191  -0.020213159    0.0036651187  -0.0093175793  -0.00014686758
     48000   0.0050129943  -0.020804911    0.0032635772  -0.010026693    0.0010465819 
     49000   0.0048960789  -0.02092223     0.003432082   -0.010150768    0.00069088756
     50000   0.0049235086  -0.020936616    0.0033882007  -0.010167917    0.00079825125
     51000   0.00492648    -0.020952896    0.0034339135  -0.01013403    -9.9449397e-06
     52000   0.0049640066  -0.020935875    0.0036265379  -0.0098681306   0.0005278417 
     53000   0.0051770599  -0.020929367    0.003623604   -0.0095451832   0.00036990358
     54000   0.0052657508  -0.020944248    0.0034947157  -0.0095560024   0.00086037796
     55000   0.0060853671  -0.023751249    0.0038114575  -0.01081763    -0.0011225271 
     56000   0.0062538265  -0.025626116    0.0044453757  -0.011806053   -0.00027783503
     57000   0.0059547504  -0.025535002    0.0040988231  -0.012509816    0.00078965433
     58000   0.0058286135  -0.025713989    0.0042028718  -0.012773837    0.00087809502
     59000   0.0059676236  -0.025765081    0.004081245   -0.012738176   -0.00083566962
     60000   0.0062263966  -0.028179923    0.0047460447  -0.014100309   -0.00074142725
     61000   0.0059818772  -0.028790768    0.0043156234  -0.015508118    0.0019284784 
     62000   0.0067672005  -0.030551642    0.0044656802  -0.01594171     0.00085783845
     63000   0.0061759127  -0.030546407    0.0042984406  -0.016990074    0.00022777165
     64000   0.006368309   -0.030614988    0.0043737853  -0.016694903    0.00091681367
     65000   0.006979178   -0.03180092     0.0046508149  -0.016688092   -0.0010421423 
     66000   0.006667507   -0.033497093    0.0049865955  -0.018515689   -0.00018351472
     67000   0.0070366041  -0.035029979    0.0048388929  -0.019642989    0.001288804  
     68000   0.0066585769  -0.035294355    0.0049549037  -0.020358029    0.00035402746
     69000   0.00774469    -0.03695675     0.0046795276  -0.020667683    0.00070925206
     70000   0.0075509027  -0.04064005     0.0055705939  -0.02375041    -0.0018496157 
     71000   0.0080932312  -0.043399417    0.005499981   -0.025767421    0.0017198277 
     72000   0.0073398181  -0.043454734    0.0052650805  -0.02718703     0.0016786875 
     73000   0.0082095926  -0.045840785    0.0054637154  -0.028070625    0.0004600615 
     74000   0.0077800166  -0.046450173    0.0052802499  -0.029507427   -0.00041996995
     75000   0.0074292031  -0.046591614    0.0053660244  -0.030088975   -0.00041463259
     76000   0.0080027951  -0.048257038    0.0055370475  -0.030723543    0.0020339269 
     77000   0.0076748602  -0.048277163    0.0053867585  -0.031385542    0.001708909  
     78000   0.008144959   -0.049644101    0.0054825338  -0.03195201    -0.00091277784
     79000   0.0074898826  -0.051124451    0.005852221   -0.034044654    0.00045086305
     80000   0.0082122728  -0.052183593    0.0058364175  -0.034036714   -0.00035149015
     81000   0.0085000032  -0.054556112    0.0056781302  -0.036136202    0.00015970755
     82000   0.0082185397  -0.056153057    0.0062090051  -0.037624196    0.00014269859
     83000   0.0096146426  -0.058705174    0.006278348   -0.038014166    0.00037179401
     84000   0.0092357251  -0.059354831    0.005857861   -0.03965232     0.00047488718
     85000   0.0081015621  -0.059531149    0.0058980691  -0.041488577   -9.8837603e-05
     86000   0.0088965743  -0.061422849    0.0060647872  -0.04202181    -0.00091965681
     87000   0.008721849   -0.062409196    0.0064831676  -0.042851695    0.0029836841 
     88000   0.010043441   -0.06582373     0.0067625536  -0.044005735    0.0013747767 
     89000   0.0095545455  -0.066951882    0.0061576629  -0.046471648    0.00010086466
     90000   0.010147375   -0.069095769    0.0060937386  -0.047790787    0.00022778544
     91000   0.0092176955  -0.069033274    0.0067508475  -0.048464804    0.00063674755
     92000   0.0095120861  -0.070714241    0.0067916841  -0.049663633    0.0015618703 
     93000   0.0092714691  -0.070794768    0.006522662   -0.050373875    0.0014469555 
     94000   0.0093884616  -0.070797593    0.0067830233  -0.049940963    0.0010637428 
     95000   0.010528898   -0.073839706    0.0066369646  -0.051419583    0.0018230506 
     96000   0.0097243418  -0.073761103    0.0063165777  -0.052867424   -0.0007493365 
     97000   0.010361445   -0.075603985    0.0070295896  -0.053042255    0.00013826626
     98000   0.010936829   -0.078282777    0.0072153604  -0.054672758    0.00022203233
     99000   0.010007058   -0.07857286     0.0069755328  -0.056596425   -0.00061588076
    100000   0.010245952   -0.0787175      0.0072617911  -0.056096696   -0.00060968091
    101000   0.010321905   -0.080184721    0.006843532   -0.05786832    -2.6514343e-05
    102000   0.0098863423  -0.080469564    0.0071374487  -0.05851217     0.0013675838 
    103000   0.011470406   -0.083627393    0.0076160969  -0.058816787    0.00050325661
    104000   0.011527542   -0.085612898    0.0075690398  -0.060763701    0.0024648261 
    105000   0.011119937   -0.087780608    0.0078257665  -0.063285697    0.00052593822
    106000   0.01170929    -0.09016856     0.0077799722  -0.064835983   -0.0010794652 
    107000   0.011522565   -0.09285923     0.0077139178  -0.067872615    0.0014563314 
    108000   0.013520888   -0.099770544    0.0085623327  -0.070939963    0.0011599371 
    109000   0.011529412   -0.1033862      0.0088490306  -0.077254211    9.9780679e-05
    110000   0.012026175   -0.10566135     0.0082480033  -0.079385721    0.00075832342
    111000   0.011215969   -0.10599615     0.0076627336  -0.081520322    0.00083506577
    112000   0.011155031   -0.10616894     0.0077189127  -0.081728273   -0.00026488348
    113000   0.011436224   -0.10621597     0.0077084037  -0.081364294    7.3577918e-05
    114000   0.012672019   -0.11039043     0.0085998253  -0.082794837    0.0012530127 
    115000   0.012153045   -0.11208671     0.0085175372  -0.085351362   -6.4095154e-05
    116000   0.012049636   -0.11466189     0.0086054506  -0.087993642   -0.0015391253 
    117000   0.012448566   -0.11856827     0.0086705752  -0.091236893    0.00087684765
    118000   0.012229598   -0.12036928     0.0083479874  -0.093688726   -0.00086915185
    119000   0.012136514   -0.12031808     0.0084677455  -0.093657312    0.00090203886
    120000   0.012405217   -0.11980124     0.0082973282  -0.092908094    0.0027784609 
    121000   0.01216286    -0.12125998     0.0088332424  -0.09419422     0.0010084621 
    122000   0.012280258   -0.12180422     0.008519426   -0.094876292    0.0011501149 
    123000   0.0119694     -0.12178419     0.0082639217  -0.095577752   -0.0012771563 
    124000   0.011918308   -0.1218545      0.0085831164  -0.095405451    0.00031373281
    125000   0.013801348   -0.12482213     0.0083933681  -0.095740099    0.00057750265
    126000   0.013616725   -0.12645631     0.0088856725  -0.097158731    0.00067216919
    127000   0.013632549   -0.12751627     0.0092444224  -0.097836219    0.00067126312
    128000   0.013082223   -0.12901437     0.0093984489  -0.10000525     0.0016085458 
    129000   0.013316983   -0.12989999     0.0091087605  -0.10082865     0.0016385372 
    130000   0.013461839   -0.13206966     0.0095759335  -0.10231399     0.001060419  
    131000   0.0144523     -0.1357464      0.0096877092  -0.10439422     0.0012619591 
    132000   0.014057915   -0.13806228     0.0098856891  -0.10710333    -5.81398e-06  
    133000   0.0138814     -0.13940071     0.0089402869  -0.10965176     0.00034740175
    134000   0.013707567   -0.14102592     0.0091940574  -0.11128378     0.0017736808 
    135000   0.013412127   -0.14090684     0.0095752716  -0.11122636    -0.00091392465
    136000   0.013506589   -0.1410246      0.0091897345  -0.11158805    -0.0015402011 
    137000   0.013933745   -0.14102801     0.0096436523  -0.11049723    -0.00094365206
    138000   0.014285601   -0.14406994     0.0099157453  -0.11273962     0.00016586295
    139000   0.014506497   -0.14581197     0.0094368108  -0.11462945     1.8078784e-05
    140000   0.014873154   -0.1472605      0.0098586601  -0.1151065      0.0017027644 
    141000   0.01460988    -0.15033378     0.0099169061  -0.1185162      0.0024859921 
    142000   0.013829296   -0.15049701     0.0097470025  -0.12001945     0.0015794151 
    143000   0.014860329   -0.15489131     0.010255289   -0.12235991     0.00031329206
    144000   0.015912267   -0.15875247     0.010917139   -0.12398233    -0.0027987628 
    145000   0.015599815   -0.16234544     0.010069664   -0.12889115    -0.00076096467
    146000   0.015956953   -0.1662256      0.010549307   -0.13175631     0.0025595324 
    147000   0.014876722   -0.16763377     0.010220865   -0.13511222     0.00095825203
    148000   0.01610786    -0.16845664     0.010666943   -0.13364349    -0.0002078546 
    149000   0.01650587    -0.17117518     0.010873462   -0.13555888     0.0016288133 
    150000   0.015126737   -0.17355976     0.010588477   -0.14029581     0.0006332738 
    151000   0.015335284   -0.17380541     0.010238104   -0.14057922     0.0028503184 
    152000   0.016391786   -0.17576219     0.010540278   -0.1406501      0.0005028588 
    153000   0.016102427   -0.17823991     0.011228807   -0.14287305     0.00029010964
    154000   0.01571866    -0.1780082      0.010589748   -0.14385568     0.0020606903 
    155000   0.017298362   -0.18373897     0.011687164   -0.146121       0.0017167223 
    156000   0.018174528   -0.18791965     0.011636314   -0.14903913     0.00096180898
    157000   0.017234124   -0.19133213     0.011269413   -0.15422821     0.00098974626
    158000   0.016838573   -0.19521203     0.011805522   -0.15816494    -0.0010362033 
    159000   0.016788168   -0.19707397     0.010973313   -0.16093465    -0.00052221311
    160000   0.016248263   -0.19740175     0.011380746   -0.16166433     0.0028711294 
    161000   0.015887872   -0.19767248     0.011407405   -0.16244864     0.00095001602
    162000   0.017037109   -0.19853096     0.011498083   -0.1614937      0.0010374838 
    163000   0.016634958   -0.20051144     0.011955834   -0.16361927     0.00033158449
    164000   0.018136653   -0.20483928     0.011102109   -0.16654974     0.0012826977 
    165000   0.016533361   -0.20656428     0.011305753   -0.17047449     0.0030800036 
    166000   0.016912553   -0.20912538     0.011905288   -0.17186763     0.0019629801 
    167000   0.01688102    -0.21199877     0.012365602   -0.17432797    -0.00021493049
    168000   0.016955484   -0.21264708     0.011867754   -0.17536251     0.0026363546 
    169000   0.016931311   -0.21313598     0.012000834   -0.17575456     0.0051523548 
    170000   0.016648303   -0.21336284     0.011887556   -0.17651894     0.00079977142
    171000   0.017009968   -0.2132876      0.011910498   -0.17587861     0.0010398651 
    172000   0.017260546   -0.21572883     0.012572174   -0.17728254     0.0012427885 
    173000   0.017909208   -0.21666997     0.011792719   -0.17803077     0.00048864681
    174000   0.01771221    -0.21827235     0.012126447   -0.17959473     0.00081832748
    175000   0.018216659   -0.21794496     0.012241201   -0.1783964     -1.6199504e-05
    176000   0.017121459   -0.21806382     0.01181717    -0.18058103     0.0024541064 
    177000   0.018459084   -0.22058716     0.012662271   -0.18025412    -0.0012589393 
    178000   0.017858177   -0.2209287      0.012448248   -0.18171047     0.0013605624 
    179000   0.018019848   -0.22112171     0.01164751    -0.18246187     0.0028506781 
    180000   0.019981823   -0.22700723     0.013363973   -0.18368986    -0.00096302217
    181000   0.019058622   -0.22876005     0.012364201   -0.18782636     0.0056727614 
    182000   0.019149815   -0.23050149     0.012922917   -0.18887238     0.0040199223 
    183000   0.018551726   -0.23067158     0.01256161    -0.19030033     0.0011571488 
    184000   0.019907338   -0.23360619     0.01327534    -0.19048911     0.0014561045 
    185000   0.019554201   -0.23595347     0.01311855    -0.19352254     0.0033032979 
    186000   0.018518591   -0.23704617     0.013244207   -0.196042       1.855469e-05 
    187000   0.019199171   -0.23843424     0.012911923   -0.19674214     0.0014775272 
    188000   0.020076621   -0.2419429      0.013845994   -0.1980014      0.0030957443 
    189000   0.019858987   -0.24389182     0.013000991   -0.20112157    -0.00068862432
    190000   0.01927203    -0.24453726     0.013543915   -0.20210395     0.0022263595 
    191000   0.019117745   -0.24379735     0.014003735   -0.20113549     0.0021939789 
    192000   0.020925338   -0.24899033     0.013564161   -0.20405841    -0.00052958497
    193000   0.02010208    -0.25046238     0.013526306   -0.20680241     0.0025427645 
    194000   0.020405476   -0.25393252     0.013385814   -0.20995824     0.0010908063 
    195000   0.020854846   -0.2582882      0.014324817   -0.2127013      0.0014112683 
    196000   0.020522765   -0.26034423     0.013399082   -0.21618086    -0.00062154116
    197000   0.020351505   -0.26058771     0.013489257   -0.21659089     0.0013557635 
    198000   0.020373937   -0.26326142     0.014722812   -0.21799742    -0.0030450838 
    199000   0.020477193   -0.26628923     0.015580656   -0.2200126      0.0029663904 
    200000   0.020633642   -0.26683774     0.014078963   -0.22182828     0.0062309121 
    201000   0.020427773   -0.26829344     0.013651226   -0.22402032    -0.00027231872
    202000   0.020347359   -0.26918512     0.013892195   -0.22479158    -0.00023505002
    203000   0.02026051    -0.26964718     0.014121477   -0.22515455     0.0031827128 
    204000   0.021265857   -0.27245654     0.014687959   -0.22589038     3.1237602e-05
    205000   0.020926011   -0.27283129     0.014948416   -0.22651411    -0.00079028334
    206000   0.021557361   -0.27593109     0.014993052   -0.22862286     0.0016592197 
    207000   0.021458537   -0.27660198     0.014347226   -0.23008771     0.00092877298
    208000   0.021765155   -0.28189897     0.01450058    -0.23477172     0.0022480877 
    209000   0.020289327   -0.28566454     0.014752797   -0.24049739     0.0015120473 
    210000   0.021016084   -0.28775539     0.014230346   -0.24202126     0.0050366813 
    211000   0.022366031   -0.29005544     0.014997147   -0.24153089     0.0024975083 
    212000   0.021287227   -0.29015695     0.015135083   -0.24311163    -0.00049981278
    213000   0.022739494   -0.29291234     0.015376386   -0.24344872    -0.00107864   
    214000   0.022622102   -0.29481904     0.014970434   -0.24593735     0.00405476   
    215000   0.022853786   -0.29794859     0.015862726   -0.2478273      0.0019543796 
    216000   0.023034254   -0.301222       0.015926809   -0.2507661      0.00071738535
    217000   0.022178296   -0.30366517     0.01595366    -0.25446553     0.0031974513 
    218000   0.022683602   -0.30626732     0.015852496   -0.25641138    -0.0021921835 
    219000   0.022213458   -0.30761184     0.015417533   -0.25889562     0.0014097438 
    220000   0.022501932   -0.30859901     0.015692446   -0.25917545     0.0075381014 
    221000   0.022437702   -0.3090051      0.014897036   -0.26047323     0.00047278807
    222000   0.021724066   -0.30892932     0.01508882    -0.26127543     0.0010671938 
    223000   0.022088481   -0.31055489     0.015175294   -0.26226825     0.00079786459
    224000   0.022521233   -0.30985457     0.01579623    -0.26029828     0.0014922152 
    225000   0.022902601   -0.31059796     0.014744779   -0.26152144     0.0019442288 
    226000   0.023861123   -0.31453116     0.01550708    -0.26325548     5.7224033e-05
    227000   0.023745734   -0.31647108     0.016153965   -0.2647215      0.0043434101 
    228000   0.02349222    -0.31707746     0.016405233   -0.26545663     0.0063245027 
    229000   0.023128298   -0.31860084     0.016113165   -0.26781761    -0.0015889102 
    230000   0.023994179   -0.32001531     0.015915849   -0.26813141     0.00035213258
    231000   0.023468265   -0.3208249      0.015759343   -0.26988587     0.002039182  
    232000   0.023355875   -0.32229623     0.016389067   -0.27089595     0.0020440323 
    233000   0.024894863   -0.32429657     0.015633299   -0.27134507     0.0037761974 
    234000   0.025016814   -0.32699316     0.017447011   -0.27204514     0.0060185098 
    235000   0.026525355   -0.33060853     0.016705785   -0.27414038     0.0010767197 
    236000   0.023315253   -0.33021311     0.01671021    -0.27855258     0.0015674793 
    237000   0.023584717   -0.3304427      0.016201656   -0.27888679     0.00322235   
    238000   0.024333599   -0.33175458     0.01592922    -0.27934851    -0.00026389225
    239000   0.024399485   -0.33187778     0.016772316   -0.27852985     0.0010996807 
    240000   0.024393833   -0.3331374      0.017922406   -0.27864785     0.0021272349 
    241000   0.025129465   -0.33366645     0.017304963   -0.27869161     0.0027977256 
    242000   0.025154048   -0.33471024     0.01668782    -0.28031569     0.0081788307 
    243000   0.024646245   -0.33544292     0.016623256   -0.28187415     0.0048380302 
    244000   0.025408991   -0.34045691     0.017443119   -0.28492489    -0.00019628355
    245000   0.025010268   -0.34079108     0.016499489   -0.28680039    -2.0047274e-05
    246000   0.023774347   -0.34100534     0.017477194   -0.28788963     0.0025294186 
    247000   0.024944262   -0.34229478     0.016426785   -0.28847574     0.0046647231 
    248000   0.025461841   -0.34397189     0.016766218   -0.28903755     0.0027127691 
    249000   0.025102081   -0.34522222     0.016556484   -0.29103691     0.003830093  
    250000   0.025336862   -0.34817899     0.017709045   -0.29248917     0.0042030708 
    251000   0.025251469   -0.34853528     0.017315713   -0.2933668      0.0013734375 
    252000   0.026181488   -0.34989392     0.018790409   -0.29185661     0.0050158544 
    253000   0.025569579   -0.35259792     0.019073528   -0.29519477     0.00036400593
    254000   0.026360794   -0.3558845      0.018310895   -0.29805793     0.002542127  
    255000   0.026008513   -0.35823047     0.018125713   -0.30111716    -0.00033661037
    256000   0.026105516   -0.3602577      0.017642295   -0.3034824      0.0012306756 
    257000   0.026211905   -0.36520616     0.017686525   -0.30822715     0.0019820752 
    258000   0.027262455   -0.3695203      0.017543682   -0.31110931    -0.0019845873 
    259000   0.027480367   -0.37363235     0.017871688   -0.3145667      0.0023307064 
    260000   0.026653696   -0.37505688     0.0182205     -0.31688163     0.0022737868 
    261000   0.027253947   -0.38063775     0.017699119   -0.32208408    -0.0013286962 
    262000   0.026974844   -0.38285295     0.018814136   -0.32360266     0.00052322409
    263000   0.027524582   -0.38388676     0.018709838   -0.32391669     0.0037709044 
    264000   0.027699518   -0.38479874     0.019098087   -0.32417818    -0.00150513   
    265000   0.02773351    -0.38519349     0.018309914   -0.32531015     0.002853749  
    266000   0.027721592   -0.38614392     0.020731006   -0.32385735    -0.00021313308
    267000   0.027629284   -0.38822348     0.019367374   -0.32743892    -0.0025394779 
    268000   0.02692132    -0.39001123     0.020020646   -0.32963466     0.0032282923 
    269000   0.029052669   -0.39267401     0.018461565   -0.33066155     0.0047515921 
    270000   0.027541519   -0.39293647     0.018844322   -0.33280652    -0.0013880095 
    271000   0.027813922   -0.39465446     0.019686943   -0.33327355     0.0060733997 
    272000   0.027422338   -0.39606196     0.019872894   -0.3350821      0.00090362254
    273000   0.02768958    -0.39632782     0.018468735   -0.33635151    -0.004131333  
    274000   0.02659845    -0.39583202     0.019104557   -0.33685552     0.0023954863 
    275000   0.027661701   -0.39683544     0.019966461   -0.3354032      0.0025414087 
    276000   0.028654165   -0.39763431     0.018957993   -0.3357228     -0.0019387911 
    277000   0.029134636   -0.39755049     0.019110705   -0.33476602     0.0059025827 
    278000   0.02773689    -0.39996215     0.019823952   -0.33855971     0.00093369171
    279000   0.028477154   -0.40049407     0.019620836   -0.33818506     0.0059884617 
    280000   0.029040152   -0.40171406     0.020162368   -0.33801957     0.0012695496 
    281000   0.027945226   -0.40183419     0.019867457   -0.34007594    -0.0022597427 
    282000   0.030256292   -0.40477001     0.02083604    -0.33857882     0.0045966336 
    283000   0.02920677    -0.40549628     0.020053964   -0.34166043     0.0019877684 
    284000   0.030483624   -0.40664816     0.019565627   -0.3413866      0.0058307541 
    285000   0.029073792   -0.40831571     0.019397111   -0.34533605    -0.00028065626
    286000   0.028975117   -0.40863558     0.019980531   -0.34522041     0.0041489774 
    287000   0.028397582   -0.40869474     0.020556934   -0.34556891     0.0070089394 
    288000   0.029093514   -0.40928426     0.020875841   -0.3447963     -0.0032062612 
    289000   0.029797389   -0.41147723     0.020752702   -0.34605728     0.0028333973 
    290000   0.029622887   -0.41109268     0.021916615   -0.34477041     0.0035584529 
    291000   0.030956442   -0.4154638      0.020318234   -0.34874086     0.0045593355 
    292000   0.029920752   -0.41600202     0.022146454   -0.34900339     0.00032980708
    293000   0.030272039   -0.41577958     0.020155489   -0.35024533     0.0071775323 
    294000   0.030475562   -0.41642587     0.020874711   -0.34986731     0.0025019968 
    295000   0.029991995   -0.4171841      0.02069254    -0.35153259     0.010117858  
    296000   0.029716917   -0.41849056     0.021828519   -0.35211542     0.0077093738 
    297000   0.030167104   -0.41848705     0.022064086   -0.35120151    -0.0025199614 
    298000   0.030145831   -0.41990863     0.021505481   -0.35321357     0.0040064778 
    299000   0.03086751    -0.42206564     0.020956614   -0.35483763     0.0034447365 
    300000   0.030900145   -0.42442031     0.021107011   -0.35699299     0.0025016591 
    301000   0.03007987    -0.42662028     0.021032794   -0.36049679     0.0044483981 
    302000   0.031198457   -0.42827659     0.021235477   -0.36027362     0.0019611851 
    303000   0.030156061   -0.42975581     0.021270821   -0.36328009     0.0071275802 
    304000   0.03005926    -0.43064573     0.020816876   -0.36476905     0.0079928844 
    305000   0.030103565   -0.43141177     0.020640175   -0.36564538     0.0021790563 
    306000   0.030530842   -0.43391625     0.021115177   -0.36703435     0.0015000375 
    307000   0.031181194   -0.43752101     0.022416467   -0.36836293    -0.00023368813
    308000   0.031273986   -0.43861432     0.022603858   -0.36912975    -0.00067472849
    309000   0.031157025   -0.44071068     0.022216234   -0.37178906     0.0031443251 
    310000   0.031112013   -0.43967019     0.022231381   -0.3708009      0.0020624538 
    311000   0.031846121   -0.44138461     0.023344482   -0.37030176    -0.0018741585 
    312000   0.032769955   -0.44265712     0.020803335   -0.37273057     0.00086026362
    313000   0.032697054   -0.44628718     0.02318043    -0.37409281     0.0037161355 
    314000   0.031601016   -0.44748694     0.022523559   -0.37759243     0.0058966834 
    315000   0.03093105    -0.448398       0.022758447   -0.37927291     0.00069455054
    316000   0.033091859   -0.4503824      0.021945652   -0.37883099     0.0056230006 
    317000   0.031777397   -0.44993088     0.02190617    -0.38038937     0.0010246674 
    318000   0.032722592   -0.451608       0.022373091   -0.38018269     0.0023210034 
    319000   0.032667857   -0.45325339     0.021938027   -0.38234519     0.004719572  
    320000   0.031859699   -0.45401005     0.022434764   -0.38381657     0.0048023663 
    321000   0.031830554   -0.45617503     0.022190056   -0.38626994    -3.8320533e-05
    322000   0.03264475    -0.4592706      0.021351212   -0.38898386    -0.0022313739 
    323000   0.031965754   -0.46186762     0.022496266   -0.39145366     0.0061694129 
    324000   0.032479624   -0.46213162     0.02318131    -0.3902623      0.0036301593 
    325000   0.031797469   -0.46190695     0.021975515   -0.392266      -0.0033765124 
    326000   0.033091619   -0.463906       0.02149772    -0.39280288     0.0016636878 
    327000   0.033100049   -0.46392958     0.023389404   -0.39092213    -0.0010615236 
    328000   0.032135946   -0.46442986     0.022893721   -0.39336332    -2.1912205e-06
    329000   0.033688706   -0.46635866     0.02275329    -0.39310491     0.0014211477 
    330000   0.034397155   -0.46846907     0.023039903   -0.39386672     0.0037363182 
    331000   0.034266275   -0.46954105     0.023689567   -0.39448523     0.0056873172 
    332000   0.033596525   -0.47098406     0.023861459   -0.39676033     0.00021289012
    333000   0.033239645   -0.47140327     0.022185163   -0.39939081     0.0040476726 
    334000   0.033292878   -0.47156605     0.022417804   -0.39924115     0.00016403398
    335000   0.033827213   -0.47154081     0.022741484   -0.39809125     0.0042863683 
    336000   0.035435125   -0.47441085     0.023322751   -0.3979697      0.0079936558 
    337000   0.033415923   -0.47647847     0.024456787   -0.40193014     0.0006647444 
    338000   0.034250341   -0.48085908     0.024027928   -0.40548879     0.0068803337 
    339000   0.034455852   -0.48168064     0.023821145   -0.40620906    -0.0022933584 
    340000   0.03521415    -0.48336923     0.025178848   -0.40540323     0.0042456007 
    341000   0.035315754   -0.48393032     0.024392704   -0.40659816     0.0026023874 
    342000   0.035016653   -0.48525612     0.024054146   -0.40871088     0.004230217  
    343000   0.032668776   -0.48498424     0.024409506   -0.41160318    -0.00033098744
    344000   0.034512692   -0.48671666     0.024114186   -0.41086684     0.0081047085 
    345000   0.033419293   -0.48835457     0.023444767   -0.41481321     0.00019029953
    346000   0.035424286   -0.48824873     0.023536168   -0.41161042     0.0012749912 
    347000   0.035956466   -0.49219354     0.024602231   -0.41369141    -0.0025388343 
    348000   0.035590391   -0.49289906     0.024324865   -0.41522305     0.0015325183 
    349000   0.035503675   -0.4966298      0.025763176   -0.41764547     0.0011415961 
    350000   0.035541313   -0.498951       0.024024766   -0.42164866     0.0044093239 
    351000   0.037816855   -0.49929559     0.024025942   -0.41858096     0.0028313435 
    352000   0.036326347   -0.49912745     0.025094393   -0.41957869     0.00096123537
    353000   0.03618223    -0.50060797     0.024058257   -0.42231138     0.0094072472 
    354000   0.03557442    -0.50041701     0.024413738   -0.42267607     0.0075002703 
    355000   0.037210214   -0.50125261     0.02342705    -0.42204624     0.002600836  
    356000   0.035243532   -0.50072403     0.023890838   -0.424002       0.0030969091 
    357000   0.036226302   -0.50088135     0.024504224   -0.42207273     0.0012827834 
    358000   0.03698253    -0.50105875     0.025325468   -0.42029527    -0.0049391836 
    359000   0.036175258   -0.50180393     0.025176334   -0.42239971    -0.0056788732 
    360000   0.03596816    -0.50171284     0.024069099   -0.4237263      0.0049323107 
    361000   0.035099747   -0.50273253     0.024277469   -0.42583941     0.0030617064 
    362000   0.034968795   -0.50318295     0.02498127    -0.42578233    -0.0031999155 
    363000   0.035694553   -0.5020038      0.025473432   -0.42302308     0.0085742433 
    364000   0.03764848    -0.50283949     0.024837859   -0.42156534    -0.00084514771
    365000   0.037007598   -0.50642578     0.027317567   -0.42363263     0.0015416381 
    366000   0.037166512   -0.50685175     0.025664174   -0.42547377     0.00048202288
    367000   0.037816252   -0.5064174      0.026642062   -0.42308756     0.0052432348 
    368000   0.037046017   -0.50879991     0.028226794   -0.42503994     0.0039461695 
    369000   0.036922631   -0.50908967     0.025318899   -0.42842256     0.0046331645 
    370000   0.037886055   -0.50928815     0.025661253   -0.42683448     0.0031441996 
    371000   0.037072855   -0.51198919     0.026687772   -0.42972802     0.0034574227 
    372000   0.037797224   -0.51336567     0.025939948   -0.43076646     0.0065349625 
    373000   0.038357644   -0.51344402     0.026090455   -0.42985422     0.0043983779 
    374000   0.037588768   -0.51412332     0.02682747    -0.43094908     0.0063698817 
    375000   0.038123281   -0.51424497     0.026508179   -0.43058876    -0.0073378284 
    376000   0.038181961   -0.51463068     0.024588167   -0.43280653     0.0041915498 
    377000   0.037171621   -0.51542285     0.02554217    -0.43415922     0.0052436788 
    378000   0.038875635   -0.51569724     0.025519176   -0.43190223    -0.0021459578 
    379000   0.037044809   -0.51784356     0.026748011   -0.43556418     0.0032169044 
    380000   0.037812865   -0.51837611     0.026019944   -0.43567346     0.0051091222 
    381000   0.038702588   -0.52048111     0.025601212   -0.43686347     0.011798791  
    382000   0.03781862    -0.52200569     0.026905355   -0.43840901     0.0018674683 
    383000   0.03850757    -0.52311245     0.026729885   -0.43865848    -0.0013451074 
    384000   0.038779518   -0.52268804     0.027732756   -0.43682354     0.0057582886 
    385000   0.038733295   -0.52621457     0.028251792   -0.43990032     0.0068122014 
    386000   0.040101881   -0.52833557     0.026067079   -0.44215448     0.0056004597 
    387000   0.039886516   -0.52836081     0.025884932   -0.44268471     0.0012525274 
    388000   0.037835415   -0.52915696     0.026978561   -0.44546189    -0.00049284548
    389000   0.039350908   -0.53015079     0.02694934    -0.44421317     0.0025957856 
    390000   0.039234848   -0.53168325     0.028050625   -0.44481833    -0.0005913833 
    391000   0.039971851   -0.53323929     0.025858279   -0.44746191     0.00079303976
    392000   0.04008563    -0.53554117     0.026880696   -0.44857082    -0.0021732579 
    393000   0.040570077   -0.53639493     0.025492076   -0.450087       0.0040322185 
    394000   0.03859992    -0.53660575     0.028881438   -0.44986178     0.0011234155 
    395000   0.039056855   -0.53832221     0.02743736    -0.45233737     0.0065404154 
    396000   0.040061615   -0.53963879     0.026584407   -0.45300073     0.011578873  
    397000   0.037373974   -0.53951927     0.02829373    -0.45520075    -0.0030244307 
    398000   0.040098257   -0.53882577     0.026935765   -0.45178143     0.001403636  
    399000   0.038674004   -0.53938576     0.02769729    -0.45371489    -0.00070316777
    400000   0.04214183    -0.54134444     0.027768741   -0.45040373     0.0042798868 
    401000   0.040328471   -0.54413836     0.029282102   -0.45440258     0.004818104  
    402000   0.040157813   -0.54427867     0.027983118   -0.4560977     -0.0026965308 
    403000   0.041345685   -0.54488278     0.028587568   -0.4543167      0.011277198  
    404000   0.041509554   -0.54578299     0.029703955   -0.45385488     0.0014725871 
    405000   0.040855054   -0.54491566     0.028281073   -0.45539154     0.0062338376 
    406000   0.041437826   -0.54839981     0.027562247   -0.45872093     0.0089058421 
    407000   0.041974362   -0.54931448     0.029084784   -0.45730878     0.0061994049 
    408000   0.041320418   -0.55154739     0.029453707   -0.46015304     0.0029756709 
    409000   0.041879313   -0.55337417     0.028529817   -0.46206591     0.0013889846 
    410000   0.042558194   -0.55285299     0.027592786   -0.4614641      0.0046429801 
    411000   0.042499554   -0.55373498     0.027640899   -0.46238587     0.0045195653 
    412000   0.041079146   -0.55435574     0.028114216   -0.46466256     0.003273414  
    413000   0.038267153   -0.55406764     0.027785053   -0.46891889     0.0034339496 
    414000   0.04167248    -0.55743915     0.029649343   -0.46532141     0.0078247849 
    415000   0.041177693   -0.55708137     0.029827269   -0.46552741    -0.00056851434
    416000   0.041837218   -0.55854577     0.028622276   -0.46720815     0.0018142926 
    417000   0.043774982   -0.56088009     0.029116221   -0.46614376     0.010155475  
    418000   0.041544449   -0.56251913     0.02992775    -0.47031491     0.0036443602 
    419000   0.043021431   -0.56371926     0.028283146   -0.4709456      0.0065715683 
    420000   0.044353051   -0.56656578     0.029991795   -0.47008733     0.0026139586 
    421000   0.043033295   -0.56584366     0.029197112   -0.47213825     0.0029245903 
    422000   0.042399005   -0.56636306     0.028713064   -0.47409252     0.0081078872 
    423000   0.041514561   -0.56696617     0.029800024   -0.47493448     0.0018184976 
    424000   0.042122318   -0.56883901     0.029044762   -0.47665154     0.0015581755 
    425000   0.04352966    -0.57137158     0.029201044   -0.47691817    -0.00029943325
    426000   0.04183758    -0.57158105     0.030871894   -0.47799328    -0.0024288048 
    427000   0.043254292   -0.57509914     0.029340083   -0.48091948     0.0040583865 
    428000   0.044448143   -0.57558745     0.02999073    -0.47896752     0.0048698423 
    429000   0.043314483   -0.57838457     0.031910527   -0.48154423     0.0030090409 
    430000   0.043271306   -0.5809196      0.032074068   -0.48398044     0.00337266   
    431000   0.045408302   -0.58398723     0.033124595   -0.48279412     0.005608984  
    432000   0.043807209   -0.58349614     0.031031988   -0.48679574     0.0029264617 
    433000   0.042427613   -0.58350222     0.029373118   -0.49052874    -0.0066343076 
    434000   0.043261775   -0.58292722     0.030778573   -0.48729785     0.014664945  
    435000   0.044066293   -0.58530259     0.030352751   -0.48889305     0.0021364235 
    436000   0.044417342   -0.58623347     0.02967526    -0.48997518     0.0079613457 
    437000   0.044994801   -0.58627001     0.031272026   -0.48754933     0.0016796416 
    438000   0.044232663   -0.58787803     0.031863151   -0.48970869     0.012331915  
    439000   0.044663885   -0.58715001     0.030958617   -0.48923879     0.01563933   
    440000   0.044039514   -0.58759977     0.029872614   -0.4917105      0.0075160245 
    441000   0.043094111   -0.58956996     0.03046821    -0.49450229     0.012619337  
    442000   0.045705715   -0.59159146     0.029787918   -0.4932892      0.013645862  
    443000   0.043522586   -0.59206053     0.03156297    -0.4952558      0.0041249252 
    444000   0.045521176   -0.59314749     0.030381955   -0.49452783     0.0037427923 
    445000   0.046457486   -0.59467887     0.030454384   -0.49458321    -0.00038204755
    446000   0.045025452   -0.59438187     0.03089014    -0.49599712     0.0094794963 
    447000   0.044563361   -0.59569751     0.031071293   -0.4978243      6.5936571e-06
    448000   0.044950087   -0.59541539     0.031378591   -0.49665516     0.0051815635 
    449000   0.045705537   -0.59421045     0.030569914   -0.49512646     0.0069603756 
    450000   0.045056735   -0.59474857     0.029458389   -0.49774868     0.0075321213 
    451000   0.044976569   -0.59443084     0.030495074   -0.49651444     0.0025985617 
    452000   0.045411267   -0.5945318      0.032080791   -0.49437805     0.0037630493 
    453000   0.04572842    -0.59612777     0.030897727   -0.49668166     0.0081942874 
    454000   0.046071409   -0.59788533     0.031576274   -0.49724652     0.013090511  
    455000   0.048699534   -0.60121938     0.030000761   -0.49821644    -0.0019710247 
    456000   0.047028048   -0.60481023     0.030017953   -0.50429572     0.0044440474 
    457000   0.046976953   -0.60621936     0.032049157   -0.50375023     0.0022651806 
    458000   0.0446439     -0.60763316     0.032833416   -0.5078771      0.0034082845 
    459000   0.047466338   -0.60850921     0.033163933   -0.5041917      0.001239058  
    460000   0.046884439   -0.60827763     0.031238925   -0.50675742    -0.00027192893
    461000   0.044980572   -0.60860413     0.033798913   -0.50737789     0.0014762082 
    462000   0.045894388   -0.60925103     0.032197786   -0.50825607     0.0017642593 
    463000   0.046358045   -0.6101096      0.031764427   -0.50885297     0.0041481869 
    464000   0.046914653   -0.61218916     0.033661494   -0.50820108     0.0043412192 
    465000   0.046252823   -0.61185838     0.032534573   -0.50998933     0.0034450408 
    466000   0.047063569   -0.61429297     0.032538683   -0.51120448     0.0079550385 
    467000   0.047860059   -0.6154724      0.032888688   -0.51083994     0.0018279352 
    468000   0.047897199   -0.61706777     0.034511459   -0.51075686     0.0011521255 
    469000   0.048946022   -0.61733566     0.032908841   -0.51105515     0.0017661667 
    470000   0.047170343   -0.61893823     0.032320837   -0.51590753     0.0015900972 
    471000   0.048816784   -0.61962364     0.033952171   -0.51249353     0.00085609783
    472000   0.047767522   -0.62206511     0.032912656   -0.5175474      0.0038846551 
    473000   0.047748954   -0.62239198     0.034249696   -0.51656506     0.0036624684 
    474000   0.047144767   -0.62461617     0.032796106   -0.52114853     0.0062229291 
    475000   0.046573395   -0.62506475     0.03279006    -0.52245967     0.011256322  
    476000   0.047841355   -0.62448363     0.033506956   -0.51926094     0.013646057  
    477000   0.049424382   -0.62324526     0.033503117   -0.5156534      0.013861461  
    478000   0.05165587    -0.62562467     0.033951466   -0.51423939     0.00033582676
    479000   0.048347914   -0.62642896     0.035849372   -0.51810451     0.005420239  
    480000   0.048143369   -0.62612787     0.03405697    -0.51990244     0.0080766123 
    481000   0.04961234    -0.62753679     0.034634404   -0.51853189     0.0020177651 
    482000   0.049668623   -0.62869288     0.035286085   -0.51895193     0.0098733118 
    483000   0.04865383    -0.6282231      0.034602702   -0.52068673     0.0060125915 
    484000   0.048683812   -0.62912132     0.033659375   -0.52248334    -0.00060226169
    485000   0.047906194   -0.62947599     0.034234722   -0.52342833     0.0028547873 
    486000   0.048412869   -0.62880287     0.033487012   -0.52274341    -0.0012265731 
    487000   0.048002603   -0.62996128     0.034812533   -0.52319129     0.0015757447 
    488000   0.050470629   -0.63190106     0.035034677   -0.52120928     0.010620639  
    489000   0.049584925   -0.63272752     0.034140334   -0.52425779    -0.0010503772 
    490000   0.049094435   -0.63393409     0.035710573   -0.52462938     0.00017761283
    491000   0.051117596   -0.6365049      0.03400846    -0.52586951    -0.00080883953
    492000   0.049381241   -0.63602166     0.036377119   -0.52562046    -0.002824054  
    493000   0.05028944    -0.63762021     0.035473801   -0.52676092     0.0039489654 
    494000   0.048373793   -0.63882428     0.033919099   -0.5323913     -0.0079703117 
    495000   0.047582181   -0.63767365     0.034857261   -0.53148917     0.0038208169 
    496000   0.048173768   -0.63853912     0.032141953   -0.53418314     0.0070957771 
    497000   0.049706217   -0.63868526     0.033587332   -0.53058671     0.0039615495 
    498000   0.04963311    -0.63854394     0.033733432   -0.53040888     0.011897704  
    499000   0.05037439    -0.63943807     0.0352854     -0.52863984     0.0041992981 
    500000   0.052161451   -0.64083138     0.035059969   -0.52757971     0.0081733659 
Loop time of 119.206 on 8 procs for 500000 steps with 1550 atoms

Performance: 362398.892 tau/day, 4194.432 timesteps/s, 6.501 Matom-step/s
92.5% CPU use with 8 MPI tasks x 1 OpenMP threads

MPI task timing breakdown:
Section |  min time  |  avg time  |  max time  |%varavg| %total
---------------------------------------------------------------
Pair    | 13.507     | 14.394     | 16.113     |  25.5 | 12.08
Bond    | 4.8086     | 5.2225     | 6.0255     |  16.5 |  4.38
Neigh   | 0.047315   | 0.04745    | 0.047597   |   0.1 |  0.04
Comm    | 10.107     | 12.536     | 13.989     |  38.2 | 10.52
Output  | 0.36843    | 0.38998    | 0.41193    |   2.3 |  0.33
Modify  | 85.117     | 85.272     | 85.415     |   1.1 | 71.53
Other   |            | 1.343      |            |       |  1.13

Nlocal:         193.75 ave         242 max         159 min
Histogram: 1 2 0 1 1 1 0 1 0 1
Nghost:            570 ave         644 max         516 min
Histogram: 2 1 0 0 0 3 1 0 0 1
Neighs:              0 ave           0 max           0 min
Histogram: 8 0 0 0 0 0 0 0 0 0
FullNghs:       3320.5 ave        4497 max        2709 min
Histogram: 3 1 1 1 0 0 0 0 1 1

Total # of neighbors = 26564
Ave neighs/atom = 17.138065
Ave special neighs/atom = 2.1612903
Neighbor list builds = 180
Dangerous builds = 0

unfix ThermoLng

# Now we let the system to create the polymeric network
fix ThermoLng all langevin ${temp} ${temp} ${damp} ${seed3} tally yes zero yes # Brownian Dynamics: langevin + nve
fix ThermoLng all langevin 0.05 ${temp} ${damp} ${seed3} tally yes zero yes 
fix ThermoLng all langevin 0.05 0.05 ${damp} ${seed3} tally yes zero yes 
fix ThermoLng all langevin 0.05 0.05 1 ${seed3} tally yes zero yes 
fix ThermoLng all langevin 0.05 0.05 1 2010 tally yes zero yes 
run ${steps}
run 5000000
WARNING: Using a manybody potential with bonds/angles/dihedrals and special_bond exclusions (src/pair.cpp:250)
Hybrid pair style last /omp style table/omp
Last active /omp style is angle_style harmonic/omp
Per MPI rank memory allocation (min/avg/max) = 24.03 | 24.04 | 24.04 Mbytes
   Step          Temp          E_pair         E_mol          TotEng         Press     
    500000   0.052161451   -0.64083138     0.035059969   -0.52757971     0.007430917  
    501000   0.051653602   -0.64132419     0.034348376   -0.5295454      0.006283045  
    502000   0.048905988   -0.64138369     0.034670678   -0.53340136    -0.0027086825 
    503000   0.050435843   -0.64315989     0.035306907   -0.53224803     0.0061060177 
    504000   0.052345135   -0.64283968     0.036077129   -0.5282955      0.0045100795 
    505000   0.050235751   -0.64472417     0.03547453    -0.53394462     0.0099114724 
    506000   0.05123387    -0.64557499     0.034136118   -0.53463765    -0.0060252295 
    507000   0.048444543   -0.64518846     0.034643749   -0.53792478     0.00054717857
    508000   0.05057548    -0.64750626     0.03538154    -0.53631044     0.012024587  
    509000   0.050866187   -0.64891161     0.035591495   -0.53707006     0.0044901553 
    510000   0.051801263   -0.65083028     0.035730748   -0.53744777     0.0043232023 
    511000   0.051602793   -0.65137469     0.035648432   -0.53837201     0.0011628483 
    512000   0.050443804   -0.65228183     0.035444086   -0.54122085     0.013751454  
    513000   0.049485119   -0.65082886     0.036020392   -0.54062868     2.9218374e-05
    514000   0.049047824   -0.6496408      0.035434805   -0.54068173     0.016678792  
    515000   0.051481154   -0.6511399      0.035016627   -0.53895136     0.0064372646 
    516000   0.051195468   -0.65182643     0.032687103   -0.54239567     0.0053306219 
    517000   0.050144423   -0.65247477     0.03535446    -0.54195221     0.011501313  
    518000   0.051133447   -0.65328057     0.036025009   -0.54060487     0.0067594114 
    519000   0.049985153   -0.65205953     0.035219645   -0.54191053    -0.00031669879
    520000   0.050620712   -0.65216342     0.03560895    -0.54067239    -0.00032487482
    521000   0.050518518   -0.65405988     0.034412058   -0.54391894    -0.00042124303
    522000   0.049813277   -0.65476733     0.036112645   -0.54398298     0.0022030575 
    523000   0.050955467   -0.65470378     0.03687651    -0.54144338     0.0021104684 
    524000   0.05086747    -0.65501229     0.035768569   -0.54299175     0.0074744472 
    525000   0.049540221   -0.65500647     0.035900938   -0.54484314     0.0043801627 
    526000   0.048946242   -0.65489856     0.034830552   -0.54669601     0.0089646557 
    527000   0.050979491   -0.65621647     0.035437653   -0.54435891     0.0076337157 
    528000   0.049447971   -0.65741287     0.036528586   -0.54676018     0.012822701  
    529000   0.053317931   -0.66033736     0.036655403   -0.54375666    -0.00036388309
    530000   0.052281228   -0.6612618      0.03642568    -0.54646487     0.0060183665 
    531000   0.051480921   -0.66045905     0.037149828   -0.54613766     0.011192987  
    532000   0.052182852   -0.65914731     0.035040013   -0.54588352     0.014967493  
    533000   0.051764306   -0.65955299     0.034987103   -0.54696952     0.019034119  
    534000   0.050574326   -0.658763       0.03405721    -0.54889324     0.0050971789 
    535000   0.051700662   -0.66123186     0.036344927   -0.54738597     0.0039429135 
    536000   0.051390122   -0.66340823     0.03578724    -0.55058554     0.0032453137 
    537000   0.050804801   -0.66216937     0.033487431   -0.5525239     -0.00029225668
    538000   0.05035663    -0.6627642      0.035255739   -0.55202225     0.0093896926 
    539000   0.050571249   -0.6630649      0.035027011   -0.55222996     0.013883387  
    540000   0.049511414   -0.66274413     0.03752626    -0.55099867     0.012804293  
    541000   0.050240904   -0.66309166     0.037216216   -0.55056271     0.019192973  
    542000   0.051619904   -0.66363668     0.035803744   -0.55045303     0.03006397   
    543000   0.050214636   -0.66368168     0.034423231   -0.55398509     0.020667702  
    544000   0.050000956   -0.66257792     0.03539867    -0.5522262      0.0067923293 
    545000   0.049194797   -0.66472251     0.037297556   -0.55368037     0.0021967794 
    546000   0.049564125   -0.66437271     0.035808112   -0.55426638     0.011727221  
    547000   0.049789084   -0.66621902     0.036032388   -0.55555118     0.013587734  
    548000   0.04861027    -0.66667978     0.037138795   -0.55667262     0.0089770402 
    549000   0.050231931   -0.66725293     0.036534625   -0.55541902     0.014835407  
    550000   0.050726898   -0.66713246     0.036475946   -0.55461525     0.015701928  
    551000   0.052074715   -0.66691838     0.034528256   -0.55432844     0.0090543393 
    552000   0.050647614   -0.66615156     0.034627842   -0.55560131     0.0086173023 
    553000   0.050506419   -0.66753525     0.035575891   -0.55624861     0.0094935571 
    554000   0.04928113    -0.666732       0.03543904    -0.55741896     0.0018755597 
    555000   0.049467968   -0.66654323     0.033688998   -0.55870016     0.0097062665 
    556000   0.050310632   -0.6693186      0.035107099   -0.55879424    -0.0013791031 
    557000   0.051639894   -0.66739384     0.035011174   -0.5549728      0.010847472  
    558000   0.049712699   -0.6673427      0.035302101   -0.55751966     0.0075062431 
    559000   0.049755136   -0.66709631     0.033770873   -0.55874088     0.020063314  
    560000   0.048420678   -0.66825113     0.034262537   -0.56140443    -0.001450687  
    561000   0.052129505   -0.67012409     0.03431209    -0.55766819     0.025924777  
    562000   0.04933752    -0.67029719     0.036232974   -0.56010568     0.010661592  
    563000   0.050024571   -0.66934609     0.036123604   -0.55823404     0.01300507   
    564000   0.049970894   -0.67031145     0.036147557   -0.55925591     0.0092615724 
    565000   0.051569324   -0.66903422     0.035646129   -0.55608401     0.017580601  
    566000   0.052473768   -0.67199186     0.038657364   -0.55467463     0.0051628133 
    567000   0.052001814   -0.66985244     0.035525271   -0.55637477     0.0019274924 
    568000   0.051209224   -0.67083086     0.036499498   -0.55756708    -0.0018911031 
    569000   0.049888318   -0.66982183     0.034659415   -0.56037822     0.0027311012 
    570000   0.050210371   -0.67083582     0.034634698   -0.56093416     0.0083965713 
    571000   0.049010286   -0.67014265     0.036196755   -0.56047789     0.0092502613 
    572000   0.049286398   -0.67016349     0.033666425   -0.56261516     0.0087324189 
    573000   0.051328462   -0.67272535     0.035470212   -0.56031212     0.011507261  
    574000   0.050749408   -0.67205842     0.034845279   -0.56113814     0.0042876889 
    575000   0.048999313   -0.67023465     0.036332013   -0.56045108     0.015542762  
    576000   0.050826624   -0.67259574     0.034059278   -0.56234571     0.01132616   
    577000   0.051159029   -0.6726259      0.035090255   -0.56084661     0.014920442  
    578000   0.049797009   -0.67290839     0.035717392   -0.56254368     0.021624934  
    579000   0.05002374    -0.67392597     0.033845974   -0.5650928      0.0094438142 
    580000   0.050789353   -0.67382618     0.035062406   -0.5626289      0.01235644   
    581000   0.050878131   -0.67335752     0.034541078   -0.56254848     0.01151239   
    582000   0.049781627   -0.67367239     0.034727623   -0.5643205      0.014666715  
    583000   0.048811328   -0.67346239     0.035480477   -0.56481215     0.0030124435 
    584000   0.049714187   -0.67693339     0.036303204   -0.56610701     0.019157648  
    585000   0.050404785   -0.67575404     0.034653196   -0.56554245     0.02974231   
    586000   0.052114238   -0.67634495     0.036648156   -0.56157587     0.013326184  
    587000   0.050735208   -0.67825765     0.037447086   -0.56475685     0.020743011  
    588000   0.050500338   -0.68049357     0.03647124    -0.56832069     0.013102404  
    589000   0.051271777   -0.68170562     0.034277142   -0.57057043     0.017101946  
    590000   0.051243736   -0.6819095      0.034272479   -0.570821       0.018171271  
    591000   0.049479485   -0.68096624     0.034811127   -0.57198377     0.0038133653 
    592000   0.050398389   -0.68367297     0.03470803    -0.57341613     0.019398131  
    593000   0.050300141   -0.68378942     0.034942192   -0.57344569     0.01666207   
    594000   0.053693673   -0.68527587     0.035213298   -0.56957402     0.017174921  
    595000   0.051554443   -0.68589515     0.035382119   -0.57323126     0.002037902  
    596000   0.049410026   -0.68607254     0.035869024   -0.57613629     0.0094777238 
    597000   0.050789235   -0.68602359     0.035229574   -0.57465931     0.022320718  
    598000   0.050951078   -0.68683802     0.037185907   -0.5732748      0.02055603   
    599000   0.049596797   -0.68815949     0.036203988   -0.5776083      0.015150797  
    600000   0.051506659   -0.68702722     0.035216154   -0.57460092     0.00042476319
    601000   0.051586004   -0.68645935     0.03493898    -0.57419129     0.00072557035
    602000   0.051267562   -0.68876871     0.037291043   -0.57462594     0.0043071983 
    603000   0.048562679   -0.68945637     0.036247442   -0.58041191    -0.0051405744 
    604000   0.0504241     -0.68958106     0.035976692   -0.57801702     0.0093986817 
    605000   0.051212921   -0.68835048     0.03505072    -0.57652993     0.01794309   
    606000   0.048981178   -0.68909455     0.035040995   -0.58062919     0.0056989793 
    607000   0.050384385   -0.68903538     0.035709999   -0.57779756     0.010604574  
    608000   0.051944568   -0.68870058     0.034262397   -0.5765716      0.013899935  
    609000   0.049604593   -0.68884896     0.035819942   -0.57867014     0.0042890093 
    610000   0.051253688   -0.69073617     0.035849731   -0.57805551     0.010610298  
    611000   0.049706379   -0.69037916     0.033197915   -0.58266978    -0.0022091508 
    612000   0.049643056   -0.69101551     0.035542427   -0.58105654     0.0090196705 
    613000   0.051323802   -0.6890621      0.035599107   -0.57652696     0.018503111  
    614000   0.049814427   -0.69055399     0.036999765   -0.57888079     0.019595232  
    615000   0.050033946   -0.69102375     0.034751898   -0.58126936     0.013873812  
    616000   0.051910602   -0.69025069     0.034186473   -0.57824855     0.0067068209 
    617000   0.049877693   -0.69005994     0.035301098   -0.57999057     0.009574899  
    618000   0.050165453   -0.69012439     0.035735989   -0.57918877     0.0075768793 
    619000   0.050871805   -0.69169929     0.036000656   -0.57944015     0.019451776  
    620000   0.049819517   -0.69211457     0.036518289   -0.58091522    -0.001725702  
    621000   0.049654693   -0.69217705     0.036681359   -0.5810617      0.015559841  
    622000   0.049311041   -0.69085884     0.035355715   -0.58158428     0.013573041  
    623000   0.049765966   -0.69206151     0.034582334   -0.58287839     0.00068718244
    624000   0.050405525   -0.69246836     0.036030553   -0.5808783      0.013670874  
    625000   0.049734021   -0.69150365     0.035384742   -0.58156601     0.0085839786 
    626000   0.051514887   -0.69186484     0.035528241   -0.57911412     0.0072824945 
    627000   0.052215149   -0.69318922     0.035707519   -0.5792095      0.0059163368 
    628000   0.050696566   -0.69436621     0.036274148   -0.58209627     0.0096872585 
    629000   0.050914499   -0.6938705      0.036607895   -0.58094013     0.0029317308 
    630000   0.050681969   -0.69311008     0.036783617   -0.58035255     0.0053594764 
    631000   0.050813168   -0.69422923     0.03481253    -0.58324612     0.0039538641 
    632000   0.050055705   -0.69385543     0.035046609   -0.5837737      0.015368091  
    633000   0.050803645   -0.69399129     0.036479672   -0.58135531     0.0072921673 
    634000   0.05082812    -0.69514763     0.034780801   -0.58417384     0.01145042   
    635000   0.051834084   -0.69402345     0.035722862   -0.58059962     0.0079164409 
    636000   0.05085738    -0.69457657     0.036720867   -0.58161885     0.01011973   
    637000   0.05058177    -0.69526429     0.036542062   -0.58289853     0.0071597838 
    638000   0.05137272    -0.69364988     0.03454877    -0.58209174     0.0059495642 
    639000   0.048917484   -0.69519939     0.035028359   -0.58684214     0.0055656825 
    640000   0.05032775    -0.69515783     0.037912878   -0.58180203     0.0079959215 
    641000   0.050497916   -0.69540002     0.036043798   -0.58365822     0.0059978925 
    642000   0.052297015   -0.6954245      0.037039978   -0.57998961    -0.00047843576
    643000   0.051617557   -0.69563256     0.036284273   -0.58197191     0.0014891066 
    644000   0.049354071   -0.69542814     0.03551173    -0.58593306    -0.0036658002 
    645000   0.050179267   -0.69651793     0.035226881   -0.58607071     0.0057040241 
    646000   0.049373629   -0.69775385     0.035316715   -0.58842447    -0.0025292219 
    647000   0.050870504   -0.69676748     0.033807188   -0.58670377     0.0022309482 
    648000   0.051092354   -0.69691952     0.035841458   -0.58448898     0.0018893272 
    649000   0.049789791   -0.69559318     0.036489093   -0.58446759     0.0019317918 
    650000   0.052004504   -0.69606475     0.035592464   -0.58251585     0.010341264  
    651000   0.050351631   -0.6969816      0.034148316   -0.58735457    -0.005463854  
    652000   0.049817073   -0.69956829     0.036093475   -0.58879741     0.014403272  
    653000   0.052423562   -0.69984649     0.036051218   -0.58521066     0.0030085691 
    654000   0.051273831   -0.70268934     0.035611463   -0.59021675    -0.0089306806 
    655000   0.051019267   -0.70311264     0.035918199   -0.59071492    -0.0049224919 
    656000   0.049995577   -0.70218801     0.035149531   -0.5920935      0.011538647  
    657000   0.05095059    -0.70312366     0.03549223    -0.59125485     0.0067795233 
    658000   0.049753997   -0.70383648     0.036616753   -0.59263689     0.006870692  
    659000   0.049668357   -0.70678112     0.035482335   -0.59684432     0.013639828  
    660000   0.048691752   -0.70665588     0.036908276   -0.5967571     -0.0010333917 
    661000   0.049359835   -0.70789101     0.034670609   -0.59922842     0.0095763685 
    662000   0.051624436   -0.70910519     0.037680362   -0.59403813     0.010982359  
    663000   0.049755094   -0.70752835     0.036155063   -0.59678879     0.0078121487 
    664000   0.050697941   -0.70871349     0.035756958   -0.59695868    -0.003332835  
    665000   0.049583042   -0.70830341     0.035684916   -0.59829192     0.014055792  
    666000   0.051129553   -0.70968564     0.036023237   -0.59701755     0.0048713546 
    667000   0.051419365   -0.70914504     0.033875395   -0.59819036     0.012159345  
    668000   0.051231563   -0.70953899     0.036155862   -0.59658536     0.013315457  
    669000   0.050673926   -0.7090069      0.037136774   -0.59590827     0.0078555917 
    670000   0.052040217   -0.70938687     0.035925225   -0.59545168     0.0097647465 
    671000   0.050218443   -0.71035258     0.036102965   -0.59897055     0.0025648805 
    672000   0.051214433   -0.70932833     0.034095014   -0.59846123     0.011894926  
    673000   0.051325889   -0.71437557     0.035248978   -0.60218742     0.005933038  
    674000   0.0510013     -0.71533307     0.036496728   -0.60238375     0.00053307281
    675000   0.051462028   -0.71515701     0.035667424   -0.60234635     0.015119955  
    676000   0.049936796   -0.71417764     0.035372077   -0.6039487      0.0051573053 
    677000   0.050333292   -0.71372822     0.033903352   -0.60437364     0.0040654629 
    678000   0.051224871   -0.71254191     0.033393219   -0.60236096     0.00039312944
    679000   0.048760168   -0.71231433     0.036595981   -0.60262529    -0.0010874729 
    680000   0.048589411   -0.71167316     0.03564878    -0.60318728     0.0032929069 
    681000   0.050990847   -0.71296193     0.034735605   -0.6017894      0.0065532713 
    682000   0.049548315   -0.7126676      0.036911908   -0.60148117     0.0016627126 
    683000   0.051079566   -0.7127714      0.036999456   -0.59920203     0.013313792  
    684000   0.050261975   -0.71321436     0.03642695    -0.60144309     0.0066613225 
    685000   0.04990103    -0.71104585     0.036757654   -0.59948495     0.0079235991 
    686000   0.050206009   -0.71040302     0.037223508   -0.59791909     0.0024113854 
    687000   0.047641785   -0.71078711     0.035147527   -0.60422302     0.0005888981 
    688000   0.050842774   -0.71188807     0.034755215   -0.6009179      0.0033577927 
    689000   0.050199088   -0.71382311     0.036231928   -0.60234113    -0.0015016875 
    690000   0.04944285    -0.71361641     0.035391026   -0.60410896     0.017703904  
    691000   0.050106491   -0.71375737     0.03739045    -0.60125567     0.010188392  
    692000   0.050809085   -0.71284192     0.037201255   -0.59947621     0.013293747  
    693000   0.049715351   -0.71277131     0.034518408   -0.60372798     0.012478747  
    694000   0.049826417   -0.71281024     0.034920748   -0.60319808     0.0023741782 
    695000   0.050230616   -0.71124161     0.036286228   -0.59965807     0.0097727266 
    696000   0.050473719   -0.71154096     0.035416557   -0.60046267     0.0043904114 
    697000   0.05170537    -0.71257242     0.036799465   -0.59826494     0.0032672855 
    698000   0.050413683   -0.71263198     0.036587281   -0.60047296    -0.00035334589
    699000   0.051386662   -0.71417096     0.034634813   -0.60250588    -0.00086842395
    700000   0.049766596   -0.71380156     0.03507355    -0.60412628    -0.00089536079
    701000   0.050698101   -0.71334494     0.036468918   -0.60087794     0.018869125  
    702000   0.050454388   -0.71443025     0.038814252   -0.59998324     0.0075832589 
    703000   0.050176782   -0.71435026     0.03592802    -0.60320562     0.001920501  
    704000   0.052954493   -0.71586906     0.039184455   -0.59730412     0.00093026435
    705000   0.052393927   -0.71638897     0.036483306   -0.60136547    -2.076452e-05 
    706000   0.04961491    -0.71648247     0.037601231   -0.60450689     0.0098760822 
    707000   0.051442968   -0.71652068     0.03753413    -0.60187188    -0.019325654  
    708000   0.052443549   -0.7160743      0.036785798   -0.60067393     0.01737716   
    709000   0.050615869   -0.71692582     0.037420161   -0.60363084     0.0095005574 
    710000   0.05188686    -0.71672679     0.035313884   -0.60363283     0.020939012  
    711000   0.050738072   -0.71715079     0.037612993   -0.60347979     0.011536823  
    712000   0.052236154   -0.71786771     0.036675412   -0.60288861     0.012023035  
    713000   0.050566836   -0.71682233     0.037029679   -0.60399133     0.010060077  
    714000   0.051663907   -0.7177385      0.038349151   -0.60194349     0.014308541  
    715000   0.050067011   -0.71750386     0.036613278   -0.60583852     0.014574225  
    716000   0.050563071   -0.71781739     0.037886932   -0.60413478     0.0044129404 
    717000   0.052312051   -0.71882593     0.034225599   -0.60618287    -0.00010358283
    718000   0.051421693   -0.71831097     0.033579009   -0.60764918     0.016045554  
    719000   0.048004297   -0.71882514     0.036696694   -0.61016846     0.0059036191 
    720000   0.051268324   -0.71874724     0.038060053   -0.60383432     0.014608739  
    721000   0.052235044   -0.7190122      0.03672804    -0.60398214     0.011394899  
    722000   0.054062258   -0.72123444     0.03725379    -0.60293958     0.029694835  
    723000   0.052099041   -0.72161854     0.037848448   -0.60567195     0.027767948  
    724000   0.052304058   -0.72056155     0.037480419   -0.60467567     0.012044108  
    725000   0.05208901    -0.72136499     0.036700902   -0.60658098     0.0075444072 
    726000   0.051631132   -0.72176962     0.038252436   -0.60612045     0.01165602   
    727000   0.050603526   -0.72083011     0.036545552   -0.60842824     0.017484282  
    728000   0.051857048   -0.72246175     0.036389999   -0.60833637     0.0040938803 
    729000   0.05167871    -0.72260227     0.034215312   -0.6109189      0.018665175  
    730000   0.051866577   -0.72013606     0.03890283    -0.60348356     0.017933921  
    731000   0.052651956   -0.72148567     0.037142149   -0.60541654     0.026038088  
    732000   0.051217368   -0.72141391     0.037507174   -0.60713024     0.016430619  
    733000   0.052922272   -0.72396152     0.03826119    -0.60636814     0.012890229  
    734000   0.050641839   -0.72254301     0.037182964   -0.6094463      0.01622755   
    735000   0.051899995   -0.72475411     0.037368963   -0.60958538     0.0053142881 
    736000   0.050035888   -0.72460154     0.035478887   -0.61411724    -0.0090027869 
    737000   0.050627991   -0.72413164     0.037168517   -0.61107013    -0.0067896047 
    738000   0.049734477   -0.7235897      0.033931845   -0.61510427    -0.0056766863 
    739000   0.049393472   -0.72435015     0.038965576   -0.61134216     0.0051026655 
    740000   0.050022809   -0.72309072     0.037997543   -0.61010738     0.018610286  
    741000   0.051189308   -0.72458305     0.037591527   -0.6102571      0.0052891982 
    742000   0.050139039   -0.7234501      0.037281892   -0.61100817     0.010003433  
    743000   0.053743616   -0.7242703      0.036304782   -0.60740211     0.0056877566 
    744000   0.051046835   -0.72540615     0.037848062   -0.61103724    -0.0045108336 
    745000   0.051813485   -0.72610985     0.036817717   -0.61162205     0.0021744344 
    746000   0.05001269    -0.72646079     0.037964099   -0.61352605     0.0051076129 
    747000   0.050388997   -0.72677451     0.036579481   -0.6146603     -0.0056074821 
    748000   0.051850328   -0.72904898     0.036833307   -0.61449035    -0.0042382142 
    749000   0.050197691   -0.72859931     0.037202227   -0.61614912    -0.013744163  
    750000   0.050415466   -0.72753488     0.036781211   -0.61517926     0.0052299134 
    751000   0.051633994   -0.72907438     0.037309121   -0.61436423     0.021987753  
    752000   0.051211505   -0.72800991     0.037538182   -0.61370403     0.010909896  
    753000   0.049430183   -0.72909976     0.038271846   -0.61673047     0.0070075691 
    754000   0.051459955   -0.72842968     0.036909758   -0.61437979     0.013467369  
    755000   0.052318616   -0.72839023     0.038107475   -0.61185547     0.0038720992 
    756000   0.05320787    -0.72842838     0.037538597   -0.61112947     0.011378748  
    757000   0.053242728   -0.72933723     0.039807586   -0.60971708     0.0039574718 
    758000   0.050177211   -0.72888535     0.036111042   -0.61755705     0.00090583059
    759000   0.050828372   -0.73072355     0.03903932    -0.61549086    -0.0006322544 
    760000   0.049448822   -0.72957061     0.039019626   -0.61642561     0.0052155151 
    761000   0.051918925   -0.72945388     0.036310055   -0.61531568     0.0035188659 
    762000   0.05097495    -0.72913851     0.037767377   -0.61495803     0.0056763273 
    763000   0.052897341   -0.72925627     0.03650678    -0.61345467    -0.0021928204 
    764000   0.05182932    -0.728806       0.039109513   -0.61200266     0.010262396  
    765000   0.049614274   -0.72993464     0.036060048   -0.61950119     0.0094064825 
    766000   0.049287491   -0.72964935     0.036724257   -0.61904156    -0.0017983832 
    767000   0.049231925   -0.7313408      0.03729914    -0.62024141     0.00057841848
    768000   0.050512199   -0.73120462     0.036938249   -0.61854696    -0.007242296  
    769000   0.051791386   -0.73162428     0.037350089   -0.61663723    -0.014007323  
    770000   0.050969611   -0.73062343     0.034893993   -0.61932434     0.0090188706 
    771000   0.050602687   -0.73098498     0.037415866   -0.61771406    -0.0025726985 
    772000   0.051490481   -0.73302988     0.037972831   -0.61787116     0.005751683  
    773000   0.053195876   -0.7314032      0.038059527   -0.61360134     0.0075131064 
    774000   0.052285069   -0.72983492     0.037428609   -0.61402931     0.017160175  
    775000   0.051364259   -0.73084468     0.036458902   -0.6173891      0.012027455  
    776000   0.051198015   -0.73067573     0.038847546   -0.61508071     0.0036232982 
    777000   0.051182268   -0.73169746     0.03576169    -0.61921189     0.016488835  
    778000   0.051330977   -0.73163562     0.037537095   -0.61715174     0.014807571  
    779000   0.0489609     -0.72961378     0.036159671   -0.62006014     0.014333867  
    780000   0.052221052   -0.73061471     0.036717243   -0.61561643     0.0019068596 
    781000   0.051446814   -0.73101096     0.037680623   -0.6162099      0.015713283  
    782000   0.048205842   -0.7314687      0.037219825   -0.62198676     0.017974745  
    783000   0.051082277   -0.7319759      0.03759758    -0.61780435     0.022679967  
    784000   0.051284612   -0.73202397     0.035876505   -0.61927018     0.012708546  
    785000   0.050787463   -0.73173227     0.037909964   -0.61769026     0.011476316  
    786000   0.050722508   -0.73198066     0.037781948   -0.61816404    -0.0045169446 
    787000   0.051571244   -0.73377882     0.039689621   -0.61678224     0.005947056  
    788000   0.05081073    -0.73347355     0.038105866   -0.61920077     0.0062001052 
    789000   0.051228589   -0.73231093     0.037160955   -0.61835667     0.0059299758 
    790000   0.049010503   -0.73381186     0.037104308   -0.62323923     0.0042843317 
    791000   0.050998403   -0.73386268     0.038639092   -0.61877534     0.0037881949 
    792000   0.050694287   -0.73551973     0.036978571   -0.62254878     0.01301437   
    793000   0.052913071   -0.73655621     0.039261033   -0.61797677     0.019634717  
    794000   0.052909868   -0.73481237     0.035542088   -0.61995668     0.024359059  
    795000   0.051872843   -0.73570495     0.038885369   -0.61906051     0.016548303  
    796000   0.051942764   -0.73614453     0.03795936    -0.62032129     0.0042325075 
    797000   0.05007343    -0.73478755     0.038707894   -0.62101797     0.030271322  
    798000   0.051369266   -0.73465288     0.037749619   -0.61989908     0.018657941  
    799000   0.050458777   -0.73442309     0.040267472   -0.61851628     0.012705219  
    800000   0.050191641   -0.73528142     0.03741504    -0.62262749    -0.0023710293 
    801000   0.050724073   -0.73701526     0.03689197    -0.62408626    -0.0051582007 
    802000   0.051722215   -0.73721549     0.036590101   -0.62309212     0.018041103  
    803000   0.049533167   -0.7355313      0.036537494   -0.62474199    -0.00024311925
    804000   0.051714904   -0.73635352     0.037330413   -0.62150079     0.0030447927 
    805000   0.049634651   -0.73778842     0.038107032   -0.62527744     0.0045856273 
    806000   0.051603373   -0.73883858     0.036895636   -0.62458782     0.012693867  
    807000   0.052295946   -0.73726621     0.038192735   -0.62068017     0.0083613953 
    808000   0.052073927   -0.73703281     0.038337363   -0.62063495     0.018750697  
    809000   0.051258115   -0.73860454     0.037274181   -0.6244928      0.024978292  
    810000   0.050869129   -0.7389629      0.038326113   -0.62438232     0.011157984  
    811000   0.051344803   -0.73740631     0.037870736   -0.62256806     0.030127819  
    812000   0.050961539   -0.73622271     0.038485537   -0.62134418     0.01571999   
    813000   0.048924302   -0.73747022     0.038941871   -0.62518924     0.030786997  
    814000   0.050470807   -0.73848825     0.039033035   -0.62379784     0.025015673  
    815000   0.051109091   -0.74078443     0.038488111   -0.62568214     0.0082787025 
    816000   0.052191532   -0.74053047     0.038483359   -0.62381032     0.0057830054 
    817000   0.050975776   -0.74247357     0.039263897   -0.62679534     0.017837222  
    818000   0.051010012   -0.74109245     0.038029208   -0.62659758     0.011028529  
    819000   0.0498627     -0.7415224      0.036420986   -0.63035562     0.0066248656 
    820000   0.050365665   -0.73986313     0.036377066   -0.62798631     0.015544234  
    821000   0.05187328    -0.73984669     0.039251735   -0.62283524    -0.0042874118 
    822000   0.052191609   -0.74127711     0.037036503   -0.6260037      0.022021906  
    823000   0.052548256   -0.74147884     0.040272827   -0.62243449     0.0066532573 
    824000   0.050305697   -0.74104554     0.03700906    -0.62862661     0.031109657  
    825000   0.04881125    -0.74079955     0.038715751   -0.62891416     0.024522045  
    826000   0.050664795   -0.7387733      0.035314636   -0.6275105      0.032974908  
    827000   0.051251409   -0.73787274     0.038429618   -0.62261561     0.033702056  
    828000   0.052085528   -0.73831712     0.038737834   -0.6215014      0.042503627  
    829000   0.052271819   -0.73760499     0.037370304   -0.62187754     0.016043267  
    830000   0.050262987   -0.73772846     0.039742634   -0.62263999     0.0028037815 
    831000   0.051710953   -0.73813692     0.038962662   -0.62165787     0.018878608  
    832000   0.052394123   -0.73785194     0.03844723    -0.62086423     0.01565421   
    833000   0.0537186     -0.73960258     0.040925138   -0.61815153     0.011497075  
    834000   0.051425174   -0.73969404     0.041218447   -0.6213876      0.012959295  
    835000   0.050264473   -0.74093234     0.039259908   -0.62632437     0.024005544  
    836000   0.051688346   -0.73849387     0.038148202   -0.62286317     0.01604701   
    837000   0.053539724   -0.73647173     0.038904986   -0.61730897     0.01062545   
    838000   0.052008828   -0.73780084     0.039166835   -0.62067109    -0.0031963937 
    839000   0.052561561   -0.73948748     0.038951698   -0.62174431     0.015310534  
    840000   0.052977595   -0.73841861     0.041387572   -0.61761591     0.016978347  
    841000   0.051633894   -0.7371805      0.038747966   -0.62103166     0.02362153   
    842000   0.051994365   -0.73936108     0.038820204   -0.62259964    -0.0022549004 
    843000   0.050534645   -0.73849233     0.040854507   -0.62188476     0.015564624  
    844000   0.050460038   -0.73782488     0.040397093   -0.62178656    -0.0066988763 
    845000   0.051535652   -0.73814643     0.038280505   -0.62261232     0.0047466546 
    846000   0.050612148   -0.73821383     0.038504029   -0.62384055     0.020548811  
    847000   0.050182971   -0.73828688     0.037214133   -0.62584685     0.0034264759 
    848000   0.050106089   -0.73927588     0.036407522   -0.62775772     0.0012692842 
    849000   0.048866637   -0.73818928     0.037710085   -0.62722653     0.0021638224 
    850000   0.050551176   -0.73770689     0.037106965   -0.62482209     0.012577675  
    851000   0.051589378   -0.7414594      0.039682256   -0.624443       0.010814617  
    852000   0.051130382   -0.74155821     0.039116188   -0.62579593     0.012888389  
    853000   0.050414457   -0.7412361      0.039164601   -0.6264986      0.014003214  
    854000   0.052510388   -0.74245993     0.038330636   -0.62541453     0.015996449  
    855000   0.050280725   -0.74389096     0.038325875   -0.63019266     0.014151576  
    856000   0.050936006   -0.74273418     0.037061447   -0.62931802     0.01385072   
    857000   0.05117476    -0.74201928     0.040506665   -0.6248         0.015852102  
    858000   0.051068927   -0.74310048     0.037949053   -0.62859746     0.0060544865 
    859000   0.050630698   -0.74358538     0.040355247   -0.62733309     0.01322445   
    860000   0.054389958   -0.74209521     0.038115569   -0.62244734     0.018028888  
    861000   0.051702778   -0.7435323      0.040445822   -0.62558234    -0.0046077698 
    862000   0.051318757   -0.74300898     0.039469543   -0.62661096     0.037770879  
    863000   0.050783817   -0.74349653     0.036787384   -0.63058257     0.0097859793 
    864000   0.049964713   -0.74493362     0.037242561   -0.63279234     0.0059028556 
    865000   0.051924107   -0.74418762     0.039103346   -0.62724837     0.0025367036 
    866000   0.051860331   -0.74386077     0.040414154   -0.62570631     0.018921611  
    867000   0.050873583   -0.74408437     0.038294595   -0.62952864     0.01870795   
    868000   0.051242479   -0.74186951     0.037398787   -0.62765659     0.012683706  
    869000   0.05039893    -0.74293935     0.039085909   -0.62830382     0.01632403   
    870000   0.052488333   -0.7426042      0.037340067   -0.62658243     0.010618614  
    871000   0.051790057   -0.74369399     0.037642122   -0.62841691     0.014800784  
    872000   0.05275895    -0.74583428     0.037850389   -0.62889652     0.0018727556 
    873000   0.049943672   -0.74646498     0.038089973   -0.63350784     0.029799416  
    874000   0.049753847   -0.74652157     0.037451211   -0.63448774     0.013381074  
    875000   0.050929529   -0.74549937     0.037008187   -0.63214617     0.035650458  
    876000   0.050534902   -0.74660455     0.039093917   -0.63175719     0.033544494  
    877000   0.049849272   -0.74624739     0.038113615   -0.63340811     0.013047146  
    878000   0.051053929   -0.74742115     0.037889909   -0.63299976     0.013646244  
    879000   0.049444156   -0.74666649     0.038720309   -0.63382779     0.0017016249 
    880000   0.052374439   -0.7458457      0.037827925   -0.6295068      0.01330773   
    881000   0.051728213   -0.74678692     0.039432393   -0.62981227     0.016198611  
    882000   0.05011997    -0.74544151     0.037041472   -0.63326858     0.0094938082 
    883000   0.048224527   -0.74560233     0.036739947   -0.63657226     0.021251927  
    884000   0.049109586   -0.74556661     0.03823284    -0.63371692     0.0077979983 
    885000   0.049678503   -0.74654068     0.037052417   -0.63501859     0.028858026  
    886000   0.048980167   -0.74573983     0.036674555   -0.63564242     0.027358071  
    887000   0.050861676   -0.74595739     0.036958799   -0.6327553      0.0081080951 
    888000   0.052326366   -0.74606266     0.038585098   -0.62903865     0.022815231  
    889000   0.049631139   -0.74563115     0.039263041   -0.63196943     0.011309112  
    890000   0.049749043   -0.74656147     0.037807378   -0.63417868     0.011791956  
    891000   0.048685322   -0.74578358     0.036630675   -0.63617204     0.014633717  
    892000   0.050892546   -0.7469992      0.038670148   -0.63203949     0.011330841  
    893000   0.050911609   -0.74591707     0.038149914   -0.63144901     0.016393629  
    894000   0.051024992   -0.74583501     0.039890282   -0.62945662     0.023490488  
    895000   0.051475956   -0.74725206     0.03582957    -0.63425837     0.02649409   
    896000   0.051473534   -0.74686568     0.037767099   -0.6319381      0.0083575032 
    897000   0.049710037   -0.74786869     0.039382028   -0.63396971    -0.0032410766 
    898000   0.049305428   -0.74804009     0.039495312   -0.63463435    -0.0084584366 
    899000   0.050258844   -0.74861208     0.038924995   -0.63434746     0.0079341208 
    900000   0.050195233   -0.74690319     0.037418743   -0.63424017     0.0099621383 
    901000   0.051401445   -0.74824287     0.037038166   -0.63415228     0.015103233  
    902000   0.051215256   -0.74725941     0.037769337   -0.63271675     0.0059097985 
    903000   0.051454843   -0.74911672     0.038674016   -0.63331023     0.022944668  
    904000   0.050485163   -0.74792228     0.038981172   -0.63326222     0.014182111  
    905000   0.051570117   -0.74867339     0.039183821   -0.6321843      0.015148267  
    906000   0.049559343   -0.74970326     0.037606115   -0.63780609     0.027460583  
    907000   0.049068483   -0.74772058     0.04003508    -0.63413026     0.00049155408
    908000   0.051111058   -0.74873628     0.037022821   -0.63509633     0.013962155  
    909000   0.051668233   -0.7483386      0.038551988   -0.63233427    -0.0074099196 
    910000   0.049170695   -0.74858882     0.037740747   -0.63713962    -0.0035533106 
    911000   0.051303602   -0.7487103      0.037114592   -0.63468996     0.0070748431 
    912000   0.053334093   -0.74922914     0.03892917    -0.63035044    -0.0020309783 
    913000   0.051407547   -0.75042771     0.040206489   -0.63315965    -0.0076752965 
    914000   0.050880363   -0.74955825     0.038072633   -0.63521431    -0.008388541  
    915000   0.053121074   -0.75113403     0.036342075   -0.63516175     0.0080287048 
    916000   0.05063037    -0.74984307     0.036549787   -0.63739673     0.0028053205 
    917000   0.049556678   -0.7489949      0.037466992   -0.63724085    -0.012243834  
    918000   0.05042543    -0.74847313     0.03689997    -0.63598381     0.0043837961 
    919000   0.05147777    -0.75002822     0.038305906   -0.63455547     0.0013428314 
    920000   0.050697476   -0.7495085      0.03833788    -0.63517347     0.0047593111 
    921000   0.049252032   -0.74949928     0.036507668   -0.63916123     0.0065000239 
    922000   0.048727506   -0.74885391     0.038955755   -0.63685405     0.010259665  
    923000   0.051288049   -0.74955299     0.03859275    -0.6340778      0.0046580424 
    924000   0.051255752   -0.7497327      0.039380405   -0.63351827    -0.00063692843
    925000   0.049244427   -0.74940502     0.040888638   -0.63469739     0.0050394926 
    926000   0.050554636   -0.74921228     0.039732044   -0.6336972     -0.00075748255
    927000   0.05154091    -0.74936915     0.035725743   -0.63638192    -0.006060063  
    928000   0.050952848   -0.74990258     0.037710747   -0.63581187     0.0046045738 
    929000   0.053133271   -0.75004341     0.040441524   -0.6299534      0.0044523888 
    930000   0.05299703    -0.74923888     0.039292116   -0.6305025      0.01531607   
    931000   0.049916577   -0.7498995      0.038758714   -0.63631423    -0.011227837  
    932000   0.048443213   -0.75116373     0.037152321   -0.64139348    -0.019486261  
    933000   0.048770316   -0.74996042     0.037796875   -0.63905527    -0.011355739  
    934000   0.051569013   -0.75023123     0.037145216   -0.63578239    -0.0013818046 
    935000   0.051326293   -0.75078232     0.039623552   -0.63421899    -0.00031327024
    936000   0.051781975   -0.74996838     0.04034443    -0.6320011      0.0038947779 
    937000   0.050763506   -0.74935336     0.040783312   -0.63247392     0.0014507311 
    938000   0.051380672   -0.7499645      0.038863167   -0.63408005     0.0077438574 
    939000   0.050354508   -0.74892254     0.037419855   -0.63601965     0.0027182024 
    940000   0.050566583   -0.74974968     0.041486274   -0.63246247    -0.0068057124 
    941000   0.052201544   -0.74972123     0.036895715   -0.63457372     0.010945831  
    942000   0.050168454   -0.74982064     0.038734668   -0.63588184     0.014622566  
    943000   0.050675319   -0.75061919     0.036659409   -0.63799585     0.014397836  
    944000   0.048897561   -0.74910875     0.03928292    -0.6365268      0.0097144156 
    945000   0.048957371   -0.75075678     0.038883077   -0.63848502    -0.0074908465 
    946000   0.049113084   -0.74868353     0.038117851   -0.63694358    -0.0016833164 
    947000   0.049281389   -0.75038491     0.037274845   -0.63923567    -0.00022129535
    948000   0.049971267   -0.74945686     0.036165949   -0.63838237     0.0073770435 
    949000   0.050712013   -0.74969206     0.037863227   -0.63580989     0.020746171  
    950000   0.050525578   -0.74930973     0.037279684   -0.63629058     0.011325492  
    951000   0.049240763   -0.74929543     0.036951757   -0.63853018    -0.0047728021 
    952000   0.052178889   -0.74988612     0.036507032   -0.63516125    -0.0012740013 
    953000   0.051775658   -0.7497969      0.037322405   -0.63486111    -0.0050584783 
    954000   0.051467445   -0.74969884     0.039472342   -0.63307514    -0.004757551  
    955000   0.049714711   -0.74900818     0.03982039    -0.63466383    -0.0002252804 
    956000   0.049667983   -0.751009       0.038272848   -0.63828224     0.0051509571 
    957000   0.051375141   -0.75203056     0.036831993   -0.63818558     0.0056998823 
    958000   0.049184038   -0.74984448     0.037961225   -0.6381548      0.0038288637 
    959000   0.050490226   -0.74924783     0.036496299   -0.63706505    -0.00092000489
    960000   0.049659616   -0.75002834     0.038794658   -0.63679231    -0.0040886685 
    961000   0.049243538   -0.74946819     0.038568629   -0.63708191     0.019472656  
    962000   0.049468845   -0.74912214     0.038702152   -0.6362646      0.0056392827 
    963000   0.050084706   -0.7474186      0.038090397   -0.63424961     0.015264684  
    964000   0.050291565   -0.75077378     0.038066176   -0.63731892     0.018691888  
    965000   0.051543684   -0.74888935     0.036848078   -0.63477563     0.0020825443 
    966000   0.05220936    -0.74962266     0.038014425   -0.63334472     0.0078544368 
    967000   0.052447761   -0.75132968     0.039574065   -0.63313473     0.015565747  
    968000   0.052692104   -0.75055484     0.03853719    -0.63303049     0.023044787  
    969000   0.051703111   -0.74939129     0.039071296   -0.63281537     0.011953645  
    970000   0.051351374   -0.75007827     0.040585721   -0.63251518     0.0066297758 
    971000   0.051145263   -0.75014198     0.038472223   -0.63500136     0.028300949  
    972000   0.050076904   -0.75055711     0.039364073   -0.63612614     0.0043450733 
    973000   0.051985936   -0.74950934     0.039100621   -0.63248013     0.019222434  
    974000   0.050648731   -0.74937677     0.038585004   -0.63486768     0.010634434  
    975000   0.051174365   -0.74940037     0.037356186   -0.63533216     0.026092768  
    976000   0.049871666   -0.74987602     0.039101065   -0.63601572     0.015519184  
    977000   0.051213245   -0.7491396      0.035584011   -0.63678529     0.016424019  
    978000   0.050225376   -0.74924058     0.039583159   -0.63436796     0.0078073381 
    979000   0.051002578   -0.74837666     0.038694806   -0.63322734    -0.0057484603 
    980000   0.0501075     -0.74998598     0.037731616   -0.63714161     0.0065875077 
    981000   0.048994894   -0.74991528     0.038648256   -0.6378221      0.011138     
    982000   0.050741104   -0.7493088      0.039239277   -0.63400697     0.011214975  
    983000   0.050647445   -0.74888192     0.037992343   -0.63496743     0.0079986367 
    984000   0.050282869   -0.75034088     0.039815099   -0.63515014     0.0074846321 
    985000   0.053025264   -0.75225053     0.040180541   -0.63258341     0.0011052376 
    986000   0.051308178   -0.75176252     0.03885657    -0.63599333     0.013198885  
    987000   0.050595613   -0.75073213     0.040526574   -0.6343611      0.02845276   
    988000   0.05143098    -0.75213837     0.039384244   -0.63565743    -0.00059490339
    989000   0.052011709   -0.751698       0.039590761   -0.63414        0.0041346492 
    990000   0.051324321   -0.75100051     0.036829438   -0.63723426     0.016971713  
    991000   0.049767704   -0.75027431     0.036934362   -0.63873656     0.023031802  
    992000   0.049852909   -0.75076856     0.037172239   -0.6388652      0.028995423  
    993000   0.051353583   -0.75239882     0.03628465    -0.6391335      0.0088993998 
    994000   0.050589638   -0.752362       0.0403639     -0.6361626      0.007395564  
    995000   0.050557422   -0.75254335     0.037009809   -0.63974634     0.0059993882 
    996000   0.049460021   -0.75220814     0.038846152   -0.63921983     0.013541196  
    997000   0.050134327   -0.7523529      0.037172755   -0.64002718     0.0018601685 
    998000   0.050755524   -0.75214931     0.038684026   -0.63738112     0.002795161  
    999000   0.04951873    -0.75260836     0.039178639   -0.63919955     0.017214989  
   1000000   0.051257371   -0.75142371     0.038306096   -0.63628116     0.010767869  
   1001000   0.051240154   -0.75226682     0.039322556   -0.63613362     0.015352226  
   1002000   0.051124405   -0.75192799     0.03846727    -0.63682359     0.008399571  
   1003000   0.050063525   -0.75212367     0.037187376   -0.63988946     0.016004596  
   1004000   0.048412318   -0.75212439     0.038668737   -0.64088403     0.0059652254 
   1005000   0.049282482   -0.75251144     0.037990308   -0.6406451      0.0087596084 
   1006000   0.049288178   -0.75278421     0.036703286   -0.64219636     0.0014782279 
   1007000   0.050394728   -0.75258213     0.039465418   -0.63757339     0.0026937833 
   1008000   0.050160869   -0.75313977     0.038549656   -0.63939736     0.0068296512 
   1009000   0.049866109   -0.75294617     0.037546562   -0.6406487      0.010469475  
   1010000   0.050550005   -0.75157064     0.038047428   -0.63774712    -0.0025899003 
   1011000   0.049027096   -0.75256977     0.03919603    -0.63988054     0.012663475  
   1012000   0.049042089   -0.75203617     0.037564373   -0.64095613     0.017030827  
   1013000   0.050629964   -0.75349596     0.040303866   -0.63729615     0.01130987   
   1014000   0.05086393    -0.75385726     0.038442313   -0.63916828     0.005034078  
   1015000   0.050683866   -0.75316856     0.039961022   -0.63723079     0.009113936  
   1016000   0.050968582   -0.7519513      0.04043768    -0.63511008    -0.0011771064 
   1017000   0.051822277   -0.75406443     0.038525947   -0.63785522     0.029816472  
   1018000   0.04996318    -0.75587457     0.037596032   -0.64338212     0.0084467179 
   1019000   0.048326432   -0.75438703     0.037866737   -0.64407741     0.017661756  
   1020000   0.051241696   -0.75661964     0.036736917   -0.64306976    -0.0020037726 
   1021000   0.049527075   -0.75602412     0.037394687   -0.64438675     0.014091543  
   1022000   0.050567093   -0.75634575     0.03748215    -0.6430619      0.0034520674 
   1023000   0.051127872   -0.75678961     0.036953883   -0.64319339     0.015366922  
   1024000   0.051307561   -0.75754237     0.035884418   -0.64474626    -0.0018132348 
   1025000   0.050378612   -0.75857025     0.03983842    -0.64321266     0.018690875  
   1026000   0.050683028   -0.75753668     0.039148376   -0.64241281     0.0093768226 
   1027000   0.050054239   -0.75868333     0.037822367   -0.64582804     0.0044446191 
   1028000   0.05120189    -0.75761116     0.037277349   -0.64358052     0.0036851962 
   1029000   0.051227412   -0.76036966     0.038108146   -0.64546997     0.0068096311 
   1030000   0.050306726   -0.76012616     0.040057556   -0.6446572      0.0069942655 
   1031000   0.050391288   -0.75946334     0.037656044   -0.64626913    -0.010776788  
   1032000   0.051616005   -0.7590217      0.038896248   -0.6427514      0.014809216  
   1033000   0.050356754   -0.75960012     0.037253233   -0.64686049     0.005794868  
   1034000   0.049912533   -0.75836722     0.038318098   -0.64522862     0.022671669  
   1035000   0.051418769   -0.7607475      0.039378041   -0.64429106     0.0031995401 
   1036000   0.051211511   -0.76247514     0.038610049   -0.64709739    -0.00034170799
   1037000   0.050967683   -0.76329363     0.038242826   -0.64864861     0.0042506536 
   1038000   0.049794104   -0.76306367     0.038721399   -0.6496993      0.0018468904 
   1039000   0.049753061   -0.76132739     0.038412651   -0.64833329     0.0021392486 
   1040000   0.049970703   -0.76288476     0.039372317   -0.64860475     0.0079842564 
   1041000   0.049179534   -0.76220335     0.038927802   -0.64955384    -0.0083801992 
   1042000   0.051379923   -0.76156566     0.04002714    -0.64451836     0.0037805661 
   1043000   0.05096176    -0.76210763     0.036691456   -0.64902286     0.005272474  
   1044000   0.050497672   -0.76278316     0.037517847   -0.64956767     0.014784732  
   1045000   0.0490745     -0.76360598     0.039919682   -0.65012204     0.017136251  
   1046000   0.050397331   -0.76231653     0.038470765   -0.64829854     0.013260039  
   1047000   0.051038869   -0.76295743     0.037504757   -0.64894376     0.0073169718 
   1048000   0.050780416   -0.76168065     0.038840804   -0.64671836     0.01102415   
   1049000   0.051088277   -0.76439241     0.038459412   -0.64935003     0.0071931809 
   1050000   0.050340788   -0.76374909     0.038332323   -0.6499543      0.013429627  
   1051000   0.05072258    -0.76359657     0.036719176   -0.65084261     0.010935344  
   1052000   0.050334089   -0.76355927     0.04066615    -0.64744069    -0.0014806147 
   1053000   0.049075914   -0.76361292     0.039035694   -0.65101085     0.0064951337 
   1054000   0.050409224   -0.76338243     0.038557679   -0.6492597      0.00014136412
   1055000   0.049607598   -0.76344003     0.03834993    -0.65072671     0.0046957122 
   1056000   0.050206149   -0.76438947     0.039403425   -0.64972541    -0.0033530832 
   1057000   0.050315722   -0.76473889     0.039376697   -0.6499373      0.00085563456
   1058000   0.052367693   -0.76344054     0.038523946   -0.64641573     0.02348706   
   1059000   0.05114879    -0.76454036     0.038696526   -0.64917015     0.015422495  
   1060000   0.050306311   -0.76406153     0.037306616   -0.65134413     0.022844033  
   1061000   0.04983843    -0.76398645     0.037039264   -0.65223777     0.018371189  
   1062000   0.050269535   -0.76434908     0.038840547   -0.65015288     0.017879997  
   1063000   0.051380948   -0.76343303     0.038293858   -0.64811747     0.0095181286 
   1064000   0.050712847   -0.76387836     0.038379718   -0.64947845    -0.00010835148
   1065000   0.049583421   -0.7635333      0.038264404   -0.65094174     0.011609454  
   1066000   0.051357174   -0.76427976     0.039101075   -0.64819262     0.012874515  
   1067000   0.050034825   -0.76446412     0.036727513   -0.65273279     0.00064926654
   1068000   0.04824284    -0.76392189     0.039595097   -0.65200922     0.0073501449 
   1069000   0.051799023   -0.76378665     0.039447773   -0.64669047    -0.0030968016 
   1070000   0.049410117   -0.76350366     0.038827996   -0.6506083      0.022123853  
   1071000   0.05051977    -0.7642054      0.037056166   -0.65141847     0.013299417  
   1072000   0.051047894   -0.76467735     0.038880294   -0.64927462     0.0043392527 
   1073000   0.050857278   -0.76444937     0.036815385   -0.65139728     0.0063053593 
   1074000   0.051798587   -0.76349133     0.037853618   -0.64798996     0.0052731873 
   1075000   0.048893001   -0.76446866     0.039629383   -0.65154709    -0.00078254887
   1076000   0.051000154   -0.76371132     0.040322697   -0.64693774     0.0026990558 
   1077000   0.052118299   -0.76442663     0.03794842    -0.6483512      0.0032121878 
   1078000   0.050384647   -0.76415791     0.036897845   -0.65173185    -0.0019984089 
   1079000   0.050987808   -0.7660549      0.037964402   -0.65165813     0.0063642918 
   1080000   0.050569346   -0.76475665     0.03721756    -0.65173401    -0.0013321048 
   1081000   0.050637992   -0.76685388     0.038191864   -0.65275404     0.015215915  
   1082000   0.051048476   -0.76595022     0.038455519   -0.65097139     0.0067292157 
   1083000   0.051994118   -0.76789107     0.040639118   -0.64931109    -0.0009095584 
   1084000   0.052317739   -0.76726969     0.038545562   -0.65029815    -0.005830983  
   1085000   0.050061919   -0.76729624     0.039653657   -0.65259815     0.0097706625 
   1086000   0.050186655   -0.76807385     0.03706176    -0.65578067     0.013852713  
   1087000   0.050184871   -0.76764099     0.038546929   -0.65386532     0.034769019  
   1088000   0.050552668   -0.76853773     0.040258309   -0.65249934     0.035866272  
   1089000   0.049120014   -0.76863681     0.037276975   -0.65772735     0.026699137  
   1090000   0.049394119   -0.76740439     0.03724301    -0.656118       0.022135455  
   1091000   0.049660664   -0.76728188     0.035050014   -0.65778893     0.016368374  
   1092000   0.05124255    -0.76716872     0.038003743   -0.65235074     0.0083859214 
   1093000   0.053445512   -0.76787766     0.036358991   -0.65140212     0.0070087244 
   1094000   0.051982183   -0.76901853     0.039699751   -0.65139581     0.023396386  
   1095000   0.050504186   -0.76601796     0.037909413   -0.65240114     0.030201855  
   1096000   0.051335356   -0.76786554     0.03726757    -0.65364461    -0.0012134357 
   1097000   0.050194781   -0.76841356     0.036838923   -0.65633104     0.0095147576 
   1098000   0.049386109   -0.76861371     0.037139365   -0.65744298     0.011197722  
   1099000   0.049223845   -0.76832625     0.037307381   -0.65723074     0.016416812  
   1100000   0.050814626   -0.76789081     0.037993229   -0.65372482     0.022520223  
   1101000   0.05101194    -0.76718084     0.038791282   -0.65192102     0.025713927  
   1102000   0.04990575    -0.76878387     0.03877434    -0.6551992      0.0027886794 
   1103000   0.051306033   -0.76878162     0.040402531   -0.65146969    -0.0024798984 
   1104000   0.051957833   -0.76857331     0.041006528   -0.64968032     0.0064279577 
   1105000   0.051935953   -0.76828653     0.036117961   -0.6543149      0.031948732  
   1106000   0.051102301   -0.76851132     0.040016763   -0.65189056     0.002979179  
   1107000   0.053273622   -0.76811804     0.037944201   -0.65031496     0.022209697  
   1108000   0.053168654   -0.76800811     0.039728577   -0.64857801     0.010177213  
   1109000   0.049926074   -0.76916769     0.040555683   -0.65377121     0.014220154  
   1110000   0.051190745   -0.76788234     0.039177534   -0.65196823     0.02215431   
   1111000   0.050609994   -0.76943375     0.039039968   -0.65452777     0.021761748  
   1112000   0.052689831   -0.76880072     0.039699727   -0.65011723     0.018710884  
   1113000   0.052403292   -0.76965654     0.041341185   -0.64976113     0.0092667152 
   1114000   0.051700594   -0.76878397     0.038862622   -0.65242049     0.0051355577 
   1115000   0.051263708   -0.76794833     0.037937805   -0.65316458     0.024254268  
   1116000   0.0508727     -0.76863411     0.037978106   -0.65439619     0.022341602  
   1117000   0.050327868   -0.76651283     0.039182431   -0.6518873      0.027185909  
   1118000   0.049443188   -0.76907644     0.037652809   -0.6573067      0.0055854238 
   1119000   0.050719258   -0.76872949     0.038132141   -0.65456754     0.019857745  
   1120000   0.048717073   -0.76815456     0.037648677   -0.65747742     0.04551499   
   1121000   0.049368886   -0.76578757     0.038617661   -0.65316436     0.023116752  
   1122000   0.050973813   -0.76834612     0.039406767   -0.65252796     0.021015734  
   1123000   0.05107603    -0.76833242     0.03836746    -0.65340034     0.022411415  
   1124000   0.04843619    -0.76771495     0.037434632   -0.65767291     0.029675037  
   1125000   0.050856211   -0.76863384     0.038398938   -0.6539998      0.017660949  
   1126000   0.050639877   -0.76844011     0.038822646   -0.65370666     0.011287299  
   1127000   0.049772493   -0.76996932     0.039105494   -0.65625325    -0.00099632352
   1128000   0.050133171   -0.7694332      0.037938826   -0.65634314     0.0089430106 
   1129000   0.049854373   -0.76927192     0.037509655   -0.65702895     0.028254327  
   1130000   0.051410383   -0.76725643     0.036640034   -0.65355058     0.034716154  
   1131000   0.050559578   -0.7696376      0.038207282   -0.65563988     0.018469631  
   1132000   0.050785802   -0.76932261     0.035960772   -0.65723228     0.034214186  
   1133000   0.05038851    -0.77079419     0.038540086   -0.6567201      0.020905539  
   1134000   0.048454395   -0.76910432     0.037631123   -0.65883849     0.022326165  
   1135000   0.051053551   -0.77131048     0.038217565   -0.656562       0.029112746  
   1136000   0.049520104   -0.77274267     0.039229688   -0.65928075     0.025061317  
   1137000   0.04968651    -0.77222343     0.038425264   -0.65931648     0.015806341  
   1138000   0.051560092   -0.76989121     0.036634125   -0.65596684     0.020733004  
   1139000   0.052329532   -0.77029885     0.036578207   -0.65527698     0.024375497  
   1140000   0.051969816   -0.76993233     0.034632621   -0.65739528     0.028427053  
   1141000   0.049380733   -0.77031542     0.038449268   -0.65784284     0.011274243  
   1142000   0.052346133   -0.77036306     0.037959298   -0.65393522     0.029291509  
   1143000   0.050295362   -0.77081704     0.036826698   -0.65859598     0.029987493  
   1144000   0.052466755   -0.77132503     0.037087638   -0.65558803     0.036677559  
   1145000   0.052587946   -0.77270123     0.037621197   -0.65624901     0.017018263  
   1146000   0.050703428   -0.77258054     0.038530038   -0.65804443     0.0044636509 
   1147000   0.04945658    -0.77088356     0.039945026   -0.65680152     0.0036652654 
   1148000   0.050897067   -0.77059123     0.035925031   -0.65836986     0.021578198  
   1149000   0.051262525   -0.77206509     0.03676772    -0.65845319     0.0056752208 
   1150000   0.050699878   -0.7713263      0.036873602   -0.65845195     0.021280008  
   1151000   0.051549231   -0.77260023     0.039141478   -0.65618479     0.0087743359 
   1152000   0.051806271   -0.77230176     0.037007211   -0.65763528     0.013849522  
   1153000   0.049988595   -0.7728263      0.037675701   -0.66021608     0.0069038976 
   1154000   0.051030301   -0.77305402     0.03693586    -0.65962209     0.017749867  
   1155000   0.052084796   -0.77100152     0.036171395   -0.65675333     0.011252984  
   1156000   0.05155591    -0.77127864     0.038280603   -0.65571406     0.016296616  
   1157000   0.051611164   -0.77253396     0.036580846   -0.65858631     0.026158535  
   1158000   0.051809386   -0.772366       0.040456435   -0.65424562     0.0056256638 
   1159000   0.051967094   -0.77148578     0.037646768   -0.65593867     0.013824802  
   1160000   0.050355434   -0.7704049      0.037218951   -0.65770153     0.023672532  
   1161000   0.053471302   -0.77229556     0.035293194   -0.65684716     0.016303116  
   1162000   0.051385656   -0.77072558     0.036639682   -0.65705714     0.019345359  
   1163000   0.050202777   -0.77195984     0.035924377   -0.66077988     0.012169296  
   1164000   0.051956415   -0.77179718     0.037470801   -0.65644203     0.016545329  
   1165000   0.049346837   -0.77188526     0.03783573    -0.66007703     0.0136954    
   1166000   0.049864773   -0.77235504     0.037508611   -0.66009753     0.0084613826 
   1167000   0.05006691    -0.77104117     0.036990694   -0.65899856     0.016547371  
   1168000   0.05248163    -0.77060425     0.035090759   -0.65684183     0.014381223  
   1169000   0.050495786   -0.77041298     0.037975995   -0.65674218     0.023072077  
   1170000   0.049916928   -0.77081913     0.039037288   -0.65695476     0.021949553  
   1171000   0.051647962   -0.77214534     0.038781806   -0.65594158     0.016925292  
   1172000   0.050789156   -0.77199631     0.033201762   -0.66265997     0.020407391  
   1173000   0.050941236   -0.77210057     0.035882907   -0.65985511     0.014265872  
   1174000   0.051889522   -0.77270462     0.036422331   -0.65849822     0.019170503  
   1175000   0.049936645   -0.77209604     0.036858157   -0.66038124     0.031764035  
   1176000   0.050019973   -0.77212986     0.038146267   -0.65900204     0.013406462  
   1177000   0.049986772   -0.77273514     0.037872715   -0.65993064     0.035150908  
   1178000   0.051506564   -0.77311073     0.03710232    -0.65879841     0.01243898   
   1179000   0.050112193   -0.77119748     0.036889125   -0.65918856     0.0060136488 
   1180000   0.050542539   -0.77222536     0.037256233   -0.65920424    -0.0010033747 
   1181000   0.052328931   -0.77209178     0.036923512   -0.65672551     0.026531153  
   1182000   0.050667465   -0.77328767     0.037138769   -0.66019674     0.018866061  
   1183000   0.050064015   -0.77212135     0.037036078   -0.6600377      0.022201955  
   1184000   0.05026002    -0.77477423     0.037093651   -0.66233918     0.0056873847 
   1185000   0.049903948   -0.77619453     0.037248386   -0.66413852     0.0040861844 
   1186000   0.049692064   -0.77426559     0.036774683   -0.6630009      0.015607908  
   1187000   0.052160033   -0.77423326     0.036601765   -0.65944192     0.028917322  
   1188000   0.050647247   -0.77496624     0.039271189   -0.65977319     0.024902313  
   1189000   0.051505858   -0.77476975     0.037161174   -0.66039964     0.010854071  
   1190000   0.049796263   -0.77574578     0.037190459   -0.66390912     0.018693347  
   1191000   0.049569963   -0.77579548     0.035357197   -0.66613131    -9.7921748e-05
   1192000   0.049688728   -0.7785747      0.035499312   -0.66859039     0.0066641048 
   1193000   0.050277373   -0.77691031     0.035796309   -0.66574659     0.028957981  
   1194000   0.049454545   -0.77857331     0.035980482   -0.66845887     0.019989388  
   1195000   0.051315595   -0.77927402     0.038173312   -0.66417698     0.01102887   
   1196000   0.050750238   -0.778835       0.038000135   -0.66475863     0.015821486  
   1197000   0.051056807   -0.77784183     0.037564405   -0.66374162     0.011008441  
   1198000   0.051821298   -0.77865278     0.038953954   -0.66201702     0.024011936  
   1199000   0.054313094   -0.77999844     0.038043891   -0.66053747     0.0096954599 
   1200000   0.052233622   -0.78204463     0.040214522   -0.66353023     0.010460742  
   1201000   0.049923674   -0.7816404      0.036741035   -0.67006217     0.024266055  
   1202000   0.050733043   -0.78100518     0.037829602   -0.66712511     0.0055058785 
   1203000   0.05213485    -0.78180849     0.03626149    -0.66739517     0.0068915058 
   1204000   0.049035151   -0.78139548     0.039400383   -0.66848982     0.0082475394 
   1205000   0.050675086   -0.7829656      0.036839738   -0.67016228     0.0014052324 
   1206000   0.050429679   -0.78130704     0.038395334   -0.66731599     0.0062050085 
   1207000   0.050942668   -0.78151491     0.036786751   -0.66836345     0.015527026  
   1208000   0.051850223   -0.78288854     0.040665905   -0.66449747    -0.0059518533 
   1209000   0.051912353   -0.77926982     0.037805505   -0.66364603     0.024995664  
   1210000   0.051698697   -0.78108925     0.036647366   -0.66694386     0.021629304  
   1211000   0.051798647   -0.78064475     0.036072445   -0.66692446    -0.0052429521 
   1212000   0.051057283   -0.7803288      0.037423219   -0.66636906    -0.0035793044 
   1213000   0.049940817   -0.78029065     0.037466345   -0.6679614      0.01616868   
   1214000   0.050954681   -0.78037438     0.037814609   -0.66617706     0.020992505  
   1215000   0.051728128   -0.78147996     0.039617216   -0.66432061     0.022185077  
   1216000   0.051984325   -0.78051787     0.037080234   -0.66551145     0.020968684  
   1217000   0.05159689    -0.78080623     0.037574539   -0.66588629     0.0035425036 
   1218000   0.050908258   -0.78211359     0.037846922   -0.66795355     0.014762056  
   1219000   0.051537452   -0.77940183     0.036348752   -0.66579678     0.017577053  
   1220000   0.050961977   -0.780971       0.037000961   -0.6675764      0.009520537  
   1221000   0.052161265   -0.77779888     0.039256341   -0.66035112     0.005019246  
   1222000   0.049788192   -0.77686199     0.038815832   -0.66341205     0.010408959  
   1223000   0.051594536   -0.777046       0.03627574    -0.66342838     0.010780656  
   1224000   0.052105358   -0.77772427     0.037927393   -0.66168926     0.0019209411 
   1225000   0.049932909   -0.7782218      0.035680906   -0.66768986     0.0091791095 
   1226000   0.05128443    -0.77641563     0.036602799   -0.66293582     0.011441625  
   1227000   0.04965626    -0.7773979      0.038231859   -0.6647297      0.0099430281 
   1228000   0.050410757   -0.77743138     0.039166886   -0.66269714     0.022802982  
   1229000   0.051169777   -0.7774364      0.037640216   -0.66309104     0.018855686  
   1230000   0.050998286   -0.77669273     0.036635263   -0.66360939     0.026519571  
   1231000   0.051082882   -0.77849234     0.037749456   -0.664168       0.017691132  
   1232000   0.050994604   -0.77736598     0.038376137   -0.66254729     0.012966289  
   1233000   0.051012459   -0.77796939     0.038073926   -0.66342614     0.01558361   
   1234000   0.051153377   -0.77893464     0.038817637   -0.66343645     0.01329316   
   1235000   0.052222524   -0.77766433     0.037371899   -0.66200918     0.012002046  
   1236000   0.050233185   -0.77749832     0.038822837   -0.66337432     0.01775299   
   1237000   0.048989777   -0.77869433     0.036500267   -0.66875681     0.033814894  
   1238000   0.049652757   -0.77834171     0.036760879   -0.66714974     0.016496966  
   1239000   0.053124266   -0.77730311     0.037036824   -0.6606313      0.01929387   
   1240000   0.052966427   -0.77757109     0.036008913   -0.66216379     0.012826913  
   1241000   0.050075264   -0.77786662     0.038057251   -0.66474494     0.0086905105 
   1242000   0.049426881   -0.77901944     0.035882221   -0.66904473     0.0032608663 
   1243000   0.048424434   -0.77789435     0.037604045   -0.66770052     0.0005658938 
   1244000   0.050747959   -0.77873504     0.036198374   -0.66646383     0.0035940996 
   1245000   0.050686262   -0.77736081     0.036568236   -0.66481224     0.0095054084 
   1246000   0.051631937   -0.77824965     0.036626332   -0.66422538     0.014813196  
   1247000   0.051280693   -0.77812311     0.036681852   -0.66456985     0.0095365487 
   1248000   0.050750774   -0.77790866     0.039196041   -0.66263557     0.01234301   
   1249000   0.050825142   -0.77778339     0.03724682    -0.66434804     0.0050706401 
   1250000   0.051968568   -0.77818591     0.036459008   -0.66382434     0.013446338  
   1251000   0.049902944   -0.77779626     0.037938235   -0.66505191     0.0078259362 
   1252000   0.051272077   -0.77675985     0.036682169   -0.66321918     0.0072375812 
   1253000   0.051455342   -0.77847098     0.037558905   -0.66377885     0.014529169  
   1254000   0.051015129   -0.780119       0.036116364   -0.66752931     0.016226636  
   1255000   0.049304846   -0.77855721     0.03691086    -0.6677368      0.0088680636 
   1256000   0.049665359   -0.7783606      0.036414115   -0.66749651     0.015137728  
   1257000   0.050752238   -0.77789276     0.038840212   -0.66297331     0.011982631  
   1258000   0.052401053   -0.78038969     0.040300064   -0.66153876     0.0085422077 
   1259000   0.051346586   -0.77918501     0.037552394   -0.66466243     0.015918368  
   1260000   0.051567892   -0.77981903     0.039437049   -0.66308005     0.0089071435 
   1261000   0.052398869   -0.7801382      0.037829145   -0.66376146     0.014649002  
   1262000   0.05084559    -0.78104949     0.041751725   -0.66307859    -0.0068458487 
   1263000   0.049733449   -0.7801259      0.038236361   -0.66733749     0.0022118395 
   1264000   0.052737099   -0.77933409     0.036055828   -0.66422365     0.0055168427 
   1265000   0.050751506   -0.7789201      0.035614715   -0.66722724     0.0089640035 
   1266000   0.052287396   -0.77796216     0.037065208   -0.66251646     0.011610187  
   1267000   0.051060978   -0.78161442     0.03814584    -0.66692653     0.00034477529
   1268000   0.051466831   -0.78026474     0.037854838   -0.66525946     0.00350718   
   1269000   0.051069597   -0.78192805     0.038596813   -0.66677626     0.0057708222 
   1270000   0.049618657   -0.78103591     0.036998365   -0.66965757     0.013027615  
   1271000   0.050314276   -0.7804296      0.038558299   -0.66644858     0.00053449491
   1272000   0.049231874   -0.78112775     0.03898121    -0.66834637     0.0058846873 
   1273000   0.052111838   -0.7803015      0.03668082    -0.66550336     0.0092667497 
   1274000   0.049745413   -0.78123895     0.037201246   -0.66946772     0.0011294155 
   1275000   0.049679523   -0.77960582     0.037857613   -0.667277       0.0058249327 
   1276000   0.05099998    -0.78065494     0.038090637   -0.66611369     0.017168916  
   1277000   0.051901219   -0.7807737      0.037027847   -0.66594425     0.0099038656 
   1278000   0.049747968   -0.77992601     0.038014037   -0.66733816     0.014356185  
   1279000   0.049727536   -0.78126042     0.037343818   -0.66937342     0.016585677  
   1280000   0.050611194   -0.78087359     0.03522043    -0.66978535     0.0074865789 
   1281000   0.049668571   -0.78163724     0.037659442   -0.669523      -0.002853542  
   1282000   0.050267861   -0.78254572     0.038601362   -0.66859121     0.013090015  
   1283000   0.049211671   -0.78243327     0.037240884   -0.67142251     0.0068878417 
   1284000   0.049404486   -0.78136475     0.03725352    -0.67005231     0.020417464  
   1285000   0.050485798   -0.78157874     0.037871015   -0.66802789     0.01826416   
   1286000   0.051548984   -0.78271719     0.036981475   -0.66846213     0.013018591  
   1287000   0.051133109   -0.78236414     0.037406713   -0.66830725     0.012145366  
   1288000   0.049291399   -0.783018       0.040212151   -0.66891645    -0.0015609773 
   1289000   0.05107701    -0.78273468     0.036078903   -0.67008969     0.014623235  
   1290000   0.049920034   -0.78177273     0.037705831   -0.66923516     0.018936318  
   1291000   0.048445611   -0.78100152     0.038671035   -0.66970896     0.0053804911 
   1292000   0.051023972   -0.7820723      0.035549472   -0.67003625     0.0084135251 
   1293000   0.049887289   -0.78224882     0.036312551   -0.67115362     0.021084095  
   1294000   0.050846577   -0.78031437     0.037407034   -0.66668667     0.02360633   
   1295000   0.051749082   -0.78348082     0.039260794   -0.66664648     0.0027683992 
   1296000   0.052352349   -0.78307597     0.037942807   -0.6666553      0.002598076  
   1297000   0.050884345   -0.78546769     0.039258466   -0.66993195    -0.0081752757 
   1298000   0.049495964   -0.78431248     0.038456748   -0.67165969     0.0029707921 
   1299000   0.051390857   -0.78185894     0.035160532   -0.66966186     0.0052488963 
   1300000   0.051775676   -0.78407357     0.038075528   -0.66838463    -0.013210979  
   1301000   0.052015387   -0.78499245     0.037488619   -0.66953109     0.021139108  
   1302000   0.050180471   -0.78472081     0.03774536    -0.6717533      0.013515693  
   1303000   0.049716806   -0.78333326     0.03781593    -0.67099024     0.025117597  
   1304000   0.049960179   -0.78472751     0.036919616   -0.67291598     0.0098849846 
   1305000   0.050268958   -0.78459784     0.039277755   -0.6699653      0.0090629865 
   1306000   0.049791482   -0.78417686     0.037313925   -0.6722239     -0.0032619998 
   1307000   0.048359557   -0.7851326      0.037587619   -0.67505245     0.016823401  
   1308000   0.050473896   -0.7863925      0.038977623   -0.67175288     0.018196879  
   1309000   0.051669861   -0.78485909     0.038428167   -0.66897613     0.016658285  
   1310000   0.050767983   -0.78636623     0.036927525   -0.67333586     0.0090845487 
   1311000   0.052501716   -0.78517148     0.039668056   -0.66680166     0.01637277   
   1312000   0.050724682   -0.78523867     0.039732337   -0.6694684      0.017350549  
   1313000   0.050893461   -0.78611504     0.037586659   -0.67223744     0.0095556632 
   1314000   0.050768634   -0.78648933     0.038354576   -0.67203094     0.015736034  
   1315000   0.052710995   -0.78587946     0.037565726   -0.66929825     0.0099811882 
   1316000   0.052051612   -0.78573563     0.040824148   -0.66688444     0.0018581276 
   1317000   0.053676202   -0.78632773     0.037411954   -0.66845342     0.0049268634 
   1318000   0.051755842   -0.78547961     0.037263004   -0.67063293     0.0084209018 
   1319000   0.051335947   -0.78502069     0.036896807   -0.67116964     0.0079896302 
   1320000   0.051478225   -0.78559186     0.035912449   -0.67251189    -0.0037640955 
   1321000   0.051947846   -0.78566455     0.037253843   -0.67053921     0.0056739382 
   1322000   0.051127149   -0.78596125     0.037460204   -0.6718598      0.015027361  
   1323000   0.051910115   -0.78753116     0.037775761   -0.67194046     0.0099718677 
   1324000   0.051731876   -0.7888819      0.037290117   -0.67404403     0.0036931304 
   1325000   0.049777146   -0.7881444      0.038118267   -0.67540858     0.0056846343 
   1326000   0.051716801   -0.78790659     0.037665388   -0.67271605     0.006994041  
   1327000   0.050822923   -0.787434       0.037934749   -0.67331405     0.0017079704 
   1328000   0.050467055   -0.78750036     0.037193728   -0.67465489     0.0075107715 
   1329000   0.05065746    -0.7866233      0.035845819   -0.67484032    -0.0016281964 
   1330000   0.050798019   -0.78792524     0.037356556   -0.67442081     0.0056752984 
   1331000   0.05105739    -0.78811839     0.038328021   -0.6732537     -0.00047356274
   1332000   0.050740063   -0.78545101     0.036380146   -0.67300987     0.0077828316 
   1333000   0.052102369   -0.78432597     0.037427546   -0.6687953     -0.010458538  
   1334000   0.05199207    -0.78435617     0.036341586   -0.67007679    -0.014592744  
   1335000   0.051487867   -0.78509502     0.037689956   -0.67022309     0.0034813858 
   1336000   0.050513654   -0.78417941     0.037754356   -0.67070345     0.02394171   
   1337000   0.050350703   -0.78493842     0.038650615   -0.67081048     0.014199826  
   1338000   0.052200952   -0.7830159      0.037775227   -0.66698976    -0.0081241215 
   1339000   0.05179017    -0.78396392     0.036802825   -0.66952596     0.0091989039 
   1340000   0.050242006   -0.78383477     0.037672029   -0.67084835     0.01420014   
   1341000   0.050504456   -0.78459457     0.035568432   -0.67331833     0.00080616573
   1342000   0.048589193   -0.78434032     0.03732253    -0.67418103    -0.0011517467 
   1343000   0.05116198    -0.78395313     0.038871735   -0.66838794     0.012225886  
   1344000   0.049046974   -0.78392814     0.037297296   -0.67310784     0.0032293934 
   1345000   0.049778441   -0.78478747     0.036988819   -0.67317916     0.025297913  
   1346000   0.051136725   -0.78289994     0.038425856   -0.66781848     0.019628201  
   1347000   0.051625131   -0.78359985     0.039838447   -0.66637366     0.012476922  
   1348000   0.048881115   -0.7824826      0.037836324   -0.67137191     0.027785705  
   1349000   0.05014373    -0.78441659     0.036604482   -0.67264503     0.030605792  
   1350000   0.049881792   -0.78397516     0.036539768   -0.67266098     0.026987206  
   1351000   0.050260678   -0.78455619     0.039228144   -0.66998567     0.011308928  
   1352000   0.052665298   -0.78560586     0.037318496   -0.66934039     0.0028127204 
   1353000   0.052671404   -0.78633112     0.038005046   -0.66936994     0.01162158   
   1354000   0.052854378   -0.78746694     0.039390008   -0.66884651     0.0095910861 
   1355000   0.052315252   -0.78512007     0.038800086   -0.66789773     0.011983289  
   1356000   0.051496063   -0.78512417     0.038185474   -0.66974443    -0.010357361  
   1357000   0.051081151   -0.78561779     0.039223226   -0.66982227     0.024985264  
   1358000   0.05077392    -0.7857029      0.037573316   -0.67201784     0.0078973621 
   1359000   0.049934364   -0.78381382     0.03826821    -0.67069239     0.0092471843 
   1360000   0.050102042   -0.78448343     0.038553248   -0.67082561     0.011639842  
   1361000   0.051446291   -0.78684815     0.038897132   -0.67083137    -0.00024296038
   1362000   0.050857177   -0.78606511     0.035703721   -0.67412484     0.005472649  
   1363000   0.050616972   -0.78639848     0.036383808   -0.67413819     0.025062418  
   1364000   0.050228591   -0.78690284     0.037648485   -0.67396007     0.0089325329 
   1365000   0.049824531   -0.78624813     0.040359191   -0.67120036     0.0037864899 
   1366000   0.050787528   -0.78569655     0.038999204   -0.67056521     0.015271846  
   1367000   0.050548426   -0.78520856     0.039653794   -0.66978105     0.0018297028 
   1368000   0.052057036   -0.78451184     0.037189903   -0.66928676     0.015711148  
   1369000   0.051810395   -0.78436563     0.038366496   -0.66833368     0.02603943   
   1370000   0.050857609   -0.78360973     0.038174042   -0.6691985      0.018553605  
   1371000   0.05168817    -0.7868513      0.038033635   -0.67133543     0.022195169  
   1372000   0.049346102   -0.78571505     0.0376875     -0.67405615     0.0085610404 
   1373000   0.04919167    -0.78427213     0.038154832   -0.6723774      0.00022858061
   1374000   0.050249264   -0.78514872     0.038948874   -0.67087458     0.0057881809 
   1375000   0.051052901   -0.78484885     0.037940813   -0.67037809     0.00026320205
   1376000   0.052079619   -0.78554367     0.038320233   -0.6691544      0.0064622247 
   1377000   0.051967521   -0.78542574     0.036629835   -0.67089492     0.017290366  
   1378000   0.051274949   -0.78667224     0.03903805    -0.67077139     0.012337699  
   1379000   0.050358129   -0.78511978     0.035762868   -0.67386845     0.02608688   
   1380000   0.05211698    -0.78582989     0.037594351   -0.6701105      0.0083584592 
   1381000   0.050301721   -0.7855429      0.039363026   -0.67077597     0.0094838039 
   1382000   0.051766525   -0.78493806     0.039551808   -0.66778656     0.0041645984 
   1383000   0.051573948   -0.7840623      0.039117949   -0.66763334     0.0085374275 
   1384000   0.050048462   -0.7825874      0.040719182   -0.66684396     0.015750253  
   1385000   0.052533601   -0.78444889     0.039831067   -0.66586826     0.010236135  
   1386000   0.051250464   -0.78464903     0.039238586   -0.66858435     0.0085097955 
   1387000   0.050220056   -0.78526969     0.039879987   -0.67010822    -0.0035610556 
   1388000   0.050054373   -0.78549925     0.040531646   -0.66993448     0.0044434101 
   1389000   0.051051826   -0.78463317     0.037219048   -0.67088579     0.011694586  
   1390000   0.0514843     -0.7849457      0.037291673   -0.6704774      0.01880045   
   1391000   0.049750611   -0.7865435      0.039073155   -0.67289257     0.026550879  
   1392000   0.052034015   -0.78536274     0.037530789   -0.66983128     0.026886672  
   1393000   0.052738341   -0.78732974     0.039429689   -0.66884357     0.012134743  
   1394000   0.051021836   -0.78443812     0.041085165   -0.66686957     0.027232038  
   1395000   0.052167941   -0.78729152     0.038199664   -0.67089043     0.020196199  
   1396000   0.05293306    -0.78595356     0.039659962   -0.66694523     0.011479121  
   1397000   0.052254441   -0.78492472     0.041238331   -0.66535529     0.016880239  
   1398000   0.051397439   -0.78602783     0.041341277   -0.66764014     0.016374302  
   1399000   0.054184383   -0.78535409     0.04249831    -0.66163164     0.020333166  
   1400000   0.052722059   -0.78549414     0.040899321   -0.66556275     0.0057502661 
   1401000   0.050286717   -0.78527098     0.039674097   -0.67021547     0.018075962  
   1402000   0.051973208   -0.7845235      0.039078765   -0.66753522     0.026614691  
   1403000   0.050519065   -0.78618353     0.041297207   -0.66915661     0.00037231597
   1404000   0.051770031   -0.78637166     0.038589112   -0.67017761     0.021241201  
   1405000   0.051522787   -0.78495778     0.036763074   -0.67096039    -0.0010464886 
   1406000   0.052103237   -0.78570511     0.038949104   -0.66865157     0.0097967062 
   1407000   0.051477097   -0.78532296     0.040703349   -0.66745379     0.036681955  
   1408000   0.051601741   -0.78568472     0.039376085   -0.66895596     0.026991512  
   1409000   0.051844623   -0.78558571     0.040345005   -0.66752394     0.022648753  
   1410000   0.051291304   -0.78658207     0.038597885   -0.67109687     0.013653809  
   1411000   0.052041107   -0.78609741     0.038075383   -0.67001073     0.023666171  
   1412000   0.051296709   -0.78636112     0.040030836   -0.66943486     0.01712271   
   1413000   0.051778542   -0.78662409     0.04065267    -0.66835372     0.0096330433 
   1414000   0.051464826   -0.78694384     0.039478794   -0.67031761     0.0062075903 
   1415000   0.050051699   -0.78673251     0.040852979   -0.67085042     0.014712874  
   1416000   0.052369346   -0.7872673      0.041037245   -0.66772672     0.0022630524 
   1417000   0.049786836   -0.78814472     0.039956578   -0.67355607     0.0055272401 
   1418000   0.050532337   -0.78775314     0.038326644   -0.67367689     0.029959508  
   1419000   0.052412726   -0.78751462     0.0398336     -0.66911265    -0.0038690091 
   1420000   0.05258569    -0.78827714     0.038190941   -0.67125856     0.04148554   
   1421000   0.051868261   -0.78813564     0.040423409   -0.66996004    -0.0057512155 
   1422000   0.050590026   -0.78597117     0.039047154   -0.67108794     0.010357944  
   1423000   0.049829812   -0.78660005     0.040958646   -0.67094491     0.014222781  
   1424000   0.051959941   -0.78876101     0.040398604   -0.67047278     0.021721586  
   1425000   0.051726325   -0.78702924     0.03911854    -0.67037127     0.0076002865 
   1426000   0.051125542   -0.78763759     0.038414821   -0.67258393    -0.011159237  
   1427000   0.050517441   -0.78795885     0.039150305   -0.67308127    -0.013347221  
   1428000   0.052213521   -0.78771387     0.039067428   -0.67037669     0.013796765  
   1429000   0.051391182   -0.78779782     0.038430911   -0.67232987    -0.0019669738 
   1430000   0.051630159   -0.78792322     0.038316226   -0.67221172     0.0065516578 
   1431000   0.049026637   -0.78593848     0.039924612   -0.67252135     0.022255851  
   1432000   0.050267335   -0.78846924     0.039859228   -0.67325766     0.0084637787 
   1433000   0.052124754   -0.78590749     0.039358838   -0.66841196     0.020709447  
   1434000   0.052248856   -0.78839677     0.040248536   -0.66982551     0.0075214984 
   1435000   0.052361723   -0.78922592     0.040714124   -0.67001989     0.023345513  
   1436000   0.054154413   -0.78812224     0.038948429   -0.66799459     0.0067501713 
   1437000   0.053495104   -0.78795733     0.038102378   -0.66966407     0.051022814  
   1438000   0.050804315   -0.78769456     0.040170282   -0.67136697    -0.006806339  
   1439000   0.051200467   -0.78759508     0.041243967   -0.66959996     0.032350413  
   1440000   0.05072686    -0.7868986      0.038885241   -0.67197216     0.025223534  
   1441000   0.051164803   -0.78944997     0.036884531   -0.67586775     0.004837565  
   1442000   0.051213538   -0.78663132     0.038989699   -0.67087088     0.007865331  
   1443000   0.051154539   -0.7866803      0.040708945   -0.66928905     0.0056254005 
   1444000   0.051092641   -0.78729831     0.041370299   -0.66933849     0.031973083  
   1445000   0.050657339   -0.78681423     0.040680942   -0.6701963      0.022105104  
   1446000   0.050606449   -0.78684716     0.040863564   -0.67012289     0.031914016  
   1447000   0.05338835    -0.78595173     0.038897868   -0.667023       0.043664017  
   1448000   0.049871358   -0.7867489      0.03976024    -0.67222989     0.01371389   
   1449000   0.052257025   -0.78695175     0.038425772   -0.67019101     0.017414391  
   1450000   0.050437215   -0.78679524     0.039894597   -0.67129363     0.027712272  
   1451000   0.052014574   -0.78775352     0.036705258   -0.67307674     0.0060558163 
   1452000   0.051804174   -0.78660822     0.03669324    -0.67225885     0.017447632  
   1453000   0.051755638   -0.78641155     0.038762712   -0.67006546     0.023704262  
   1454000   0.051424006   -0.78697744     0.03812706    -0.67176414     0.015037288  
   1455000   0.0486519     -0.78807283     0.037717363   -0.6774247      0.01853601   
   1456000   0.052459262   -0.78739411     0.038166865   -0.67058911     0.01650553   
   1457000   0.051061261   -0.78851062     0.039399658   -0.67256849     0.00077927317
   1458000   0.050991786   -0.78619031     0.039494803   -0.67025717     0.024063242  
   1459000   0.053265932   -0.78759004     0.040244635   -0.66749805     0.010020004  
   1460000   0.050047535   -0.78787854     0.039822384   -0.67303328     0.0080586536 
   1461000   0.050461271   -0.78711524     0.040018996   -0.67145318     0.03234723   
   1462000   0.050069592   -0.78708491     0.040948411   -0.67108056    -0.0063822582 
   1463000   0.051376216   -0.7874691      0.039330772   -0.67112373     0.039532728  
   1464000   0.049888939   -0.78695328     0.040925965   -0.67124218     0.014641688  
   1465000   0.051384074   -0.78778447     0.037879795   -0.67287829     0.017904808  
   1466000   0.049814036   -0.78679534     0.038055277   -0.67406722     0.0055436406 
   1467000   0.050706805   -0.78772985     0.038244355   -0.67347436     0.0051715789 
   1468000   0.050437636   -0.78785387     0.041932823   -0.6703134      0.015412184  
   1469000   0.052849035   -0.7868543      0.040858221   -0.66677367     0.019346946  
   1470000   0.050499514   -0.78804359     0.042824965   -0.66951823     0.011575899  
   1471000   0.052045188   -0.78707039     0.040565022   -0.66848796     0.0046342159 
   1472000   0.052518352   -0.7876182      0.038311306   -0.67058019    -0.00198075   
   1473000   0.052429476   -0.7864876      0.039744314   -0.66814981    -0.0087641383 
   1474000   0.052868153   -0.78841039     0.038818615   -0.67034071     0.0078969914 
   1475000   0.051635764   -0.78711485     0.039014915   -0.67069626    -0.0057055441 
   1476000   0.051348571   -0.78702819     0.03996609    -0.67008893     0.0070077186 
   1477000   0.049235167   -0.78524099     0.039636226   -0.67179966     0.0039774891 
   1478000   0.050584798   -0.78778428     0.040854354   -0.67110168     0.0042001017 
   1479000   0.050804323   -0.78655683     0.039548699   -0.67085081     0.0050272045 
   1480000   0.049245664   -0.78722388     0.040722735   -0.67268031    -0.0024082343 
   1481000   0.050655988   -0.78824902     0.038376182   -0.67393788     0.0077044837 
   1482000   0.051332944   -0.78957311     0.039431978   -0.67319139     0.0060334659 
   1483000   0.051061484   -0.78981678     0.041012636   -0.67226133    -0.0036449348 
   1484000   0.050450458   -0.78952597     0.040559888   -0.67333922     0.017132216  
   1485000   0.050298467   -0.78933469     0.03821582    -0.67571985     0.022569985  
   1486000   0.051814433   -0.78844272     0.03987404    -0.67089718     0.0061996812 
   1487000   0.052301502   -0.78873975     0.037490674   -0.67284744    -0.0019642829 
   1488000   0.049715069   -0.78931931     0.037454363   -0.67734045     0.033454529  
   1489000   0.050471415   -0.78888585     0.038978911   -0.67424866     0.019849471  
   1490000   0.050438347   -0.78908879     0.040444589   -0.6730355      0.015083233  
   1491000   0.050362359   -0.788548       0.037792525   -0.67526068     0.022999438  
   1492000   0.050963893   -0.78937385     0.038067064   -0.67491027     0.015651575  
   1493000   0.049517824   -0.78867717     0.037492854   -0.6769555      0.0042342033 
   1494000   0.049945446   -0.78860527     0.039765049   -0.67397039    -0.01117127   
   1495000   0.051239833   -0.78877014     0.038126191   -0.67383378     0.011558697  
   1496000   0.051928471   -0.79108179     0.037079841   -0.6761595      0.022860922  
   1497000   0.051452026   -0.79078193     0.039368178   -0.67428551     0.022564692  
   1498000   0.051975284   -0.79039932     0.038738064   -0.67374863     0.018858757  
   1499000   0.050572882   -0.78997171     0.041246604   -0.67291473     0.012832897  
   1500000   0.050792105   -0.79036118     0.039922756   -0.67429942     0.014160445  
   1501000   0.052149371   -0.78985668     0.038376703   -0.67330638     0.00057537933
   1502000   0.051823263   -0.79023799     0.039373719   -0.67317953    -0.0030271472 
   1503000   0.051594551   -0.79049246     0.039498541   -0.67365202    -0.023468764  
   1504000   0.052281359   -0.79019564     0.037259442   -0.67456475     0.025095106  
   1505000   0.051052753   -0.79046528     0.038549496   -0.67538606     0.0035651874 
   1506000   0.051943418   -0.79017271     0.040180906   -0.67212694     0.01490609   
   1507000   0.051136457   -0.78976987     0.040372552   -0.67274212     0.0085155787 
   1508000   0.051626959   -0.79028637     0.040028719   -0.67286717     0.01178471   
   1509000   0.051005359   -0.78937327     0.039363412   -0.67355118     0.027283545  
   1510000   0.051870751   -0.79081056     0.039214042   -0.67384059    -0.0049519925 
   1511000   0.050973894   -0.79127035     0.042010363   -0.67284847     0.021682668  
   1512000   0.051424806   -0.78904783     0.039373833   -0.67258655     0.016383683  
   1513000   0.050924222   -0.78983344     0.039020919   -0.67447547    -0.011771514  
   1514000   0.049577855   -0.79045989     0.038539561   -0.67760152    -0.0059113653 
   1515000   0.049893999   -0.78965958     0.039493455   -0.67537341    -0.010110684  
   1516000   0.050746448   -0.78980939     0.039273539   -0.67446529     0.0094642151 
   1517000   0.051225171   -0.79008514     0.037784863   -0.67551209    -0.0075877807 
   1518000   0.049754058   -0.79026125     0.040372739   -0.67530557    -0.01656043   
   1519000   0.052009089   -0.78983357     0.039294457   -0.67257581    -0.00075318194
   1520000   0.051411596   -0.78904833     0.038337591   -0.67364309     0.015838806  
   1521000   0.05190006    -0.78958871     0.039420766   -0.67236808    -0.0070164615 
   1522000   0.051164489   -0.78987723     0.039885309   -0.6732947      0.00097250741
   1523000   0.050808138   -0.79068871     0.039066267   -0.67545941    -0.001969419  
   1524000   0.051011432   -0.7897353      0.038399696   -0.67486782    -0.011748928  
   1525000   0.05053874    -0.79094486     0.041346957   -0.67383871    -0.019434376  
   1526000   0.050488334   -0.79020178     0.040451961   -0.67406618    -0.012167934  
   1527000   0.05170773    -0.79085608     0.039495952   -0.67384857     0.017635947  
   1528000   0.050329026   -0.78930364     0.038914356   -0.67494445     0.0065573108 
   1529000   0.052242154   -0.78956186     0.039051912   -0.67219728     0.0082027357 
   1530000   0.050391054   -0.79102094     0.039451014   -0.67603211    -0.0050122127 
   1531000   0.051192401   -0.78983861     0.040643488   -0.67245606    -0.013180549  
   1532000   0.049873965   -0.78893677     0.039769491   -0.6744046     -0.0049732092 
   1533000   0.051227061   -0.79075055     0.041991597   -0.67196794    -0.013610058  
   1534000   0.051709373   -0.79298439     0.042011853   -0.67345852    -0.0095022414 
   1535000   0.052345253   -0.79059069     0.041120488   -0.67100298    -0.0046375604 
   1536000   0.051759329   -0.7901286      0.038725022   -0.67381467     0.0021752644 
   1537000   0.051061169   -0.79013207     0.039931752   -0.67365798    -0.013748734  
   1538000   0.05124634    -0.79119079     0.041768915   -0.67260196    -0.018349031  
   1539000   0.050450243   -0.79064776     0.03975164    -0.67526958    -0.0015514613 
   1540000   0.05018375    -0.7909187      0.038413985   -0.67727765     0.013898605  
   1541000   0.051828817   -0.79146682     0.042167498   -0.67160625     0.014190871  
   1542000   0.050790695   -0.79038168     0.040372739   -0.67387205     0.015945864  
   1543000   0.051992216   -0.79026757     0.039031737   -0.67329783     0.00043087792
   1544000   0.051906567   -0.7895595      0.040400925   -0.67134896     0.023048892  
   1545000   0.051208906   -0.79061011     0.039171651   -0.67467466     0.014193808  
   1546000   0.050307294   -0.79061814     0.040092832   -0.67511305     0.0010199586 
   1547000   0.049818667   -0.78805182     0.039883081   -0.67348895    -0.01091992   
   1548000   0.050331741   -0.79072923     0.040080347   -0.67519998     0.0054580252 
   1549000   0.050197806   -0.79057322     0.040193177   -0.67513191    -0.017651631  
   1550000   0.05150163    -0.78812033     0.040389086   -0.67052864    -0.001022278  
   1551000   0.049223903   -0.79168453     0.040878642   -0.67701767     0.0036863744 
   1552000   0.049953624   -0.78996668     0.039549145   -0.67553544    -0.0069492358 
   1553000   0.051464609   -0.78953855     0.039899882   -0.67249156    -0.0058132695 
   1554000   0.053763004   -0.79226812     0.037913021   -0.67376262     0.0069200313 
   1555000   0.051437082   -0.7918728      0.037780101   -0.67698685     0.011455839  
   1556000   0.050130575   -0.79151752     0.039361839   -0.67700833    -0.016076177  
   1557000   0.050861302   -0.79099458     0.041820651   -0.6729312     -0.0088454055 
   1558000   0.050688293   -0.78866373     0.037667077   -0.67501326     0.00013372041
   1559000   0.051803557   -0.79087511     0.039294388   -0.67392552     0.0010866951 
   1560000   0.051416373   -0.79001554     0.03757292    -0.67536782    -0.00029162354
   1561000   0.050724092   -0.79161273     0.038870033   -0.67670565    -0.0071861126 
   1562000   0.051263743   -0.79096429     0.036795507   -0.67732278     0.01055085   
   1563000   0.050197216   -0.78922551     0.040185203   -0.67379306     0.0085415905 
   1564000   0.051426562   -0.78866948     0.039871743   -0.67170766     0.0061020157 
   1565000   0.051225131   -0.78920384     0.037477381   -0.67493833    -0.012369741  
   1566000   0.05179068    -0.78816793     0.039027492   -0.67150454    -0.0029252167 
   1567000   0.05141354    -0.78881371     0.039071851   -0.67267131     0.0026424062 
   1568000   0.051308249   -0.78903159     0.038189025   -0.67392984     0.00087969383
   1569000   0.051218194   -0.7899951      0.03781734    -0.67540004    -0.0025092998 
   1570000   0.051293986   -0.7907366      0.038596483   -0.67524878     0.012513721  
   1571000   0.050976915   -0.78828701     0.037097603   -0.67477337    -0.0048460115 
   1572000   0.049439277   -0.78746853     0.036708614   -0.67664885     0.0078942497 
   1573000   0.050017672   -0.79004524     0.036920867   -0.67814627     0.011032698  
   1574000   0.049866415   -0.79017284     0.037742454   -0.67767902     0.0039088354 
   1575000   0.049239891   -0.78877688     0.039135891   -0.67582881     0.0058484879 
   1576000   0.049996097   -0.79139051     0.03918231    -0.67726244     0.015415365  
   1577000   0.049377753   -0.79005851     0.039996092   -0.67604357     0.004854935  
   1578000   0.05009276    -0.78855813     0.037636251   -0.67583122     0.014962665  
   1579000   0.052722056   -0.79073742     0.03829554    -0.67340981     0.0048426054 
   1580000   0.051539255   -0.78800085     0.037281092   -0.67346075     0.00596856   
   1581000   0.051366529   -0.78841672     0.037714098   -0.67370253     0.019603688  
   1582000   0.051010191   -0.7902601      0.037244137   -0.67655005     0.0007997592 
   1583000   0.050340394   -0.79085109     0.039279548   -0.67610966     0.011316932  
   1584000   0.051312197   -0.79014662     0.038126591   -0.67510139     0.014712603  
   1585000   0.04967067    -0.78841705     0.039246738   -0.67471237    -0.00066745828
   1586000   0.050200284   -0.78874552     0.040781349   -0.67271233    -0.001240955  
   1587000   0.052731941   -0.78798643     0.037284188   -0.67165536     0.0048195946 
   1588000   0.049344714   -0.78869351     0.038308697   -0.67641549     0.012241706  
   1589000   0.050773405   -0.79086803     0.037867194   -0.67688987    -0.0047394507 
   1590000   0.048458918   -0.79043586     0.038463836   -0.67933054     0.0035304538 
   1591000   0.049368495   -0.78880596     0.039133904   -0.67566709     0.0060790667 
   1592000   0.051225217   -0.78810529     0.039057634   -0.6722594      0.017744389  
   1593000   0.050105831   -0.79114886     0.037626389   -0.67841221    -0.016065966  
   1594000   0.051106318   -0.79073226     0.038069502   -0.67605274     0.0038207905 
   1595000   0.049858147   -0.79167513     0.038413437   -0.67852273     0.010873736  
   1596000   0.051620339   -0.78830029     0.03875965    -0.67216009     0.010595695  
   1597000   0.049888508   -0.78989105     0.036780618   -0.67832595     0.0086264374 
   1598000   0.050125095   -0.78883969     0.038287988   -0.67541257     0.0018901705 
   1599000   0.049507488   -0.78994491     0.037697096   -0.67803449     0.013390687  
   1600000   0.048846755   -0.79020084     0.036703829   -0.68027415     0.011049026  
   1601000   0.051451058   -0.79148233     0.038898836   -0.6754567     -0.013843878  
   1602000   0.05109335    -0.789339       0.038756675   -0.67399175    -0.011584812  
   1603000   0.050860346   -0.79000993     0.037784813   -0.67598382     0.033471734  
   1604000   0.050132481   -0.79107099     0.037676174   -0.67824461     0.011360957  
   1605000   0.051206898   -0.7908124      0.039192476   -0.67485913     0.0071477441 
   1606000   0.050473103   -0.79053448     0.03631781    -0.67855586     0.015456411  
   1607000   0.048678773   -0.79064389     0.039170163   -0.67850267     0.0060618688 
   1608000   0.051346085   -0.78671716     0.038663951   -0.67108377    -0.00085038778
   1609000   0.050076027   -0.79326938     0.040847069   -0.67735674    -0.0053245816 
   1610000   0.052903735   -0.79071713     0.041309049   -0.67010367    -0.0061523984 
   1611000   0.051666682   -0.79070902     0.038132441   -0.67512655    -0.0019529663 
   1612000   0.051000078   -0.79024862     0.039789887   -0.67400797    -0.01382946   
   1613000   0.05077135    -0.78978863     0.039843678   -0.67383706     0.016913485  
   1614000   0.050325347   -0.78968141     0.038995852   -0.67524624     0.013627104  
   1615000   0.052293236   -0.78942587     0.039545301   -0.67149132     0.012312996  
   1616000   0.050663647   -0.78718374     0.038336355   -0.67290094     0.021086901  
   1617000   0.050962844   -0.78885641     0.039987968   -0.6724735      0.025978608  
   1618000   0.049445903   -0.78833274     0.038298951   -0.67591278     0.01059978   
   1619000   0.050737167   -0.78897182     0.037571058   -0.67534411     0.0018501066 
   1620000   0.050839353   -0.78778371     0.037076998   -0.67449688     0.0081147962 
   1621000   0.050185077   -0.78986929     0.038098241   -0.676542       0.017739932  
   1622000   0.051305535   -0.78847031     0.036664548   -0.67489711     0.01331299   
   1623000   0.051843992   -0.78719574     0.038050035   -0.67142988     0.007574235  
   1624000   0.051807737   -0.79023686     0.039877947   -0.67269745     0.012698679  
   1625000   0.050550014   -0.7900074      0.036976566   -0.67725473     0.031575645  
   1626000   0.048788866   -0.79139428     0.038252655   -0.68000554     0.0068226666 
   1627000   0.049232369   -0.78902641     0.03906686    -0.67615864     0.023087091  
   1628000   0.052853848   -0.78893291     0.037182568   -0.67252072    -0.0035426115 
   1629000   0.05173647    -0.79009719     0.038007501   -0.67453505     0.016503517  
   1630000   0.050598388   -0.79065308     0.039942389   -0.67486208     0.014913908  
   1631000   0.050987623   -0.78953334     0.036911256   -0.67618999     0.014254542  
   1632000   0.050262919   -0.79175666     0.036988617   -0.67942231     0.0013833863 
   1633000   0.05078859    -0.79213852     0.037986248   -0.67801853    -0.012330593  
   1634000   0.051602234   -0.78951135     0.037149987   -0.67500795     0.0094822342 
   1635000   0.049637046   -0.78879816     0.038416775   -0.67597385    -0.0020068232 
   1636000   0.047988398   -0.78840686     0.038270724   -0.67819998     0.0073429869 
   1637000   0.049438935   -0.7902808      0.038343791   -0.67782646     0.0048689323 
   1638000   0.050495559   -0.78911932     0.036105024   -0.67731983     0.0086533054 
   1639000   0.049080553   -0.78872714     0.037664487   -0.67748932     0.016420061  
   1640000   0.05286416    -0.78861905     0.039879992   -0.66949398     0.014285288  
   1641000   0.051384893   -0.78886213     0.038143955   -0.67369056     0.029559992  
   1642000   0.052471552   -0.7901888      0.038570372   -0.67296188     0.0083236142 
   1643000   0.051455491   -0.78935486     0.036817338   -0.67540408     0.0087169492 
   1644000   0.051037988   -0.78946266     0.037464171   -0.6754909      0.0051983171 
   1645000   0.050889537   -0.79000134     0.039338328   -0.67437795    -0.00038566157
   1646000   0.051126106   -0.78885433     0.039625901   -0.67258874    -0.0063652873 
   1647000   0.051742392   -0.7898195      0.039366609   -0.67288938     0.0050369547 
   1648000   0.051670902   -0.7902671      0.03972771    -0.67308304     0.0038222962 
   1649000   0.051023015   -0.78845638     0.039100718   -0.67287051     0.0032127022 
   1650000   0.052661812   -0.78741397     0.039216814   -0.6692554      0.008534109  
   1651000   0.051515233   -0.78924029     0.037659801   -0.6743575      0.0041877514 
   1652000   0.0518625     -0.78946735     0.038963317   -0.67276047     0.031699407  
   1653000   0.05072481    -0.79012459     0.039623388   -0.67446307     0.0047427733 
   1654000   0.050465521   -0.78760793     0.036215418   -0.67574306     0.031055105  
   1655000   0.049034024   -0.7894428      0.038284311   -0.6776549     -0.00426614   
   1656000   0.051180493   -0.79088704     0.038081871   -0.67608396     0.0078569075 
   1657000   0.051868123   -0.78915984     0.038340141   -0.6730677     -0.0060229356 
   1658000   0.050737608   -0.78937755     0.038072353   -0.67524788     0.014290119  
   1659000   0.05030014    -0.79237425     0.039345854   -0.67762687    -0.0062062035 
   1660000   0.051412145   -0.78965916     0.039009159   -0.67358153    -0.010019748  
   1661000   0.052496093   -0.791632       0.038305115   -0.67463354     0.010051242  
   1662000   0.053248195   -0.79129718     0.038108525   -0.67336789     0.016889447  
   1663000   0.04935748    -0.79218392     0.038148712   -0.68004676    -0.0099671904 
   1664000   0.05116014    -0.79379393     0.037881338   -0.67922189    -0.00064946828
   1665000   0.05144662    -0.79079733     0.03915959    -0.6745176      0.0088608535 
   1666000   0.05210917    -0.79112632     0.038933525   -0.67407947     0.0023183654 
   1667000   0.051288545   -0.79249534     0.038901845   -0.67671031    -0.013130163  
   1668000   0.052260995   -0.79115006     0.039123573   -0.67368557    -0.0014519037 
   1669000   0.050605758   -0.78967506     0.037699159   -0.67611623    -0.0042491514 
   1670000   0.04987566    -0.79308749     0.038773667   -0.6795486      0.0029368521 
   1671000   0.051324506   -0.79139982     0.039409074   -0.67505366    -0.0015623311 
   1672000   0.049282747   -0.79052082     0.037943656   -0.67870074     0.0002681117 
   1673000   0.049978576   -0.79262842     0.036493753   -0.68121517     0.013861072  
   1674000   0.04996161    -0.79218228     0.038236558   -0.67905166    -0.0017383379 
   1675000   0.050910073   -0.79404949     0.038499561   -0.67923409    -0.00099021279
   1676000   0.052282476   -0.79243474     0.035732004   -0.67832962    -0.0041010068 
   1677000   0.051828506   -0.79506192     0.038481062   -0.67888826     0.017151654  
   1678000   0.051866666   -0.79453811     0.039182987   -0.67760532    -0.0053124861 
   1679000   0.052761202   -0.79384009     0.038018041   -0.6767313      0.017684946  
   1680000   0.050114327   -0.79319458     0.038647198   -0.67942439     0.012362561  
   1681000   0.050255715   -0.79162306     0.036796945   -0.67949117    -0.002810758  
   1682000   0.048608712   -0.79448489     0.036345984   -0.68527288     0.0078978174 
   1683000   0.050306581   -0.79287281     0.037543137   -0.67991848     0.018083563  
   1684000   0.049850014   -0.79254359     0.039721975   -0.67809483     0.013115818  
   1685000   0.049144699   -0.79499909     0.038998758   -0.68233084     0.015338119  
   1686000   0.051739917   -0.791523       0.037650337   -0.67631285     0.015545682  
   1687000   0.052723427   -0.79450861     0.039912041   -0.67556245     0.037845175  
   1688000   0.050734921   -0.79526571     0.037178592   -0.68203384     0.011750895  
   1689000   0.051425925   -0.79605        0.038524619   -0.68043626     0.028212026  
   1690000   0.052036744   -0.7954592      0.040064596   -0.67738985     0.020299299  
   1691000   0.052781389   -0.79635996     0.039122366   -0.67811659     0.011936991  
   1692000   0.052256067   -0.79557066     0.038116733   -0.6791204      0.02015664   
   1693000   0.048924133   -0.79762987     0.039867701   -0.68442331     0.0084991679 
   1694000   0.050535892   -0.79540465     0.036684388   -0.68296533    -0.0034076039 
   1695000   0.051374686   -0.79562313     0.037501118   -0.6811097      0.013017074  
   1696000   0.052251948   -0.79609853     0.038399849   -0.67937133     0.024263738  
   1697000   0.050864663   -0.79603872     0.039187843   -0.6806031      0.038619296  
   1698000   0.05072758    -0.79620239     0.03899001    -0.6811701      0.016171493  
   1699000   0.050623879   -0.79650195     0.038265569   -0.68234955     0.015993748  
   1700000   0.048765107   -0.79884115     0.037271345   -0.68846933     0.00268836   
   1701000   0.050071781   -0.79818233     0.038639933   -0.68448318     0.0096780227 
   1702000   0.052333838   -0.79712199     0.037969947   -0.68070193     0.014800709  
   1703000   0.05023856    -0.79884135     0.038897146   -0.68463498     0.01095512   
   1704000   0.051421724   -0.79656566     0.038679026   -0.68080381     0.011980132  
   1705000   0.050233301   -0.79862129     0.037813117   -0.68550683     0.013075581  
   1706000   0.052806158   -0.79668023     0.039571429   -0.67795067     0.014107837  
   1707000   0.051397926   -0.79857332     0.039119739   -0.68240643     0.039691353  
   1708000   0.051028956   -0.79797873     0.038894548   -0.68259014     0.019917589  
   1709000   0.052322232   -0.79612287     0.037434654   -0.68025551     0.012954837  
   1710000   0.051285801   -0.79810758     0.038167699   -0.68306081     0.020459299  
   1711000   0.051733427   -0.79961271     0.037382937   -0.6846797      0.011767286  
   1712000   0.04972877    -0.79909342     0.0390522     -0.68549619     0.01857313   
   1713000   0.050254985   -0.79896067     0.038565933   -0.68506089     0.012239197  
   1714000   0.050961648   -0.79824886     0.038125777   -0.68372993     0.020246494  
   1715000   0.049521016   -0.79857654     0.038852876   -0.68549006     0.0094706977 
   1716000   0.049577911   -0.79866836     0.036097415   -0.68825206     0.024749448  
   1717000   0.050506682   -0.79907331     0.036921757   -0.68644041     0.030024475  
   1718000   0.050503804   -0.79708636     0.038088173   -0.68329136     0.016898454  
   1719000   0.049376927   -0.79868019     0.039074497   -0.68558809     0.0092603473 
   1720000   0.051036093   -0.79691872     0.038748262   -0.68166571     0.02002419   
   1721000   0.051856286   -0.798205       0.03852561    -0.68194515     0.026562458  
   1722000   0.050753738   -0.7975743      0.038782977   -0.68270983     0.033048457  
   1723000   0.050969611   -0.79968738     0.039388445   -0.68389384     0.023636681  
   1724000   0.051936091   -0.79876317     0.037642661   -0.68326663     0.04548122   
   1725000   0.050391812   -0.79867893     0.03929288    -0.6838471      0.039521375  
   1726000   0.051728437   -0.7981583      0.038507569   -0.68210813     0.017757422  
   1727000   0.05155071    -0.79793452     0.038409582   -0.68224876     0.036860874  
   1728000   0.051597389   -0.79642948     0.037542769   -0.68154056     0.012668884  
   1729000   0.050675879   -0.79666472     0.040398015   -0.68030193     0.0054437333 
   1730000   0.049822036   -0.79900217     0.038604401   -0.68571293     0.013117703  
   1731000   0.05163588    -0.79713834     0.038499471   -0.68123502     0.023814017  
   1732000   0.050469648   -0.79867243     0.036373862   -0.68664293     0.026713198  
   1733000   0.051549592   -0.80026909     0.041488783   -0.68150581    -0.00038204843
   1734000   0.050554519   -0.8000384      0.039228038   -0.6850275      0.0050904254 
   1735000   0.050316626   -0.79877614     0.038301888   -0.685048       0.030562858  
   1736000   0.050285651   -0.79921728     0.038635964   -0.68520151     0.012040329  
   1737000   0.052029153   -0.79770835     0.039760167   -0.6799548      0.0068808469 
   1738000   0.051798711   -0.79816559     0.037954654   -0.68256299     0.015833479  
   1739000   0.051458361   -0.80053745     0.039155332   -0.68424437     0.0068115232 
   1740000   0.051686707   -0.79805108     0.038038295   -0.68253274     0.011082056  
   1741000   0.051339728   -0.80018678     0.037980702   -0.68524617     0.01540403   
   1742000   0.049490009   -0.79718179     0.038723288   -0.68427138     0.019247221  
   1743000   0.050129138   -0.79758338     0.038719905   -0.68371828     0.018949926  
   1744000   0.052033963   -0.79570891     0.037188087   -0.68052024     0.0023337513 
   1745000   0.053977233   -0.79823482     0.037944258   -0.67937695     0.02051351   
   1746000   0.05177057    -0.79462453     0.038797678   -0.6782211      0.0024383659 
   1747000   0.049201614   -0.79463978     0.037746562   -0.68313841     0.009364623  
   1748000   0.050647775   -0.79801948     0.038321063   -0.68377577     0.025227323  
   1749000   0.051726319   -0.79668164     0.03780108    -0.68134114    -0.0047298612 
   1750000   0.051746767   -0.79700877     0.03889756    -0.68054114     0.027968216  
   1751000   0.050121817   -0.79463516     0.038823053   -0.68067788     0.013156446  
   1752000   0.051114988   -0.79431402     0.03763928    -0.68005173     0.029067388  
   1753000   0.050469313   -0.79773731     0.040058632   -0.68202355     0.032582855  
   1754000   0.052496972   -0.79634522     0.037772858   -0.6798777      0.0094604092 
   1755000   0.05240423    -0.79516164     0.038077105   -0.6785289      0.025888265  
   1756000   0.050133673   -0.79600058     0.038166992   -0.68268159     0.034344494  
   1757000   0.051187798   -0.79707321     0.037452083   -0.68288896     0.013477915  
   1758000   0.049870466   -0.79610808     0.038399708   -0.68295093     0.01955603   
   1759000   0.051062496   -0.79864618     0.038624404   -0.68347745     0.033409425  
   1760000   0.049672531   -0.79866069     0.03780099    -0.68639897     0.025964533  
   1761000   0.050424346   -0.79752383     0.039511856   -0.68242425     0.020839241  
   1762000   0.051475452   -0.79721864     0.037417038   -0.68263824     0.045927875  
   1763000   0.051788163   -0.79777403     0.039347033   -0.68079487     0.0039819909 
   1764000   0.051132075   -0.79868247     0.038481214   -0.68355263     0.026863111  
   1765000   0.053163704   -0.80097917     0.038472212   -0.68281285     0.019062205  
   1766000   0.049374709   -0.79951838     0.037722843   -0.68778125     0.017781931  
   1767000   0.050840127   -0.79897154     0.037712233   -0.68504831     0.032346473  
   1768000   0.050367111   -0.79473403     0.036209686   -0.68302242     0.019512101  
   1769000   0.052466888   -0.79712786     0.037902023   -0.68057628     0.015327299  
   1770000   0.050971648   -0.79950799     0.038122866   -0.68497698     0.028448735  
   1771000   0.049895932   -0.7956685      0.035965215   -0.68490767     0.020089663  
   1772000   0.050836245   -0.80024488     0.037963875   -0.68607583     0.033618117  
   1773000   0.050581078   -0.80036643     0.037959423   -0.68658434     0.01705198   
   1774000   0.050018152   -0.79675167     0.038534561   -0.68323829     0.030820483  
   1775000   0.050490013   -0.79777221     0.037361867   -0.68472419     0.023360333  
   1776000   0.049394348   -0.79888663     0.038560056   -0.68628286     0.00077841767
   1777000   0.049952463   -0.80005361     0.039416238   -0.68575701     0.024419652  
   1778000   0.050568796   -0.79885239     0.038139659   -0.68490847     0.029043666  
   1779000   0.05041539    -0.79839128     0.039566885   -0.6832501     -2.1391729e-05
   1780000   0.050997367   -0.79877828     0.039017654   -0.68331392     0.015728852  
   1781000   0.050329058   -0.79770367     0.040244651   -0.68201413     0.022320985  
   1782000   0.049470389   -0.79739429     0.039127092   -0.68410948     0.021235292  
   1783000   0.049155912   -0.79865834     0.03760101    -0.68737103     0.0351629    
   1784000   0.051533494   -0.79725447     0.037964297   -0.68203981     0.029683564  
   1785000   0.051222794   -0.79578355     0.038578751   -0.68042018     0.028330392  
   1786000   0.051093605   -0.79663643     0.03850265    -0.68154282     0.043355024  
   1787000   0.053069011   -0.79762594     0.038607623   -0.67946616     0.023687322  
   1788000   0.052877575   -0.79704439     0.039285492   -0.67849371     0.024206572  
   1789000   0.049746637   -0.79645752     0.041192669   -0.68069304     0.022598919  
   1790000   0.052519872   -0.79872874     0.039480787   -0.68051897     0.015040075  
   1791000   0.051218201   -0.79726177     0.038898031   -0.68158601     0.021710289  
   1792000   0.051326844   -0.79850844     0.039538128   -0.68202972     0.013829349  
   1793000   0.051679007   -0.79748609     0.040723814   -0.67929378     0.012260376  
   1794000   0.053588262   -0.79801144     0.038675914   -0.67900499     0.023344998  
   1795000   0.049708359   -0.79639852     0.041844696   -0.68003939     0.034505527  
   1796000   0.05111607    -0.79791863     0.04040751    -0.68088648     0.032097241  
   1797000   0.051555766   -0.79515206     0.039477903   -0.6783904      0.035765336  
   1798000   0.051353742   -0.7946862      0.038935581   -0.6787697      0.0045538145 
   1799000   0.04997611    -0.79427316     0.039528456   -0.67982891     0.027899727  
   1800000   0.051473363   -0.79784016     0.039455874   -0.68122406     0.037485489  
   1801000   0.051129558   -0.79678975     0.039208148   -0.68093675     0.024134208  
   1802000   0.050783479   -0.79790699     0.040848029   -0.68093289     0.033236088  
   1803000   0.051471381   -0.79539382     0.038946379   -0.67929019     0.011584543  
   1804000   0.050782687   -0.79620021     0.040022719   -0.68005261     0.03955683   
   1805000   0.050673561   -0.79850011     0.041140907   -0.6813979      0.020465147  
   1806000   0.049858606   -0.79717248     0.038176506   -0.68425631     0.030856911  
   1807000   0.050857561   -0.7948212      0.038945731   -0.67963835     0.032225325  
   1808000   0.051876074   -0.79471366     0.038885471   -0.67806428     0.071905006  
   1809000   0.051047634   -0.79319602     0.039553194   -0.67712078     0.036312506  
   1810000   0.051084974   -0.79549881     0.038633448   -0.68028734     0.061513089  
   1811000   0.05170015    -0.79512819     0.039513479   -0.67811451     0.054467391  
   1812000   0.05195196    -0.79348103     0.040366603   -0.67523676     0.038634261  
   1813000   0.05183548    -0.7943046      0.038679664   -0.67792188     0.029848128  
   1814000   0.051299541   -0.79471039     0.039487851   -0.67832288     0.017589244  
   1815000   0.05055639    -0.79374914     0.03990701    -0.67805647     0.024299576  
   1816000   0.05241452    -0.79225357     0.038413352   -0.67526917     0.013793634  
   1817000   0.048668828   -0.79164233     0.042214341   -0.67647185     0.021257732  
   1818000   0.052648364   -0.79218727     0.040273036   -0.67299263     0.028156018  
   1819000   0.052707756   -0.79392262     0.040992512   -0.67391949     0.016619832  
   1820000   0.04984547    -0.79133356     0.039027826   -0.67758577     0.021120188  
   1821000   0.051790722   -0.79385771     0.038314353   -0.67790739     0.0081028659 
   1822000   0.051605691   -0.7934503      0.038733988   -0.67735772     0.012209348  
   1823000   0.05087441    -0.79433399     0.04018421    -0.6778874      0.023374931  
   1824000   0.050433935   -0.79315803     0.039942822   -0.67761311     0.025026509  
   1825000   0.050359409   -0.79259762     0.040342511   -0.67676473     0.026479337  
   1826000   0.051978095   -0.79517095     0.040568762   -0.67668534     0.040343104  
   1827000   0.052311124   -0.79590493     0.039695202   -0.67779366     0.018838848  
   1828000   0.05296652    -0.79320533     0.039756326   -0.67405049     0.029291802  
   1829000   0.051267798   -0.79457335     0.041374059   -0.67634721     0.022420327  
   1830000   0.04959496    -0.79207241     0.039840711   -0.67788725     0.0096089135 
   1831000   0.049568461   -0.79211075     0.040788467   -0.67701756     0.010213931  
   1832000   0.050095327   -0.79679068     0.040205999   -0.68149017     0.016697739  
   1833000   0.049887528   -0.7956739      0.040065497   -0.68082539     0.022583478  
   1834000   0.050559222   -0.79468138     0.038669134   -0.68022234     0.020756837  
   1835000   0.050503369   -0.7948783      0.038759642   -0.68041248     0.0095510616 
   1836000   0.051754602   -0.79464829     0.039940217   -0.67712626     0.026577925  
   1837000   0.051837016   -0.79364718     0.038408296   -0.67753353     0.0059377777 
   1838000   0.053290021   -0.79181871     0.039908327   -0.67202692     0.010891617  
   1839000   0.052223873   -0.79360343     0.041415685   -0.67390247     0.041798557  
   1840000   0.052475073   -0.79216582     0.040426919   -0.67307708     0.013510864  
   1841000   0.051974036   -0.79140708     0.04188248    -0.67161384     0.033194958  
   1842000   0.052743169   -0.7963481      0.04202152    -0.67526287     0.0088294817 
   1843000   0.05195216    -0.79334203     0.039453533   -0.67601053     0.020116183  
   1844000   0.051995313   -0.79586873     0.038234825   -0.67969126     0.021584753  
   1845000   0.052451927   -0.79283417     0.040660645   -0.6735464      0.02489208   
   1846000   0.050613791   -0.79369673     0.040805043   -0.67701998     0.017276402  
   1847000   0.05059017    -0.79363189     0.041089901   -0.67670569     0.019381686  
   1848000   0.051683642   -0.79359342     0.040814463   -0.67530351     0.018512501  
   1849000   0.049402833   -0.79552177     0.039667308   -0.68179802     0.01881412   
   1850000   0.049969854   -0.79520271     0.039351665   -0.68094462     0.012045443  
   1851000   0.051701805   -0.7923683      0.042052122   -0.6728135      0.013329797  
   1852000   0.051793599   -0.79340894     0.043565019   -0.67220365     0.024054209  
   1853000   0.052021133   -0.79643121     0.039917915   -0.67853194    -0.00013029028
   1854000   0.051865694   -0.79515327     0.040007474   -0.67739745     0.0061213991 
   1855000   0.050192255   -0.79379228     0.039429341   -0.67912313     0.028969024  
   1856000   0.050995693   -0.79438138     0.042286624   -0.67565056     0.029053641  
   1857000   0.049640501   -0.79319415     0.041144986   -0.67763645     0.021771586  
   1858000   0.049545504   -0.79392877     0.040362688   -0.67929577     0.019789865  
   1859000   0.05058912    -0.79351067     0.04097962    -0.67669633     0.0015596544 
   1860000   0.051064785   -0.79502638     0.040799758   -0.67767886     0.014728907  
   1861000   0.051522283   -0.79177176     0.038866475   -0.67567172     0.028173188  
   1862000   0.050822017   -0.79523297     0.04009225    -0.67895688     0.0046609737 
   1863000   0.051367142   -0.79186782     0.039371151   -0.67549567     0.0051271753 
   1864000   0.053101357   -0.79078514     0.039208965   -0.67197553     0.008288815  
   1865000   0.052136938   -0.7924347      0.040332169   -0.67394758     0.0096605035 
   1866000   0.051982676   -0.79379238     0.037950618   -0.67791806    -0.006042452  
   1867000   0.050625103   -0.79554603     0.040850697   -0.67880667     0.020347437  
   1868000   0.053528041   -0.79529988     0.041461558   -0.67359806     0.018066702  
   1869000   0.051986244   -0.79114486     0.043336078   -0.66987973     0.025696305  
   1870000   0.050292319   -0.7945126      0.044101986   -0.67502081     0.0013559588 
   1871000   0.051651081   -0.7915406      0.040186505   -0.67392745     0.015071863  
   1872000   0.051368887   -0.79229229     0.04020791    -0.67508076     0.0088917609 
   1873000   0.05117177    -0.79250598     0.040910099   -0.67488775     0.019217773  
   1874000   0.051441683   -0.79402281     0.038849704   -0.67806037     0.015860598  
   1875000   0.051328969   -0.79382854     0.041508589   -0.67537617     0.015423128  
   1876000   0.053390566   -0.79451244     0.04084668    -0.67363158     0.006377369  
   1877000   0.052808789   -0.79522529     0.041027066   -0.67503615     0.023194577  
   1878000   0.052689029   -0.79508175     0.042420848   -0.67367835     0.015449683  
   1879000   0.053241886   -0.7951783      0.039555119   -0.67581188     0.0037609184 
   1880000   0.05294148    -0.7939886      0.040458589   -0.67416903     0.0089981841 
   1881000   0.052063114   -0.79516094     0.038258612   -0.67885804     0.023166649  
   1882000   0.050235578   -0.79391983     0.03999352    -0.67862156     0.0034517955 
   1883000   0.051000655   -0.79571777     0.039183589   -0.68008256     0.02201448   
   1884000   0.050172552   -0.79569358     0.041813864   -0.67866944     0.023964841  
   1885000   0.049242306   -0.79364342     0.040277003   -0.67955061     0.024689957  
   1886000   0.052265307   -0.79494432     0.04041454    -0.6761824      0.028220912  
   1887000   0.051708512   -0.79584251     0.040090601   -0.67823918     0.025284918  
   1888000   0.050567146   -0.79447264     0.039047738   -0.67962312     0.04051852   
   1889000   0.050143746   -0.79420925     0.039118031   -0.67992413     0.031537498  
   1890000   0.051489605   -0.79575682     0.042033405   -0.67653883     0.0438705    
   1891000   0.052821532   -0.79361568     0.03879692    -0.67563758     0.066624845  
   1892000   0.051874152   -0.79478384     0.040362675   -0.67666014     0.027741927  
   1893000   0.050530119   -0.79420402     0.040623377   -0.67783436     0.031289152  
   1894000   0.052469805   -0.79552976     0.040675576   -0.67620025     0.01922975   
   1895000   0.04991373    -0.79553627     0.040498282   -0.6802157      0.030885559  
   1896000   0.050643775   -0.79439465     0.03966547    -0.67881252     0.042644939  
   1897000   0.051875072   -0.79493759     0.039632162   -0.67754302     0.041665011  
   1898000   0.050174896   -0.7937807      0.040332659   -0.67823425     0.043218741  
   1899000   0.050505555   -0.79309066     0.041796455   -0.67558475     0.039182311  
   1900000   0.050965384   -0.79294636     0.040423683   -0.67612392     0.051864017  
   1901000   0.049471387   -0.79495717     0.040902422   -0.67989554     0.016399444  
   1902000   0.050874488   -0.79484981     0.038032499   -0.68055481     0.028892338  
   1903000   0.051805295   -0.79516884     0.038434401   -0.67907663     0.032482892  
   1904000   0.050940821   -0.79453976     0.040036559   -0.67814127     0.032104597  
   1905000   0.049866959   -0.79406974     0.03901944    -0.68029812     0.029416083  
   1906000   0.052794528   -0.7940167      0.041199063   -0.67367694     0.026677347  
   1907000   0.050718685   -0.7919914      0.039287419   -0.67667504     0.018007217  
   1908000   0.050830684   -0.79498957     0.041454276   -0.67733846     0.030361229  
   1909000   0.051854133   -0.79458088     0.040565868   -0.676284       0.039563599  
   1910000   0.051049935   -0.79694371     0.039935157   -0.68048305     0.020097121  
   1911000   0.051915342   -0.79638335     0.042033099   -0.67652748     0.015714044  
   1912000   0.051579606   -0.79404568     0.041423632   -0.67530255     0.018095126  
   1913000   0.053312757   -0.79456893     0.038085379   -0.67656601     0.015772571  
   1914000   0.052870635   -0.79561831     0.039386513   -0.67697701     0.0099978035 
   1915000   0.05221419    -0.79821506     0.041364254   -0.67858005     0.034635588  
   1916000   0.050631119   -0.79610584     0.041550088   -0.67865807     0.050170515  
   1917000   0.050816126   -0.7969644      0.039116825   -0.68167257     0.032686975  
   1918000   0.052292453   -0.79427958     0.040056019   -0.67583548     0.036826693  
   1919000   0.050422211   -0.79277346     0.041397982   -0.67579096     0.025215256  
   1920000   0.050959111   -0.79357607     0.04085806    -0.67632866     0.021115924  
   1921000   0.050735638   -0.7953378      0.040815051   -0.67846839     0.016218195  
   1922000   0.050254639   -0.79499604     0.040824716   -0.678838       0.028975803  
   1923000   0.051724799   -0.79370853     0.039480378   -0.67669101     0.01820694   
   1924000   0.052015165   -0.79552574     0.040039558   -0.67751377     0.011674047  
   1925000   0.051635041   -0.79458792     0.040840621   -0.67634471     0.042544117  
   1926000   0.051318012   -0.79854353     0.041437711   -0.68017846     0.021756146  
   1927000   0.050576968   -0.7962702      0.039195967   -0.68125773     0.022374114  
   1928000   0.049924077   -0.79582411     0.039042762   -0.68194355     0.025896579  
   1929000   0.050751543   -0.79520515     0.040126179   -0.67900077     0.026097542  
   1930000   0.051956191   -0.79930717     0.041134044   -0.68028912     0.015696367  
   1931000   0.050468399   -0.79606158     0.040925886   -0.67948194     0.02832101   
   1932000   0.053707277   -0.79495968     0.041513977   -0.67293676     0.0051884179 
   1933000   0.052626844   -0.79514284     0.041681601   -0.6745719      0.022545812  
   1934000   0.050146778   -0.79666452     0.04219388    -0.679299       0.012838469  
   1935000   0.050196473   -0.79528036     0.041501983   -0.67853224     0.018515923  
   1936000   0.050888373   -0.79365811     0.040171114   -0.67720368     0.011316615  
   1937000   0.049287236   -0.79438946     0.041790601   -0.67871571     0.013009772  
   1938000   0.05281236    -0.79444181     0.042277712   -0.67299667     0.018350567  
   1939000   0.052648736   -0.79570758     0.041576491   -0.67520893     0.016177894  
   1940000   0.050752989   -0.79399333     0.040812527   -0.67710044     0.023243384  
   1941000   0.051731621   -0.79294472     0.040523402   -0.67487394     0.010592121  
   1942000   0.053584614   -0.79597749     0.0405853     -0.67506713     0.0024829256 
   1943000   0.052486558   -0.79550028     0.041236442   -0.6755848      0.017505553  
   1944000   0.052289363   -0.79302732     0.039477578   -0.6751663      0.012609353  
   1945000   0.050302471   -0.79603141     0.039089993   -0.68153639     0.033707523  
   1946000   0.048857382   -0.79538814     0.038237772   -0.68391157     0.020814872  
   1947000   0.050165246   -0.79478362     0.038816807   -0.68076749     0.006681145  
   1948000   0.050992389   -0.7953678      0.038557078   -0.68037148     0.011453618  
   1949000   0.049529225   -0.79517865     0.040791891   -0.68014085     0.031284547  
   1950000   0.05106927    -0.79659212     0.039866833   -0.6801708      0.029472781  
   1951000   0.05015003    -0.79636591     0.03972761    -0.68146178     0.018090827  
   1952000   0.051413051   -0.79563491     0.041283732   -0.67728136     0.013823019  
   1953000   0.052058504   -0.79680807     0.040496117   -0.67827457     0.042051565  
   1954000   0.050728937   -0.79694136     0.039970465   -0.68092658     0.016338296  
   1955000   0.05079512    -0.79588435     0.040941252   -0.67879958     0.010675614  
   1956000   0.051245029   -0.7925684      0.040576908   -0.67517354     0.046484158  
   1957000   0.053669119   -0.79403486     0.039722791   -0.67386033     0.021973751  
   1958000   0.050928442   -0.79392915     0.040151572   -0.6774342      0.04842838   
   1959000   0.052318504   -0.79569566     0.038274129   -0.67899441     0.01143712   
   1960000   0.049865554   -0.79282182     0.039624371   -0.67844738     0.035387808  
   1961000   0.050848682   -0.79188856     0.042307996   -0.67335675     0.030251274  
   1962000   0.050563964   -0.79195377     0.042176924   -0.67397983     0.021623221  
   1963000   0.053194211   -0.79179655     0.039460679   -0.67259603     0.029870662  
   1964000   0.05139736    -0.79147981     0.040619662   -0.67381385     0.033206262  
   1965000   0.052964637   -0.79166554     0.042099684   -0.67017016     0.030080886  
   1966000   0.051724836   -0.79181728     0.041722942   -0.67255714     0.0067949412 
   1967000   0.0506712     -0.79295861     0.040415491   -0.67658535     0.023068697  
   1968000   0.052618237   -0.79430001     0.038935152   -0.67648843     0.017285114  
   1969000   0.052978345   -0.79597937     0.039552795   -0.67701032     0.025090504  
   1970000   0.04953153    -0.79683141     0.040238671   -0.68234338     0.026823719  
   1971000   0.050855426   -0.79602772     0.040091267   -0.67970253     0.037922374  
   1972000   0.049757135   -0.79389934     0.040462991   -0.6788488      0.038763919  
   1973000   0.051955263   -0.79350884     0.040576244   -0.67504998     0.012154498  
   1974000   0.052089546   -0.79548424     0.039684226   -0.67771611     0.02113779   
   1975000   0.051120949   -0.79728808     0.038651239   -0.68200489     0.023216176  
   1976000   0.052007902   -0.79558632     0.036140422   -0.68148437     0.040745181  
   1977000   0.051823634   -0.79669527     0.040750008   -0.67825996     0.0099569434 
   1978000   0.051283056   -0.79606409     0.040087935   -0.6791012      0.012850833  
   1979000   0.051206732   -0.7967727      0.039932484   -0.68007967     0.040610327  
   1980000   0.051502311   -0.7976055      0.041091791   -0.67931008     0.016640585  
   1981000   0.051823106   -0.79449214     0.041648055   -0.67515957     0.02328127   
   1982000   0.05194907    -0.79639106     0.041724799   -0.67679293     0.017073937  
   1983000   0.051361805   -0.79701481     0.041209211   -0.6788126      0.021950529  
   1984000   0.049989224   -0.79697498     0.040164161   -0.68187536     0.024537144  
   1985000   0.050027782   -0.79641364     0.041100289   -0.68032009     0.0055004295 
   1986000   0.050680898   -0.79400482     0.040436663   -0.67759585     0.017734747  
   1987000   0.050437815   -0.79529264     0.042338329   -0.6773464      0.015103709  
   1988000   0.052821441   -0.79488497     0.039493578   -0.67621034     0.022773341  
   1989000   0.052580766   -0.79533168     0.042150842   -0.67436057     0.01206634   
   1990000   0.050801303   -0.7950542      0.040149338   -0.67875207     0.026375569  
   1991000   0.051552511   -0.79661161     0.0393296     -0.68000313     0.01410861   
   1992000   0.051559168   -0.79645724     0.040905567   -0.67826281     0.013206539  
   1993000   0.051282052   -0.79478281     0.038542003   -0.67936735     0.023690839  
   1994000   0.050342713   -0.7966786      0.041406796   -0.67980645     0.026397495  
   1995000   0.049743036   -0.79597113     0.036607397   -0.68479731     0.036455887  
   1996000   0.049289417   -0.79658694     0.039406091   -0.68329442     0.0270474    
   1997000   0.048563151   -0.79546341     0.041095297   -0.68157039     0.029010654  
   1998000   0.05090278    -0.79667604     0.039935228   -0.6804359      0.00019631699
   1999000   0.049190226   -0.79542013     0.040240043   -0.68144235     0.034981928  
   2000000   0.050766659   -0.79572499     0.041845169   -0.67777896     0.014510015  
   2001000   0.05117942    -0.79546126     0.041470971   -0.67727069     0.031325676  
   2002000   0.049841613   -0.79672434     0.04369398    -0.67831617     0.022410023  
   2003000   0.0514075     -0.79754844     0.04112268    -0.67936426     0.0070958131 
   2004000   0.051846501   -0.79713447     0.04113187    -0.67828302     0.027978311  
   2005000   0.051221437   -0.7949247      0.039882283   -0.67825983     0.038689219  
   2006000   0.049871133   -0.79592138     0.037914121   -0.68324882     0.036394429  
   2007000   0.051117375   -0.79823072     0.041396051   -0.68020808     0.022104015  
   2008000   0.051446323   -0.79757569     0.041195741   -0.67926025     0.022150755  
   2009000   0.050303873   -0.79655908     0.040875087   -0.68027687     0.012059239  
   2010000   0.050612536   -0.79487017     0.040481235   -0.67851911     0.049156621  
   2011000   0.051396124   -0.79583496     0.040054995   -0.67873551     0.044056386  
   2012000   0.051532052   -0.79613751     0.038797111   -0.68009219     0.03009486   
   2013000   0.051128187   -0.79489355     0.039826642   -0.67842411     0.032984257  
   2014000   0.049554409   -0.79694924     0.040910387   -0.68175519     0.054928898  
   2015000   0.052523144   -0.79756353     0.042054478   -0.67677516     0.046023805  
   2016000   0.051579074   -0.79734757     0.040318935   -0.67970993     0.030694142  
   2017000   0.049500599   -0.79791462     0.040768365   -0.68294326     0.031188367  
   2018000   0.050347231   -0.79278726     0.039584452   -0.67773069     0.044979912  
   2019000   0.049025677   -0.79639866     0.042303608   -0.68060398     0.032715035  
   2020000   0.048424345   -0.7967353      0.042828584   -0.68131706     0.013565959  
   2021000   0.052500576   -0.79759522     0.040319775   -0.67857539     0.025370281  
   2022000   0.051243758   -0.79747888     0.040739592   -0.67992324     0.026790067  
   2023000   0.051983431   -0.79855483     0.041201227   -0.67942876     0.026495362  
   2024000   0.04957604    -0.79691436     0.04244633    -0.68015195     0.029452137  
   2025000   0.050499681   -0.79677234     0.039070058   -0.68200163     0.02968684   
   2026000   0.049946258   -0.79774802     0.042103644   -0.68077332     0.017200497  
   2027000   0.050977697   -0.79767619     0.040922664   -0.68033632     0.037008791  
   2028000   0.052220273   -0.79679726     0.038117063   -0.68040033     0.050744479  
   2029000   0.050573956   -0.79654741     0.039755196   -0.68098023     0.029405572  
   2030000   0.050098166   -0.79525613     0.039788624   -0.68036874     0.033536058  
   2031000   0.051899291   -0.79762098     0.039266643   -0.68055563     0.016571506  
   2032000   0.049390549   -0.79999161     0.038474207   -0.68747938     0.022442826  
   2033000   0.05105507    -0.79791321     0.039720731   -0.68165928     0.030309916  
   2034000   0.051436871   -0.799837       0.040839847   -0.68189162     0.030531382  
   2035000   0.051602665   -0.79593154     0.042304761   -0.67627272     0.040124663  
   2036000   0.050939112   -0.79544064     0.040186532   -0.67889474     0.013839931  
   2037000   0.050219696   -0.79909535     0.039592537   -0.68422187     0.045277722  
   2038000   0.052643832   -0.79950851     0.042940584   -0.67765313     0.021607386  
   2039000   0.051965298   -0.79789747     0.042202684   -0.67779713     0.0081526946 
   2040000   0.053492898   -0.7980441      0.039710289   -0.67814623     0.033626027  
   2041000   0.050891819   -0.79851988     0.042502863   -0.67972854     0.023454116  
   2042000   0.051147062   -0.79953823     0.040994411   -0.68187272     0.044716629  
   2043000   0.051484714   -0.79609733     0.04114294    -0.67777714     0.032597237  
   2044000   0.049121707   -0.79733092     0.03994816    -0.68374774     0.041679637  
   2045000   0.051126803   -0.79963949     0.041120813   -0.68187795     0.025016675  
   2046000   0.050038639   -0.79790568     0.042395864   -0.68050028     0.0052297179 
   2047000   0.050037599   -0.79614107     0.041393233   -0.67973986     0.018544518  
   2048000   0.051188656   -0.79907717     0.042336318   -0.68000741     0.0080113833 
   2049000   0.051414685   -0.79798609     0.041683503   -0.67923031     0.054061639  
   2050000   0.050745814   -0.79802248     0.041134194   -0.68081867     0.021556667  
   2051000   0.051023253   -0.79850093     0.039633522   -0.68238191     0.030918221  
   2052000   0.04918772    -0.79983229     0.039658276   -0.68644003     0.027865095  
   2053000   0.05203432    -0.79652893     0.039389515   -0.67913829     0.028173535  
   2054000   0.052106872   -0.79807857     0.040201896   -0.67976679     0.041832204  
   2055000   0.050376342   -0.79911362     0.041426228   -0.68217163     0.024007317  
   2056000   0.052238422   -0.7990875      0.041582769   -0.67919765     0.019219745  
   2057000   0.050127509   -0.79898138     0.042213762   -0.68162486     0.01183364   
   2058000   0.050225609   -0.79823693     0.040287296   -0.68265983     0.027060836  
   2059000   0.050375255   -0.79937152     0.038029814   -0.68582757     0.031078873  
   2060000   0.050159111   -0.79782308     0.039219043   -0.68341391     0.027290266  
   2061000   0.051749148   -0.79811101     0.040327469   -0.6802099      0.051833537  
   2062000   0.052154979   -0.80001389     0.041102281   -0.68072961     0.039553944  
   2063000   0.05184116    -0.79801681     0.041360739   -0.6789445      0.038040269  
   2064000   0.053217213   -0.79838862     0.04040106    -0.67821325     0.029500792  
   2065000   0.052269908   -0.79867138     0.04363846    -0.67667864     0.039385763  
   2066000   0.05201953    -0.79989785     0.042132888   -0.67978601     0.056314153  
   2067000   0.050817381   -0.7981869      0.040785775   -0.68122423     0.049703483  
   2068000   0.051191673   -0.79948212     0.038898347   -0.68384581     0.025505498  
   2069000   0.051203375   -0.79822765     0.041073135   -0.680399       0.037606667  
   2070000   0.051774429   -0.80009877     0.043085141   -0.67940209     0.016259269  
   2071000   0.05313642    -0.79756421     0.04150989    -0.67640112     0.017344386  
   2072000   0.05157398    -0.8002263      0.042664376   -0.68025086     0.032266579  
   2073000   0.052350419   -0.79942374     0.040951467   -0.67999731     0.029454173  
   2074000   0.051381235   -0.79869468     0.041095357   -0.68057719     0.025362173  
   2075000   0.051111128   -0.79805183     0.040850491   -0.68058411     0.0085757317 
   2076000   0.051461016   -0.80010574     0.041366663   -0.68159735     0.021465493  
   2077000   0.050658889   -0.79925385     0.040292115   -0.68302243     0.015467168  
   2078000   0.051335647   -0.79945127     0.04058669    -0.68191079     0.0031012981 
   2079000   0.050259911   -0.80025622     0.040663861   -0.68425113     0.011010613  
   2080000   0.051111131   -0.80064744     0.041039708   -0.6829905      0.025428432  
   2081000   0.050159903   -0.79744331     0.041025719   -0.68122628     0.034608088  
   2082000   0.051097116   -0.7985032      0.03949056    -0.68241641     0.023118755  
   2083000   0.052386888   -0.80078097     0.04160827    -0.68064307     0.030292875  
   2084000   0.052950253   -0.79927374     0.040805746   -0.67909386     0.04331008   
   2085000   0.050337161   -0.79954313     0.041789729   -0.68229637     0.024102694  
   2086000   0.051320749   -0.79999272     0.04223704    -0.68082422     0.023350982  
   2087000   0.051095773   -0.79907019     0.041896662   -0.68057931     0.02619019   
   2088000   0.050908475   -0.7978265      0.042174935   -0.67933811     0.021006968  
   2089000   0.05206946    -0.79758585     0.040095933   -0.67943611     0.014946204  
   2090000   0.050450944   -0.79780589     0.040733393   -0.6814449      0.048479637  
   2091000   0.051803103   -0.79924039     0.039952716   -0.68163315     0.01925646   
   2092000   0.052038361   -0.80016991     0.040323788   -0.68183894     0.026130993  
   2093000   0.051380776   -0.79928049     0.040893405   -0.68136565     0.012886662  
   2094000   0.050900661   -0.79823664     0.040787085   -0.68114782     0.010954594  
   2095000   0.051116164   -0.79751347     0.040442873   -0.68044582     0.025843628  
   2096000   0.050735396   -0.79680851     0.041234709   -0.6795198      0.011553126  
   2097000   0.052074873   -0.79708845     0.038779997   -0.68024654     0.028677153  
   2098000   0.051135264   -0.80022632     0.039714522   -0.68385838     0.029572903  
   2099000   0.04908138    -0.79862954     0.039965024   -0.68508994     0.015650921  
   2100000   0.050276029   -0.79939703     0.04004691    -0.68398473     0.023243328  
   2101000   0.049950505   -0.79905114     0.040338192   -0.68383553     0.03005409   
   2102000   0.050638647   -0.80002845     0.040189019   -0.68393047     0.029921427  
   2103000   0.050698298   -0.79827275     0.040573698   -0.68170067     0.03641022   
   2104000   0.050132483   -0.79813533     0.039694075   -0.68329104     0.025122443  
   2105000   0.050027515   -0.79612854     0.042266273   -0.67886941     0.050886705  
   2106000   0.051927863   -0.7988393      0.040546322   -0.68045144     0.037159626  
   2107000   0.050343862   -0.79635527     0.038767023   -0.68212117     0.023401725  
   2108000   0.048751449   -0.79941947     0.04000619    -0.68633328     0.031882951  
   2109000   0.050457562   -0.80039425     0.041487194   -0.68326954     0.022655407  
   2110000   0.050913718   -0.79860124     0.04347366    -0.67880627     0.016748624  
   2111000   0.053012541   -0.79913145     0.043601971   -0.67606197     0.01201416   
   2112000   0.051521398   -0.80043174     0.041660774   -0.68153873     0.053655125  
   2113000   0.050938611   -0.79892998     0.039917995   -0.68265336     0.033331037  
   2114000   0.05025141    -0.79809661     0.041978566   -0.68078956     0.04557761   
   2115000   0.053461058   -0.79871793     0.04089893    -0.67767915     0.027669478  
   2116000   0.050288395   -0.80056069     0.042309367   -0.68286739     0.039033508  
   2117000   0.052020509   -0.80052029     0.042131973   -0.68040789     0.027365189  
   2118000   0.051684319   -0.79893456     0.042139751   -0.67931835     0.020509449  
   2119000   0.052613529   -0.79784814     0.042784512   -0.67619425     0.02425482   
   2120000   0.054320126   -0.79860496     0.041253613   -0.67592373     0.018967524  
   2121000   0.051592199   -0.7991608      0.043099118   -0.67872331     0.0065212741 
   2122000   0.05126567    -0.7995926      0.040866067   -0.68187764     0.024362157  
   2123000   0.052092417   -0.79799193     0.039933164   -0.67997056     0.054876368  
   2124000   0.052060709   -0.80041401     0.040444983   -0.68192834     0.024299807  
   2125000   0.050169225   -0.79843766     0.04170146    -0.68153091     0.044565661  
   2126000   0.051112879   -0.79707782     0.03899085    -0.68146712     0.036713134  
   2127000   0.051840638   -0.7980469      0.041280379   -0.67905573     0.026104839  
   2128000   0.049790722   -0.79888429     0.040693726   -0.68355267     0.045410556  
   2129000   0.050331016   -0.79806551     0.03964765    -0.68297004     0.025003717  
   2130000   0.051761862   -0.79651149     0.040964743   -0.67795404     0.023005308  
   2131000   0.052088436   -0.79556982     0.040270849   -0.67721673     0.027076592  
   2132000   0.050286133   -0.79834495     0.040930454   -0.68203396     0.025593839  
   2133000   0.050955887   -0.79603113     0.0413323     -0.67831431     0.036757618  
   2134000   0.05269411    -0.79674862     0.040817463   -0.67694098     0.045518065  
   2135000   0.051607666   -0.79824638     0.04185565    -0.67902918     0.013251287  
   2136000   0.050671656   -0.79990639     0.041052324   -0.68289562     0.021041551  
   2137000   0.051047586   -0.80040993     0.040161134   -0.68372682     0.043923594  
   2138000   0.050933083   -0.79974189     0.038142217   -0.68524934     0.050646861  
   2139000   0.050997701   -0.79801922     0.038547898   -0.68302413     0.0328523    
   2140000   0.052504741   -0.80101992     0.040765014   -0.68154861     0.021686284  
   2141000   0.051294851   -0.80169802     0.041891771   -0.68291361     0.0084934654 
   2142000   0.050084413   -0.79915979     0.042919499   -0.68116214     0.045515567  
   2143000   0.050192383   -0.79972991     0.042324732   -0.68216517     0.033215679  
   2144000   0.051174102   -0.79901203     0.038586136   -0.68371426     0.038712189  
   2145000   0.051345157   -0.80071246     0.040848534   -0.68289588     0.021955061  
   2146000   0.051920278   -0.79698659     0.041860072   -0.67729635     0.017653185  
   2147000   0.054279251   -0.80083907     0.042351918   -0.6771208      0.037644894  
   2148000   0.051389368   -0.79970803     0.042396461   -0.68027725     0.035328069  
   2149000   0.051769162   -0.79734537     0.042226771   -0.67751495     0.031587325  
   2150000   0.052667403   -0.80201593     0.042817029   -0.68024876     0.029505484  
   2151000   0.050702384   -0.80146526     0.042174498   -0.68328625     0.042481609  
   2152000   0.052388666   -0.80085423     0.040192553   -0.68212938     0.039391314  
   2153000   0.050225445   -0.79722183     0.040763668   -0.6811686      0.0094902441 
   2154000   0.052048793   -0.80092533     0.042407105   -0.68049541     0.024945799  
   2155000   0.050842258   -0.79990445     0.041203565   -0.6824867      0.021415443  
   2156000   0.051939635   -0.79775849     0.041867093   -0.67803221     0.011097616  
   2157000   0.052822867   -0.79878681     0.040293168   -0.67931046    -0.0015849669 
   2158000   0.051260159   -0.79704712     0.040554608   -0.67965188     0.016446149  
   2159000   0.051449236   -0.80005168     0.042536578   -0.68039103     0.023791751  
   2160000   0.052119989   -0.79911172     0.041598095   -0.67938408     0.03625659   
   2161000   0.05186776    -0.79579739     0.04251787    -0.67552807     0.017282815  
   2162000   0.051515684   -0.79789027     0.040913536   -0.67975306     0.02827066   
   2163000   0.050698856   -0.79836338     0.041194757   -0.6811694      0.034501961  
   2164000   0.051027031   -0.79726984     0.040961319   -0.67981736     0.027675378  
   2165000   0.050086207   -0.79654156     0.041343665   -0.68011705     0.050096096  
   2166000   0.050491836   -0.79887641     0.041141298   -0.68204622     0.018219392  
   2167000   0.049546126   -0.79792968     0.041928791   -0.68172965     0.01941495   
   2168000   0.050193199   -0.79813066     0.041055272   -0.68183416     0.049348373  
   2169000   0.049402862   -0.79757524     0.043063803   -0.68045495     0.050195832  
   2170000   0.051462113   -0.7950888      0.040735814   -0.67720961     0.03281196   
   2171000   0.050442048   -0.79701329     0.039300604   -0.68209842     0.031536975  
   2172000   0.051423495   -0.7988111      0.039417387   -0.68230824     0.0097462388 
   2173000   0.050904047   -0.79842977     0.038989742   -0.68313322     0.012236551  
   2174000   0.050803743   -0.79928821     0.038907723   -0.68422404     0.0092957202 
   2175000   0.052246097   -0.79909596     0.040325463   -0.68045191     0.01664537   
   2176000   0.051044585   -0.79797835     0.040215353   -0.68124552     0.032105254  
   2177000   0.053087268   -0.79622502     0.040613734   -0.67603176     0.042904944  
   2178000   0.052696772   -0.7973038      0.041212882   -0.67709676     0.033374424  
   2179000   0.051056551   -0.79803232     0.042036053   -0.67946085     0.029407924  
   2180000   0.051856707   -0.79755113     0.041288478   -0.67852778     0.024387491  
   2181000   0.052602751   -0.79921311     0.04096457    -0.67939532     0.031781199  
   2182000   0.050660728   -0.79792923     0.041523621   -0.68046355     0.027038684  
   2183000   0.049040727   -0.79795474     0.04004738    -0.68439373     0.050485575  
   2184000   0.048670311   -0.79789364     0.041940673   -0.6829946      0.021346466  
   2185000   0.049094366   -0.80008991     0.041686006   -0.68480987     0.0075560906 
   2186000   0.049041994   -0.79785711     0.038183884   -0.6861577      0.025048432  
   2187000   0.049047334   -0.79821629     0.041207025   -0.68348573     0.010749354  
   2188000   0.05078404    -0.79736842     0.041583732   -0.67965777     0.028788811  
   2189000   0.050719888   -0.79714664     0.041812035   -0.67930385     0.015997942  
   2190000   0.052546533   -0.79812979     0.044103058   -0.67525779     0.013750468  
   2191000   0.053382364   -0.79882388     0.043012473   -0.67578952     0.042016932  
   2192000   0.051889377   -0.79680629     0.042717707   -0.67630473     0.050355961  
   2193000   0.051177013   -0.79954552     0.040637062   -0.68219246     0.028344034  
   2194000   0.05053823    -0.79918679     0.040028147   -0.6834002      0.030368496  
   2195000   0.050891863   -0.79785315     0.040333241   -0.68123137     0.022188496  
   2196000   0.051015615   -0.79737451     0.039505249   -0.68139521     0.035828245  
   2197000   0.04951411    -0.798339       0.043750737   -0.68036501     0.028319351  
   2198000   0.051524657   -0.79701476     0.040668833   -0.6791088      0.043329162  
   2199000   0.051936713   -0.79883672     0.040711144   -0.68027077     0.031605408  
   2200000   0.051520625   -0.79837136     0.040727455   -0.68041283     0.049734531  
   2201000   0.049814411   -0.79585448     0.040869252   -0.68031181     0.029337671  
   2202000   0.051268672   -0.79843313     0.04025807    -0.68132166     0.029975109  
   2203000   0.050037337   -0.79764217     0.0399829     -0.68265169     0.021708672  
   2204000   0.05014613    -0.79707633     0.039948573   -0.68195709     0.021870483  
   2205000   0.050241116   -0.7987099      0.039772882   -0.68362396     0.0086883137 
   2206000   0.052273866   -0.79598771     0.038801743   -0.67882576     0.017302685  
   2207000   0.051504625   -0.79574013     0.038328614   -0.68020442     0.044359457  
   2208000   0.051446072   -0.79600523     0.040894789   -0.67799112     0.032977052  
   2209000   0.050621891   -0.79471031     0.042080994   -0.67674547     0.043966243  
   2210000   0.052644873   -0.79644533     0.040347665   -0.6771813      0.031458889  
   2211000   0.050688603   -0.79804836     0.040580907   -0.6814836      0.040276724  
   2212000   0.050897923   -0.79727143     0.040448624   -0.68052518     0.026910689  
   2213000   0.051220378   -0.79877359     0.043511687   -0.6784809      0.023250955  
   2214000   0.051717093   -0.79691306     0.041522514   -0.67786495     0.035144909  
   2215000   0.050506018   -0.79649392     0.042450156   -0.67833361     0.014260038  
   2216000   0.051878332   -0.79932142     0.042507607   -0.67904652     0.010418976  
   2217000   0.05186504    -0.79731895     0.041949296   -0.67762229     0.010699968  
   2218000   0.052164947   -0.79830424     0.041793724   -0.67831358     0.039862521  
   2219000   0.050147491   -0.79934059     0.040377395   -0.68379049     0.045891241  
   2220000   0.049648507   -0.79763082     0.042116091   -0.68109002     0.048203763  
   2221000   0.051248821   -0.79770324     0.041721642   -0.67915796     0.022571694  
   2222000   0.051013341   -0.79601084     0.040486865   -0.67905333     0.038557752  
   2223000   0.049104009   -0.79657032     0.042450321   -0.6805115      0.051261673  
   2224000   0.051158067   -0.79921817     0.042823093   -0.67970749     0.046228109  
   2225000   0.050906908   -0.79770617     0.042729771   -0.6786653      0.031665544  
   2226000   0.051580088   -0.79787828     0.040969173   -0.67958889     0.046189878  
   2227000   0.051509187   -0.79913868     0.041422712   -0.68050204     0.027130483  
   2228000   0.051410765   -0.79984307     0.042130119   -0.68064656     0.021127823  
   2229000   0.050326781   -0.79745333     0.04131205    -0.68069981     0.044822046  
   2230000   0.050463481   -0.79776962     0.041676676   -0.68044656     0.011780463  
   2231000   0.050690578   -0.79682793     0.040955371   -0.67988574     0.033610543  
   2232000   0.049642294   -0.79866266     0.04042523    -0.68382203     0.051346107  
   2233000   0.051254882   -0.79767574     0.039011045   -0.68183198     0.04559609   
   2234000   0.051217931   -0.79753187     0.03917392    -0.68158062     0.024833028  
   2235000   0.050049151   -0.79817755     0.041025555   -0.68212671     0.034592324  
   2236000   0.049743195   -0.79711689     0.042885395   -0.67966484     0.016361975  
   2237000   0.05232238    -0.79819947     0.041802482   -0.67796405     0.039222763  
   2238000   0.051160874   -0.79820608     0.038838354   -0.68267593     0.042921519  
   2239000   0.05105138    -0.79446217     0.041073887   -0.67686062     0.021401336  
   2240000   0.049951431   -0.79662521     0.043348344   -0.67839806     0.019180174  
   2241000   0.050181686   -0.79619673     0.040770515   -0.68020224     0.034525297  
   2242000   0.052096704   -0.79802669     0.041430376   -0.67850167     0.01465781   
   2243000   0.05091185    -0.79925153     0.04081525    -0.68211777     0.0092367695 
   2244000   0.050263009   -0.798962       0.042778953   -0.68083718     0.00043872438
   2245000   0.048922358   -0.79609346     0.04159819    -0.68115908     0.017229615  
   2246000   0.050985037   -0.79975007     0.040993159   -0.6823287      0.015050984  
   2247000   0.049934798   -0.79803744     0.041248145   -0.68193542     0.016473965  
   2248000   0.051095757   -0.80065139     0.042221047   -0.68183615     0.0507101    
   2249000   0.052659326   -0.80033528     0.040251875   -0.68114537     0.044742535  
   2250000   0.051779118   -0.80144053     0.041608621   -0.68221334     0.034323019  
   2251000   0.04975519    -0.80091883     0.041800631   -0.68453357     0.032014709  
   2252000   0.048669978   -0.80190511     0.042936266   -0.68601098     0.015389207  
   2253000   0.049903982   -0.79984017     0.040595168   -0.68443732     0.023398208  
   2254000   0.051706205   -0.80027087     0.040698436   -0.68206316     0.028630844  
   2255000   0.052012604   -0.79979191     0.041157935   -0.68066541     0.040747668  
   2256000   0.052953353   -0.79765724     0.040082074   -0.67819638     0.034892922  
   2257000   0.053153179   -0.79930882     0.040270548   -0.67935994     0.039163462  
   2258000   0.053120507   -0.80032059     0.043028962   -0.67766227     0.055993882  
   2259000   0.05175065    -0.80254446     0.041762694   -0.68320587     0.033846464  
   2260000   0.050171329   -0.80214049     0.042252846   -0.6846792      0.034652822  
   2261000   0.051569443   -0.8012555      0.039819539   -0.6841317      0.043784533  
   2262000   0.050958189   -0.8001866      0.041118197   -0.68268043     0.052300626  
   2263000   0.051237382   -0.79878274     0.040385318   -0.68159093     0.064851187  
   2264000   0.050480432   -0.8002678      0.039594748   -0.68500125     0.04208354   
   2265000   0.051815717   -0.80084452     0.040735988   -0.6824351      0.048603615  
   2266000   0.052432012   -0.79935644     0.039927864   -0.6808313      0.047757982  
   2267000   0.052030387   -0.80091152     0.040451278   -0.68246501     0.028731046  
   2268000   0.052912695   -0.80002311     0.040658725   -0.68004655     0.033641579  
   2269000   0.053931666   -0.79735222     0.041470947   -0.67503596     0.01913828   
   2270000   0.051550559   -0.80115726     0.042014343   -0.68186696     0.014833877  
   2271000   0.051515244   -0.79931067     0.040747488   -0.68134017     0.026397658  
   2272000   0.051165026   -0.80183689     0.040840036   -0.68429883     0.040132386  
   2273000   0.050523151   -0.80181123     0.040795198   -0.68528019     0.039280742  
   2274000   0.049574432   -0.80123795     0.039338372   -0.68758591     0.026034437  
   2275000   0.050139171   -0.79978435     0.040914477   -0.68370964     0.026059274  
   2276000   0.05182409    -0.80094635     0.041850963   -0.6814094      0.021065741  
   2277000   0.052038226   -0.80172538     0.043052959   -0.68066544     0.03168106   
   2278000   0.050510391   -0.80055616     0.040676459   -0.68416299     0.019053434  
   2279000   0.05136775    -0.80242162     0.040867852   -0.68455185     0.024381548  
   2280000   0.050393679   -0.80148372     0.040943766   -0.6849982      0.018628295  
   2281000   0.049602786   -0.80160189     0.04068517    -0.68656054     0.042618133  
   2282000   0.052861893   -0.80188092     0.038627402   -0.68401183     0.035856333  
   2283000   0.050497546   -0.80371759     0.039724637   -0.6882955      0.044922819  
   2284000   0.05201308    -0.80324453     0.039952023   -0.68532322     0.024879768  
   2285000   0.050835772   -0.80201193     0.041817196   -0.68399027     0.049630287  
   2286000   0.054330751   -0.79913386     0.040187057   -0.67750326     0.054137855  
   2287000   0.050102791   -0.8001666      0.041380012   -0.68368089     0.037698008  
   2288000   0.048007002   -0.80150677     0.04053365    -0.68900908     0.035291072  
   2289000   0.049069469   -0.80144591     0.040075679   -0.68781351     0.016983658  
   2290000   0.049691144   -0.80341454     0.041673673   -0.68725224     0.014204646  
   2291000   0.05118518    -0.80273429     0.039112097   -0.68689395     0.036593974  
   2292000   0.049801815   -0.8031739      0.042658066   -0.6858613      0.0071158238 
   2293000   0.053359169   -0.80244541     0.04209951    -0.68035879     0.017967409  
   2294000   0.052458352   -0.80222365     0.042247452   -0.68133943     0.037039203  
   2295000   0.051255194   -0.8034958      0.04160407    -0.68505854     0.032461517  
   2296000   0.050456967   -0.80351991     0.042058525   -0.68582477     0.030475379  
   2297000   0.05097636    -0.80192219     0.040688782   -0.6848182      0.027561835  
   2298000   0.050500778   -0.80086956     0.041416391   -0.68375088     0.019810016  
   2299000   0.051993332   -0.80272342     0.041079823   -0.68370392     0.043607258  
   2300000   0.052145251   -0.80201138     0.04202267    -0.6818213      0.024442235  
   2301000   0.052723337   -0.80272618     0.039683642   -0.68400855     0.028961674  
   2302000   0.050214958   -0.80337274     0.041592063   -0.68650683     0.049782429  
   2303000   0.050536164   -0.80224501     0.042014358   -0.68447531     0.037508136  
   2304000   0.051215281   -0.80282068     0.040418652   -0.68562867     0.045131025  
   2305000   0.051743147   -0.80243782     0.038671346   -0.68620183     0.039005304  
   2306000   0.050848584   -0.80295707     0.04261599    -0.68411741     0.01504783   
   2307000   0.050676234   -0.80392907     0.040975852   -0.68698791     0.027535736  
   2308000   0.052088926   -0.80012541     0.041214319   -0.68082811     0.047106109  
   2309000   0.050490854   -0.79749621     0.044228506   -0.67758029     0.039521166  
   2310000   0.051132098   -0.79937782     0.041599121   -0.68113003     0.030718186  
   2311000   0.052678407   -0.80008982     0.040448792   -0.6806744      0.046169765  
   2312000   0.050881328   -0.80160588     0.041204366   -0.68412877     0.049657612  
   2313000   0.049412228   -0.80172644     0.042738753   -0.68491716     0.038835285  
   2314000   0.049522914   -0.80057028     0.041170623   -0.68516321     0.037959231  
   2315000   0.051322703   -0.8009977      0.040264237   -0.68379908     0.036987608  
   2316000   0.05081496    -0.79959217     0.04216414    -0.68125477     0.039560476  
   2317000   0.051373398   -0.80122703     0.041881      -0.68233565     0.026992159  
   2318000   0.052037113   -0.80181703     0.040369621   -0.6834421      0.04001505   
   2319000   0.050726403   -0.80026024     0.041177875   -0.68304185     0.054026915  
   2320000   0.049279173   -0.80149254     0.039880152   -0.68774132     0.053258262  
   2321000   0.049937641   -0.80021787     0.040496615   -0.68486312     0.043897679  
   2322000   0.050926496   -0.80131061     0.038412428   -0.68655772     0.030904483  
   2323000   0.050642982   -0.79926286     0.039837165   -0.68351023     0.048372419  
   2324000   0.051299724   -0.79967836     0.042202316   -0.68057611     0.028916119  
   2325000   0.052120145   -0.80092369     0.043372828   -0.67942108     0.0055581636 
   2326000   0.049236935   -0.8005709      0.042694125   -0.68406902     0.031270123  
   2327000   0.051457215   -0.79884693     0.039589348   -0.68212156     0.053609272  
   2328000   0.051149662   -0.80121053     0.040379578   -0.68415596     0.064758986  
   2329000   0.050110107   -0.80011347     0.041015154   -0.68398165     0.03106299   
   2330000   0.052279743   -0.80082672     0.039958473   -0.68249923     0.058865324  
   2331000   0.050181806   -0.79991002     0.041439876   -0.683246       0.050149419  
   2332000   0.052729921   -0.80227868     0.040847029   -0.6823878      0.032716831  
   2333000   0.052705035   -0.79885632     0.041848454   -0.67800132     0.042102864  
   2334000   0.052403715   -0.79997454     0.039787993   -0.68163169     0.051118073  
   2335000   0.050871445   -0.80175264     0.043862985   -0.68163172     0.045082872  
   2336000   0.050272626   -0.80110532     0.041384798   -0.68436023     0.0271062    
   2337000   0.051324011   -0.79757253     0.040043941   -0.68059224     0.058241058  
   2338000   0.051061884   -0.80147991     0.041607682   -0.68332882     0.041192401  
   2339000   0.051729327   -0.80177785     0.040962454   -0.68327147     0.042195053  
   2340000   0.050271902   -0.80103345     0.04106035    -0.6846139      0.048236146  
   2341000   0.051571854   -0.80063896     0.042641413   -0.68068968     0.064691379  
   2342000   0.051488455   -0.80065284     0.040360775   -0.68310921     0.024559499  
   2343000   0.050804296   -0.80321297     0.041588333   -0.68546736     0.059778215  
   2344000   0.051677039   -0.80190581     0.039602975   -0.68483729     0.053371224  
   2345000   0.051619229   -0.80384487     0.042072003   -0.68439397     0.037574168  
   2346000   0.051492828   -0.80136562     0.041977357   -0.68219885     0.05597858   
   2347000   0.052767282   -0.8031966      0.041769819   -0.68232693     0.010707504  
   2348000   0.051865387   -0.80069516     0.044230038   -0.67871724     0.078399601  
   2349000   0.052482091   -0.80188487     0.043015297   -0.68019723     0.02794622   
   2350000   0.052491564   -0.80210147     0.039182433   -0.68423249     0.042013597  
   2351000   0.053109423   -0.80421974     0.042566154   -0.68204085     0.027097517  
   2352000   0.050101896   -0.80208077     0.040937914   -0.6860385      0.028487477  
   2353000   0.053249493   -0.80232038     0.041413009   -0.68108466     0.044777355  
   2354000   0.052524776   -0.80365805     0.041452572   -0.68346914     0.032689297  
   2355000   0.051148607   -0.80268141     0.042197269   -0.68381073     0.050031036  
   2356000   0.051140343   -0.80382957     0.041600861   -0.68556768     0.042471899  
   2357000   0.050925527   -0.80373777     0.043210895   -0.68418786     0.047763192  
   2358000   0.052469204   -0.80178521     0.044202842   -0.67892934     0.055491081  
   2359000   0.052650409   -0.80244772     0.042368236   -0.68115483     0.047503154  
   2360000   0.051301647   -0.80177925     0.040783559   -0.68409287     0.047045475  
   2361000   0.052040988   -0.8017197      0.039835318   -0.68387326     0.047332582  
   2362000   0.051914972   -0.80211505     0.042587878   -0.68170496     0.053296258  
   2363000   0.052159524   -0.80254424     0.039276614   -0.68507882     0.055968519  
   2364000   0.049339031   -0.8027216      0.042063698   -0.6866971      0.037007667  
   2365000   0.051239093   -0.80290709     0.041420724   -0.68467731     0.065805146  
   2366000   0.051167253   -0.80263283     0.03991451    -0.68601696     0.05260917   
   2367000   0.051867037   -0.80199873     0.043513458   -0.68073491     0.04208089   
   2368000   0.051794679   -0.80115713     0.042156899   -0.68135834     0.055078607  
   2369000   0.051833227   -0.799855       0.042516309   -0.67963901     0.050926017  
   2370000   0.050639298   -0.80089933     0.04124743    -0.68374196     0.039302804  
   2371000   0.052339257   -0.80287584     0.042448885   -0.68196872     0.026501838  
   2372000   0.051815104   -0.80138163     0.043630148   -0.68007897     0.033883533  
   2373000   0.049859173   -0.80104474     0.042615736   -0.6836885      0.041746276  
   2374000   0.050706345   -0.80149838     0.041508539   -0.6839794      0.028230987  
   2375000   0.052187693   -0.802377       0.042912099   -0.68123386     0.020924631  
   2376000   0.049976877   -0.80224176     0.042121711   -0.6852031      0.049836525  
   2377000   0.05230577    -0.8025552      0.041242968   -0.6829042      0.015221064  
   2378000   0.052828348   -0.80241533     0.041216497   -0.68200744     0.043794276  
   2379000   0.050360382   -0.8025968      0.042434152   -0.68467081     0.025926705  
   2380000   0.049796889   -0.80318147     0.041033293   -0.68750104     0.016166678  
   2381000   0.05070721    -0.80306034     0.041365689   -0.6856829      0.0014491834 
   2382000   0.051053966   -0.80197308     0.040592721   -0.68484881     0.028890978  
   2383000   0.050469536   -0.80321042     0.040697738   -0.68685722     0.016400363  
   2384000   0.051608611   -0.80008118     0.042743117   -0.67997509     0.027860239  
   2385000   0.052398039   -0.80178409     0.040438449   -0.68279929     0.012036944  
   2386000   0.050440086   -0.80209583     0.042204046   -0.68428047     0.012347162  
   2387000   0.050662209   -0.80186408     0.041353196   -0.6845666      0.0090434361 
   2388000   0.050919118   -0.80349216     0.041950004   -0.68521275     0.0084868676 
   2389000   0.051680861   -0.80485603     0.039619414   -0.68776534     0.018008477  
   2390000   0.050661486   -0.8046245      0.043328036   -0.68535326     0.012625418  
   2391000   0.051082713   -0.80381342     0.03903346    -0.68820532     0.017542929  
   2392000   0.051610624   -0.8041962      0.040995      -0.68583521     0.032322123  
   2393000   0.048558606   -0.80211867     0.04209219    -0.68723557     0.014657305  
   2394000   0.053324559   -0.80495642     0.040784494   -0.68423669     0.00015782842
   2395000   0.049576315   -0.80426066     0.040301284   -0.68964288     0.032617463  
   2396000   0.051133331   -0.80428103     0.040702232   -0.68692828     0.015593922  
   2397000   0.050466022   -0.80252125     0.040047687   -0.68682337     0.037620318  
   2398000   0.049274059   -0.80418257     0.041582743   -0.68873642     0.039719859  
   2399000   0.047739472   -0.80144966     0.041770685   -0.68811597     0.021693254  
   2400000   0.049738263   -0.80540176     0.041291217   -0.68955128     0.046776332  
   2401000   0.051547023   -0.802713       0.042297049   -0.6831453      0.028450212  
   2402000   0.051959863   -0.80127697     0.04016661    -0.68322085     0.02655795   
   2403000   0.051117408   -0.80224934     0.039758231   -0.68586446     0.01080718   
   2404000   0.051201312   -0.8044882      0.040426039   -0.68730974     0.035163265  
   2405000   0.05226914    -0.80289526     0.04259496    -0.68194717     0.0037377992 
   2406000   0.049260191   -0.80454075     0.043289268   -0.68740887     0.035969546  
   2407000   0.051203056   -0.80548314     0.043895163   -0.68483295     0.014811674  
   2408000   0.053366623   -0.803807       0.041077037   -0.68273167     0.016226327  
   2409000   0.052308333   -0.80419576     0.043622431   -0.68216145     0.023034111  
   2410000   0.051089415   -0.80313804     0.043178589   -0.68337477     0.020231182  
   2411000   0.051952708   -0.80361157     0.04184461    -0.68388817    -0.0091527235 
   2412000   0.052058104   -0.80340035     0.042606615   -0.68275696    -0.0084164809 
   2413000   0.051426423   -0.80423361     0.043563321   -0.68358042     0.0095809079 
   2414000   0.050745555   -0.80270484     0.039915134   -0.68672048     0.012657604  
   2415000   0.051404885   -0.80464801     0.041146288   -0.68644414     0.0032436807 
   2416000   0.050111564   -0.80491897     0.043927998   -0.68587212     0.0075619185 
   2417000   0.049554705   -0.80357042     0.040396634   -0.68888969     0.0084628168 
   2418000   0.050505472   -0.80460224     0.042051727   -0.68684119    -0.0035709768 
   2419000   0.052456531   -0.80305332     0.041029028   -0.68339026     0.015833206  
   2420000   0.04983466    -0.80402592     0.039941733   -0.68938042     0.0052656891 
   2421000   0.050416627   -0.80455163     0.040003401   -0.68897208    -0.0034761244 
   2422000   0.051204789   -0.80641145     0.040060022   -0.6895938      0.0048159397 
   2423000   0.050262873   -0.80264122     0.041508029   -0.68578753     0.008174104  
   2424000   0.051117113   -0.80510057     0.042855914   -0.68561846     0.014615821  
   2425000   0.050729258   -0.80381989     0.041964479   -0.68581062     0.022730331  
   2426000   0.050802845   -0.80251286     0.042166377   -0.68419138     0.022954698  
   2427000   0.050217977   -0.80370704     0.040136004   -0.68829267     0.0048446642 
   2428000   0.051335851   -0.80458451     0.038729269   -0.68890114     0.00091787356
   2429000   0.051068606   -0.80500287     0.040270099   -0.68817928     0.0034701397 
   2430000   0.050072946   -0.80513194     0.041500669   -0.68857031    -0.01014259   
   2431000   0.051074641   -0.8033043      0.042800492   -0.68394128     0.023884604  
   2432000   0.051184403   -0.80299934     0.042907162   -0.68336511     0.010254885  
   2433000   0.051878086   -0.80397038     0.041904408   -0.68429905     0.0089920193 
   2434000   0.051620231   -0.80589283     0.043678541   -0.6848339      0.006131599  
   2435000   0.050640791   -0.80578967     0.042208415   -0.68766907     0.033023873  
   2436000   0.051767509   -0.80633238     0.043006388   -0.68572482     0.040900229  
   2437000   0.052289792   -0.80260258     0.040537585   -0.68368091     0.015659275  
   2438000   0.051928906   -0.80531402     0.040829576   -0.68664134     0.030718795  
   2439000   0.049966894   -0.80439241     0.041285652   -0.68820478     0.024730091  
   2440000   0.051037457   -0.80389603     0.042252913   -0.68513632     0.021369281  
   2441000   0.050519089   -0.80463882     0.040238223   -0.68867086     0.033437081  
   2442000   0.051067161   -0.80492803     0.040960419   -0.68741629     0.018446756  
   2443000   0.05184781    -0.80401579     0.041559708   -0.68473454     0.031982788  
   2444000   0.051409875   -0.80296123     0.042943225   -0.68295294     0.011741285  
   2445000   0.053600607   -0.80483041     0.041737995   -0.68274338     0.019042444  
   2446000   0.052227018   -0.80332165     0.043002946   -0.68202872     0.0059930848 
   2447000   0.050584026   -0.80415489     0.04197735    -0.68635046     0.016199734  
   2448000   0.052721362   -0.80562618     0.042710476   -0.68388469     0.0076410707 
   2449000   0.052532511   -0.80620034     0.042530523   -0.68492189     0.0084644387 
   2450000   0.05100049    -0.80619194     0.041236453   -0.68850411     0.011863141  
   2451000   0.052750047   -0.80545415     0.040323348   -0.68605678     0.021115348  
   2452000   0.052394016   -0.80524948     0.04150975    -0.68519941    -0.0044273175 
   2453000   0.050772337   -0.8042823      0.043035006   -0.68513792     0.0058008195 
   2454000   0.051593259   -0.80299892     0.041423228   -0.68423573     0.017353358  
   2455000   0.051397248   -0.80660873     0.040065878   -0.68949672     0.0092645609 
   2456000   0.051271212   -0.80473968     0.040676631   -0.68720585     0.011364023  
   2457000   0.052262385   -0.80372435     0.040101818   -0.68527953     0.050828803  
   2458000   0.050998755   -0.80557108     0.040933126   -0.68818917     0.017594572  
   2459000   0.050340023   -0.80610486     0.041760512   -0.68888303     0.038293124  
   2460000   0.051927168   -0.80739609     0.041106858   -0.68844874     0.014394116  
   2461000   0.05220165    -0.80674364     0.040615874   -0.68787581     0.0065768094 
   2462000   0.052299298   -0.80423886     0.043169029   -0.68267149     0.018647157  
   2463000   0.050434863   -0.80634747     0.041479197   -0.68926479     0.022367027  
   2464000   0.050959944   -0.80413059     0.038956794   -0.6887832      0.009230568  
   2465000   0.049166286   -0.80558634     0.04258092    -0.68930357     0.018714825  
   2466000   0.049351916   -0.8053662      0.040670761   -0.69071533     0.014013106  
   2467000   0.051292472   -0.80499261     0.040177895   -0.68792565     0.0038059381 
   2468000   0.051441548   -0.80425873     0.041459649   -0.68568654     0.012488048  
   2469000   0.053082973   -0.80279275     0.043272839   -0.67994682     0.0050099178 
   2470000   0.052526234   -0.80526292     0.04164341    -0.68488099     0.020596375  
   2471000   0.051804166   -0.8063272      0.041683556   -0.68698752     0.015399617  
   2472000   0.052311952   -0.80627999     0.041830242   -0.68603244     0.039252792  
   2473000   0.05276932    -0.80631251     0.040203121   -0.68700648     0.0211169    
   2474000   0.052876067   -0.80464872     0.041878337   -0.68350745     0.023416356  
   2475000   0.051448639   -0.80464253     0.041393823   -0.68612554     0.0018447789 
   2476000   0.051459919   -0.80429663     0.040876078   -0.68628047     0.040397346  
   2477000   0.052335932   -0.8043255      0.043027314   -0.68284493     0.0082769254 
   2478000   0.053074581   -0.80419513     0.042433893   -0.68220073     0.032089146  
   2479000   0.052983673   -0.80542855     0.042704143   -0.68330017     0.023798574  
   2480000   0.051497843   -0.80383741     0.041437658   -0.68520282     0.015250076  
   2481000   0.051845707   -0.80578107     0.039490799   -0.68857189     0.042786666  
   2482000   0.052152833   -0.80584375     0.042808266   -0.6848567      0.0052397031 
   2483000   0.050410262   -0.80530129     0.040501524   -0.68923315     0.046482698  
   2484000   0.051135043   -0.80351931     0.042211132   -0.6846551      0.038556771  
   2485000   0.051441542   -0.80405904     0.041306393   -0.68564012     0.032484696  
   2486000   0.052877483   -0.80304976     0.041862142   -0.68192257     0.035978334  
   2487000   0.054103053   -0.80401683     0.041394763   -0.68151984     0.033876094  
   2488000   0.052453428   -0.80506304     0.042621492   -0.68381216     0.010100828  
   2489000   0.051463108   -0.80642535     0.041667206   -0.68761329     0.025749757  
   2490000   0.05012017    -0.80638653     0.041007633   -0.69024715     0.0079387774 
   2491000   0.050337173   -0.80430421     0.041468215   -0.68737895     0.049176636  
   2492000   0.049941184   -0.80429965     0.040473558   -0.68896264     0.0192679    
   2493000   0.051008397   -0.8064217      0.040873722   -0.68908474     0.032983292  
   2494000   0.050436347   -0.80654255     0.041787604   -0.68914923     0.0052515218 
   2495000   0.052646637   -0.80329549     0.041421436   -0.68295505     0.018904615  
   2496000   0.050564387   -0.80459632     0.041382054   -0.68741662     0.017339522  
   2497000   0.050759183   -0.80616138     0.045050856   -0.68502087     0.043842203  
   2498000   0.050782631   -0.80228951     0.042586904   -0.68357781     0.045494101  
   2499000   0.051128348   -0.80506405     0.041265063   -0.68715594     0.059950711  
   2500000   0.052764588   -0.80582688     0.042422689   -0.68430837     0.037014684  
   2501000   0.050257928   -0.80592397     0.042370269   -0.68821545     0.02478414   
   2502000   0.052482386   -0.80688941     0.041927204   -0.68628942     0.03644634   
   2503000   0.050478694   -0.80424419     0.041846261   -0.68672874     0.017768945  
   2504000   0.050782831   -0.80448995     0.040361318   -0.68800353     0.0034420157 
   2505000   0.051632918   -0.80514987     0.042612491   -0.68513797     0.030919706  
   2506000   0.053120064   -0.80457452     0.041800136   -0.6831457      0.050466507  
   2507000   0.052454784   -0.80380927     0.040768217   -0.68440964     0.05149783   
   2508000   0.052775609   -0.8063109      0.0421578     -0.68504076     0.050859773  
   2509000   0.048920334   -0.80437562     0.044024284   -0.68701818     0.032300871  
   2510000   0.052465872   -0.80478392     0.040187637   -0.68594825     0.039705562  
   2511000   0.051489669   -0.80500246     0.042715853   -0.68510193     0.017537313  
   2512000   0.049499229   -0.80570509     0.041571549   -0.6899326      0.03488276   
   2513000   0.051126378   -0.80727681     0.041940905   -0.68869582     0.025291037  
   2514000   0.052002251   -0.80721988     0.040990065   -0.68827676     0.04017128   
   2515000   0.050973384   -0.80632974     0.039990894   -0.6899281      0.03533307   
   2516000   0.050245476   -0.80726355     0.041322748   -0.69062121     0.03400337   
   2517000   0.050482796   -0.80444455     0.042495131   -0.68627408     0.014491625  
   2518000   0.048716906   -0.80695554     0.042972798   -0.69095452     0.023795058  
   2519000   0.050321891   -0.80717254     0.040782069   -0.69095633     0.04063943   
   2520000   0.05139377    -0.80563936     0.040993146   -0.68760529     0.028269821  
   2521000   0.049504959   -0.8050623      0.043046585   -0.68780618     0.020876527  
   2522000   0.052027014   -0.80451782     0.039761822   -0.68676583     0.032893787  
   2523000   0.053244737   -0.80475594     0.041700923   -0.68323944     0.053106307  
   2524000   0.051524225   -0.80735166     0.040692332   -0.68942285     0.0090453687 
   2525000   0.05195348    -0.8071069      0.041781433   -0.68744552     0.015603229  
   2526000   0.053643877   -0.80516604     0.041881453   -0.68287069     0.019124173  
   2527000   0.051272018   -0.8083338      0.043329149   -0.68814624     0.016888591  
   2528000   0.051772334   -0.80602637     0.043318041   -0.68509993     0.029234849  
   2529000   0.050497373   -0.80814375     0.041195111   -0.69125145     0.021334094  
   2530000   0.051593896   -0.80688782     0.040926752   -0.68862015     0.041761101  
   2531000   0.052734026   -0.81044497     0.041419411   -0.68997555     0.025243555  
   2532000   0.051671368   -0.80594971     0.040144039   -0.68834863     0.013385226  
   2533000   0.05232124    -0.80837072     0.038292776   -0.69164672     0.015680231  
   2534000   0.051333717   -0.80688968     0.040542994   -0.68939579     0.0034396927 
   2535000   0.05090533    -0.80755504     0.041738218   -0.68950809    -0.0085851212 
   2536000   0.053985412   -0.80551769     0.03930359    -0.68528823     0.025457657  
   2537000   0.048915698   -0.8060789      0.042308143   -0.69044454     0.024513073  
   2538000   0.048118173   -0.80437675     0.042430289   -0.68981577     0.01261596   
   2539000   0.05185138    -0.80527689     0.040515555   -0.68703444     0.022681283  
   2540000   0.050926438   -0.80786738     0.041081575   -0.69044543     0.0112594    
   2541000   0.049088572   -0.80544105     0.040933125   -0.69092258     0.024360398  
   2542000   0.050185087   -0.8070705      0.041440484   -0.69040095     0.013851397  
   2543000   0.053346613   -0.80749397     0.040491806   -0.68703387     0.015152814  
   2544000   0.051132225   -0.80769618     0.042433409   -0.68861392    -0.003179243  
   2545000   0.051516593   -0.80704067     0.040579711   -0.68923592     0.019564471  
   2546000   0.050376112   -0.80484773     0.040874448   -0.68845786    -0.00504509   
   2547000   0.050250709   -0.80633697     0.038756461   -0.69225307     0.027521861  
   2548000   0.049560939   -0.80819741     0.040916616   -0.69298734     0.018389878  
   2549000   0.050868864   -0.80610882     0.040013013   -0.68984174     0.015893193  
   2550000   0.050022972   -0.80573821     0.03968239    -0.69106978     0.021889247  
   2551000   0.050988849   -0.80452517     0.039889005   -0.68820223     0.027155909  
   2552000   0.050763301   -0.80524667     0.039845355   -0.68930549     0.025182061  
   2553000   0.050744185   -0.80577096     0.041826765   -0.68787703     0.027464057  
   2554000   0.050733728   -0.805217       0.039703334   -0.68946217     0.052045992  
   2555000   0.052188719   -0.80815103     0.042469602   -0.68744886     0.0032776122 
   2556000   0.052324225   -0.80623518     0.041419312   -0.68638017     0.026291999  
   2557000   0.052442672   -0.80225131     0.040993038   -0.68264502     0.041347829  
   2558000   0.051765873   -0.80444895     0.040866385   -0.68598386     0.017511626  
   2559000   0.05215122    -0.80155308     0.039631559   -0.68374517     0.013903965  
   2560000   0.052335122   -0.80415901     0.038470615   -0.68723636    -0.011180141  
   2561000   0.04944947    -0.80384939     0.04161734    -0.6881057      0.02478385   
   2562000   0.050876612   -0.80091727     0.040074561   -0.68457702     0.025642199  
   2563000   0.051247595   -0.80177983     0.038470098   -0.68648794     0.012081054  
   2564000   0.049542593   -0.80374738     0.04063996    -0.68884147     0.015144912  
   2565000   0.052489498   -0.80457815     0.040991973   -0.68490273    -0.0066298112 
   2566000   0.052875616   -0.80413905     0.042410646   -0.68246615     0.0073264891 
   2567000   0.051299017   -0.80434393     0.041637588   -0.68580746     0.00022306985
   2568000   0.052584221   -0.80657295     0.039474484   -0.68827302     0.010510189  
   2569000   0.050780395   -0.80444431     0.039954149   -0.68836871     0.03163142   
   2570000   0.050881519   -0.80106604     0.042040506   -0.6827525      0.0092622033 
   2571000   0.052094657   -0.80290898     0.039411577   -0.68540584     0.0063898669 
   2572000   0.051997246   -0.8021441      0.041228867   -0.68296968    -0.00035172245
   2573000   0.052124371   -0.80625424     0.041028691   -0.68708944    -0.00023766596
   2574000   0.051106525   -0.80252431     0.040413152   -0.68550083     0.0024808755 
   2575000   0.051585812   -0.80335586     0.040881154   -0.68514591     0.023520498  
   2576000   0.049686097   -0.80482689     0.040179532   -0.69016629     0.0085817373 
   2577000   0.050655767   -0.80432074     0.040708265   -0.68767784     0.037354397  
   2578000   0.051020411   -0.80408406     0.040149532   -0.68745328     0.028027613  
   2579000   0.051614254   -0.80365916     0.040572599   -0.68571513     0.011612936  
   2580000   0.051373748   -0.80517716     0.039362747   -0.68880351     0.013369519  
   2581000   0.04987763    -0.80453813     0.040473192   -0.68929676     0.021625045  
   2582000   0.051534171   -0.8042597      0.039404567   -0.68760375     0.011792623  
   2583000   0.052531776   -0.80342756     0.041880561   -0.68280017     0.021692646  
   2584000   0.051330642   -0.80623925     0.041502991   -0.68778997     0.0062184701 
   2585000   0.048309135   -0.80488616     0.041199175   -0.69127003     0.0043032578 
   2586000   0.051390356   -0.80535909     0.041819339   -0.68650394     0.012723483  
   2587000   0.05180148    -0.8029451      0.041036976   -0.68425604     0.02591345   
   2588000   0.053330058   -0.80309482     0.040667021   -0.68248432     0.018877925  
   2589000   0.049198421   -0.80453457     0.041280576   -0.68950398     0.013722978  
   2590000   0.049397556   -0.80544954     0.040947125   -0.69045388    -0.0034437521 
   2591000   0.050441797   -0.80453368     0.039636879   -0.68928292    -0.0041326531 
   2592000   0.05049669    -0.80742471     0.040975367   -0.69075317     0.014065317  
   2593000   0.050413169   -0.80540203     0.041489083   -0.68834198     0.017613478  
   2594000   0.051019378   -0.80469126     0.038588278   -0.68962329     0.013484078  
   2595000   0.050373442   -0.80554159     0.04189475    -0.68813543     0.041758374  
   2596000   0.049159186   -0.8067298      0.041212219   -0.69182637     0.014701572  
   2597000   0.051659291   -0.8055828      0.039449879   -0.68869398     0.020596616  
   2598000   0.051830192   -0.80512328     0.039328478   -0.68809967     0.015405707  
   2599000   0.049665668   -0.80705195     0.042100956   -0.69050056    -0.0057449369 
   2600000   0.050444996   -0.80566629     0.039923607   -0.69012401     0.031385453  
   2601000   0.052349154   -0.80521218     0.040603127   -0.68613599     0.034311106  
   2602000   0.05077505    -0.80674772     0.04262316    -0.68801112     0.028780396  
   2603000   0.051262004   -0.80741566     0.040365918   -0.69020635     0.015298527  
   2604000   0.051045295   -0.80793243     0.041706916   -0.68970697     0.029696637  
   2605000   0.051548993   -0.80837783     0.04179182    -0.68931241     0.015807329  
   2606000   0.050752801   -0.80772963     0.042974227   -0.68867532     0.038311864  
   2607000   0.051162145   -0.80682167     0.041767097   -0.68836086     0.033285266  
   2608000   0.051653173   -0.80657042     0.040711558   -0.68842908     0.00049221972
   2609000   0.050401012   -0.80765423     0.040226447   -0.69187504     0.036412629  
   2610000   0.049503283   -0.80720316     0.038486383   -0.69450976     0.042505169  
   2611000   0.04976695    -0.80725052     0.041397618   -0.69125064     0.0091599642 
   2612000   0.050201258   -0.8059561      0.040971608   -0.68973119     0.0075293198 
   2613000   0.053683054   -0.80718588     0.042427552   -0.6842857      0.025748457  
   2614000   0.050576497   -0.80581406     0.04137477    -0.68862349     0.0085743612 
   2615000   0.051741312   -0.80686845     0.041811977   -0.68749457     0.002551553  
   2616000   0.049318111   -0.80699775     0.04097562    -0.69209269     0.016444583  
   2617000   0.051072321   -0.80599497     0.038618804   -0.69081711     0.02670196   
   2618000   0.052405361   -0.80661486     0.041673527   -0.68638401     0.017327732  
   2619000   0.050461925   -0.8062025      0.039363052   -0.69119539     0.016137257  
   2620000   0.051504516   -0.8081769      0.042619207   -0.68835077    -0.0027222189 
   2621000   0.051046927   -0.80618849     0.042030532   -0.68763697     0.020691366  
   2622000   0.052428889   -0.80553267     0.041410393   -0.68552968     0.029287329  
   2623000   0.051290684   -0.80671011     0.041149867   -0.68867385     0.020830055  
   2624000   0.049400143   -0.80722706     0.042366558   -0.69080809     0.025194663  
   2625000   0.050630747   -0.80569266     0.041341454   -0.68845408     0.043414272  
   2626000   0.052658737   -0.80657674     0.041896667   -0.68574292     0.047711311  
   2627000   0.052254634   -0.80692819     0.04192727    -0.68666953     0.036392571  
   2628000   0.05120861    -0.80647573     0.043358714   -0.68635366     0.04805952   
   2629000   0.051470321   -0.80829665     0.040761216   -0.69037976     0.04807308   
   2630000   0.051852395   -0.80640091     0.041168444   -0.68750405     0.03395434   
   2631000   0.051401426   -0.80672604     0.040447947   -0.6892257      0.010212055  
   2632000   0.052204298   -0.80632488     0.04099768    -0.68707127     0.030872999  
   2633000   0.049012897   -0.80863442     0.039606036   -0.69555647     0.0039434061 
   2634000   0.049987001   -0.8051646      0.041145481   -0.689087       0.0024749999 
   2635000   0.048603701   -0.80622009     0.042426813   -0.69093476     0.018045658  
   2636000   0.049739278   -0.80775146     0.038076543   -0.69511413     0.01512265   
   2637000   0.050436594   -0.80658654     0.042793275   -0.68818718     0.014022865  
   2638000   0.050721796   -0.8058307      0.042805309   -0.68699179     0.029031096  
   2639000   0.049585786   -0.80637075     0.038509972   -0.69353008     0.032485906  
   2640000   0.050619896   -0.80815685     0.040144722   -0.69213127     0.018390797  
   2641000   0.052745379   -0.80587506     0.041514367   -0.68529367     0.042566945  
   2642000   0.051512815   -0.8067184      0.04043106    -0.68906797     0.011053549  
   2643000   0.050384742   -0.80694277     0.040758143   -0.69065628     0.02873726   
   2644000   0.051104066   -0.80605891     0.040756741   -0.68869553     0.010727998  
   2645000   0.051559854   -0.80675972     0.042738035   -0.6867318      0.023133966  
   2646000   0.049682591   -0.80596731     0.044739446   -0.68675205     0.01995475   
   2647000   0.051098754   -0.80686256     0.041605262   -0.68865861     0.0027270498 
   2648000   0.050813357   -0.80611385     0.04272236    -0.68722063     0.0064745124 
   2649000   0.049151523   -0.80621175     0.040562135   -0.6919699      0.018391362  
   2650000   0.04870835    -0.80632365     0.03991413    -0.69339413     0.028716157  
   2651000   0.051457634   -0.80634629     0.04135187    -0.68785777     0.034715951  
   2652000   0.050464057   -0.80638462     0.043203634   -0.68753373     0.031611259  
   2653000   0.048139394   -0.80210687     0.03979104    -0.69015332     0.01276595   
   2654000   0.051060729   -0.80476248     0.042257007   -0.68596379     0.020546628  
   2655000   0.050704418   -0.80665304     0.042145442   -0.68850004     0.018029438  
   2656000   0.050513274   -0.80606921     0.041997764   -0.68835042     0.029745682  
   2657000   0.05029339    -0.80675201     0.043560954   -0.68779964     0.0077557002 
   2658000   0.050167121   -0.80620522     0.039688408   -0.69131468     0.034743169  
   2659000   0.051548989   -0.80782984     0.03985693    -0.69069932     0.049161414  
   2660000   0.048795163   -0.80756842     0.041827901   -0.692595       0.034269384  
   2661000   0.05253641    -0.80515923     0.040795472   -0.68560999     0.049800825  
   2662000   0.05143701    -0.80598785     0.041503485   -0.68737863     0.03414141   
   2663000   0.050291453   -0.80830136     0.043394375   -0.68951848     0.01126831   
   2664000   0.050934917   -0.80641686     0.041806416   -0.68825737     0.0083387514 
   2665000   0.051183691   -0.80576208     0.040847277   -0.6881888      0.025491618  
   2666000   0.050963658   -0.80664196     0.041359172   -0.68888662     0.0093882693 
   2667000   0.053361948   -0.80603827     0.040853369   -0.68519362     0.025219984  
   2668000   0.052055759   -0.80571266     0.042500355   -0.68517904     0.0056152151 
   2669000   0.051065914   -0.80610585     0.04351968    -0.68603672     0.031620977  
   2670000   0.05049927    -0.805428       0.040321315   -0.68940665     0.022268755  
   2671000   0.051302869   -0.80709788     0.042445847   -0.68774738     0.011766094  
   2672000   0.052960217   -0.80675029     0.043037891   -0.68432333     0.033948453  
   2673000   0.051044518   -0.80793245     0.041854394   -0.68956068     0.024931051  
   2674000   0.049877924   -0.80612731     0.041596921   -0.68976177     0.0260964    
   2675000   0.051383377   -0.80627614     0.040759041   -0.68849176     0.028077148  
   2676000   0.052393927   -0.80579161     0.03990174    -0.68734968     0.024948918  
   2677000   0.052818055   -0.80716357     0.040210474   -0.68777713     0.012344151  
   2678000   0.051203795   -0.80807307     0.04110255    -0.69021438     0.018053571  
   2679000   0.050965547   -0.80636592     0.040507279   -0.68945964     0.024463754  
   2680000   0.051714332   -0.8050782      0.041918905   -0.68563785     0.050810248  
   2681000   0.051329832   -0.8070302      0.041692293   -0.68839284     0.0078755862 
   2682000   0.050228656   -0.8044018      0.040837806   -0.68826962     0.014384236  
   2683000   0.048992696   -0.80585046     0.042021267   -0.69038757     0.01455019   
   2684000   0.053452659   -0.80391322     0.042432931   -0.68135303     0.026973937  
   2685000   0.052184665   -0.80411402     0.039513815   -0.68637371     0.049801348  
   2686000   0.05090242    -0.80779532     0.041284232   -0.69020672     0.017626437  
   2687000   0.052045938   -0.80673545     0.042043289   -0.68667362    -0.00046047524
   2688000   0.050733659   -0.8056358      0.039075969   -0.69050844     0.01624599   
   2689000   0.050064063   -0.80588926     0.039177157   -0.69166446     0.023288224  
   2690000   0.052017156   -0.80839813     0.041075865   -0.68934687     0.0044747465 
   2691000   0.050485705   -0.80889846     0.041696557   -0.6915222      0.023226992  
   2692000   0.05168868    -0.80670465     0.04051214    -0.68870952     0.03041457   
   2693000   0.051284813   -0.80723249     0.039123936   -0.69123096     0.006087716  
   2694000   0.050614922   -0.80511245     0.040119899   -0.68911915     0.025302264  
   2695000   0.049380778   -0.80457345     0.042569608   -0.68798047     0.056990456  
   2696000   0.051694867   -0.80678125     0.042792819   -0.68649616     0.031379393  
   2697000   0.051827767   -0.808559       0.04107845    -0.68978906     0.01000297   
   2698000   0.050451582   -0.80577258     0.042139571   -0.68800446     0.040298054  
   2699000   0.05119981    -0.80474042     0.042004198   -0.68598605     0.048622722  
   2700000   0.051044653   -0.80781533     0.041493622   -0.68980413     0.060709365  
   2701000   0.050908536   -0.80565802     0.042305899   -0.68703858     0.021068888  
   2702000   0.051297527   -0.80581281     0.042044438   -0.68687172     0.083010122  
   2703000   0.052301152   -0.80597447     0.042345287   -0.68522807     0.044483736  
   2704000   0.051133882   -0.80663492     0.041638862   -0.68834472     0.041999573  
   2705000   0.051574276   -0.80722782     0.041223656   -0.68869266     0.038709792  
   2706000   0.052511161   -0.80765217     0.042050718   -0.68688553     0.040674508  
   2707000   0.051939609   -0.80586005     0.041958065   -0.68604283     0.062944784  
   2708000   0.051920428   -0.80262201     0.043381656   -0.68140996     0.062226636  
   2709000   0.051979956   -0.80562252     0.042385395   -0.6853175      0.037894597  
   2710000   0.05314543    -0.80576132     0.040526065   -0.68556854     0.045411534  
   2711000   0.049636097   -0.80586053     0.042683497   -0.68877092     0.041680197  
   2712000   0.051176874   -0.8082445      0.041211057   -0.69031766     0.031485796  
   2713000   0.051790587   -0.80726497     0.04102419    -0.68860502     0.046106426  
   2714000   0.04891113    -0.80644694     0.043175309   -0.68995227     0.072402474  
   2715000   0.051014654   -0.80754826     0.042029553   -0.68904609     0.045129127  
   2716000   0.0520028     -0.80724611     0.038938124   -0.69035411     0.052169385  
   2717000   0.05104634    -0.8054784      0.043240427   -0.68571786     0.049152897  
   2718000   0.052464191   -0.80315226     0.040930275   -0.68357647     0.050866285  
   2719000   0.052358711   -0.80097151     0.041753701   -0.68073041     0.027526488  
   2720000   0.051428662   -0.8027399      0.042178047   -0.68346863     0.051179271  
   2721000   0.051389448   -0.80254292     0.043383866   -0.68212461     0.0606965    
   2722000   0.052641725   -0.80268917     0.04355649    -0.68022103     0.040750916  
   2723000   0.052469559   -0.80250845     0.042068437   -0.68178645     0.037975651  
   2724000   0.04955972    -0.80192515     0.04052232    -0.68711121     0.052757859  
   2725000   0.054086253   -0.80323133     0.040721405   -0.68143289     0.047003914  
   2726000   0.051962532   -0.80209717     0.041246027   -0.68295764     0.060025641  
   2727000   0.053012745   -0.80151691     0.041160774   -0.68088832     0.098568353  
   2728000   0.051548931   -0.80187037     0.041332526   -0.68326434     0.078734716  
   2729000   0.050238746   -0.80252994     0.042300736   -0.6849197      0.044619467  
   2730000   0.054188677   -0.80305013     0.040723333   -0.68109622     0.044124434  
   2731000   0.050403726   -0.80323726     0.041275869   -0.68640458     0.048925535  
   2732000   0.051485948   -0.80348052     0.041963853   -0.68433757     0.050295645  
   2733000   0.052897621   -0.80201998     0.04073539    -0.68198935     0.027638277  
   2734000   0.049964814   -0.80229698     0.042280939   -0.68511718     0.045209076  
   2735000   0.0516341     -0.80363646     0.042660331   -0.68357495     0.046460219  
   2736000   0.053209015   -0.80101628     0.042005235   -0.67924902     0.046918585  
   2737000   0.051664276   -0.80233147     0.04205591    -0.68282915     0.054461998  
   2738000   0.052881503   -0.8043324      0.041871287   -0.68319004     0.04595746   
   2739000   0.050150444   -0.80086194     0.039802262   -0.68588254     0.041480604  
   2740000   0.050436098   -0.80111893     0.041514889   -0.6839987      0.0535372    
   2741000   0.052497615   -0.80374568     0.043449792   -0.68160027     0.010334729  
   2742000   0.051140794   -0.80351683     0.041167822   -0.68568731     0.046579945  
   2743000   0.052438824   -0.8008426      0.04008336    -0.68215175     0.062352826  
   2744000   0.050016694   -0.80366838     0.042755592   -0.68593615     0.061085006  
   2745000   0.049992411   -0.80261927     0.039653112   -0.68802592     0.054059731  
   2746000   0.052481392   -0.80193374     0.040673114   -0.68258933     0.087886264  
   2747000   0.051039175   -0.80339043     0.042137957   -0.68474311     0.069476064  
   2748000   0.051873052   -0.80223024     0.044309821   -0.68016104     0.044286572  
   2749000   0.052787319   -0.80286303     0.04215487    -0.68157826     0.054973052  
   2750000   0.051924882   -0.80106972     0.043604528   -0.67962812     0.088032645  
   2751000   0.049320443   -0.80315995     0.042629093   -0.68659792     0.056892354  
   2752000   0.050233162   -0.80464888     0.043554745   -0.685793       0.066635929  
   2753000   0.051118413   -0.79984125     0.041418655   -0.68179445     0.067832439  
   2754000   0.050828418   -0.80222619     0.041548207   -0.68448455     0.075297583  
   2755000   0.050733365   -0.80619005     0.041729559   -0.68840954     0.047955892  
   2756000   0.051446157   -0.80655137     0.040463101   -0.68896882     0.027965999  
   2757000   0.05192641    -0.80544257     0.043452585   -0.68415062     0.044955952  
   2758000   0.050951016   -0.80402263     0.041093434   -0.68655198     0.024358147  
   2759000   0.050041145   -0.80738541     0.04391382    -0.6884583      0.071006512  
   2760000   0.052337809   -0.80500369     0.043875153   -0.68267247     0.070490308  
   2761000   0.050830163   -0.80670452     0.041673635   -0.68883483     0.066953534  
   2762000   0.049291016   -0.80585765     0.043301951   -0.68866688     0.07342484   
   2763000   0.052047492   -0.80398098     0.040901672   -0.68505844     0.10384045   
   2764000   0.050528421   -0.80666568     0.043925155   -0.68699679     0.051449134  
   2765000   0.050394717   -0.80632535     0.043756969   -0.68702508     0.054140806  
   2766000   0.052067837   -0.80431686     0.042878194   -0.6833873      0.079830658  
   2767000   0.051657781   -0.8058875      0.042462297   -0.68598852     0.065853045  
   2768000   0.049944461   -0.80453204     0.040704312   -0.68895937     0.075418006  
   2769000   0.050163971   -0.80559048     0.042184238   -0.68820883     0.089560717  
   2770000   0.052461416   -0.80419745     0.042028965   -0.68352714     0.038707827  
   2771000   0.050512212   -0.80567429     0.040802613   -0.68915224     0.087104576  
   2772000   0.051025401   -0.80127234     0.039892618   -0.684891       0.070539359  
   2773000   0.052681513   -0.80758171     0.040613193   -0.68799723     0.05469059   
   2774000   0.04955669    -0.80542217     0.041188077   -0.68994702     0.054342666  
   2775000   0.052555783   -0.80791295     0.042675007   -0.68645513     0.057530579  
   2776000   0.051597211   -0.80834846     0.043950583   -0.68705199     0.060864004  
   2777000   0.050389556   -0.80554286     0.044530181   -0.68547711     0.083802743  
   2778000   0.050428463   -0.80642054     0.042620657   -0.68820599     0.077579872  
   2779000   0.050254755   -0.80563706     0.042202574   -0.68810098     0.067220267  
   2780000   0.050972435   -0.80639897     0.042158328   -0.68783132     0.067929277  
   2781000   0.052433996   -0.80485884     0.042057059   -0.68420153     0.04734881   
   2782000   0.049930051   -0.80630812     0.04189062    -0.68957075     0.049358737  
   2783000   0.048810525   -0.80571784     0.043512042   -0.68903724     0.062198849  
   2784000   0.05001347    -0.8068165      0.041529564   -0.69031513     0.058746703  
   2785000   0.050883681   -0.80632956     0.042678385   -0.6873749      0.074680937  
   2786000   0.051193952   -0.80680388     0.042624605   -0.68743789     0.062559212  
   2787000   0.050480479   -0.80542389     0.043137891   -0.68661413     0.044873167  
   2788000   0.052429667   -0.80501298     0.040523126   -0.68589609     0.075560505  
   2789000   0.051910004   -0.80544478     0.041008853   -0.68662115     0.061018813  
   2790000   0.052738301   -0.80463344     0.042956506   -0.68262052     0.061566233  
   2791000   0.050971886   -0.80369396     0.04327563    -0.68400982     0.062919002  
   2792000   0.050475434   -0.8061436      0.040644273   -0.68983503     0.063648922  
   2793000   0.049173949   -0.80668555     0.043297372   -0.68967484     0.045063875  
   2794000   0.051567813   -0.80581477     0.042576204   -0.68593675     0.11018132   
   2795000   0.050417615   -0.80789922     0.043295116   -0.68902647     0.041616184  
   2796000   0.050643886   -0.80333041     0.039289927   -0.68812366     0.059174681  
   2797000   0.051257653   -0.80578233     0.040933944   -0.68801151     0.054075519  
   2798000   0.051407419   -0.80628734     0.040792998   -0.68843296     0.060708705  
   2799000   0.050121604   -0.80447617     0.042096763   -0.6872455      0.033035067  
   2800000   0.052182215   -0.8057897      0.04241304    -0.68515383     0.048670699  
   2801000   0.051189155   -0.80506281     0.041000246   -0.68732837     0.072090348  
   2802000   0.051799935   -0.80595964     0.040588055   -0.68772181     0.066349218  
   2803000   0.050343082   -0.80511882     0.042152084   -0.68750083     0.07081103   
   2804000   0.051749485   -0.80426523     0.040406851   -0.68628423     0.067269157  
   2805000   0.049850057   -0.80739986     0.044016688   -0.68865633     0.044773549  
   2806000   0.049641851   -0.80703999     0.041842233   -0.69078302     0.068491049  
   2807000   0.050667503   -0.80455534     0.04176649    -0.68683663     0.065030075  
   2808000   0.049522332   -0.80431458     0.039702062   -0.69037695     0.069735083  
   2809000   0.053158793   -0.8059885      0.042614262   -0.68368749     0.050266451  
   2810000   0.050599045   -0.80518655     0.041130577   -0.68820638     0.06915127   
   2811000   0.052068915   -0.80609488     0.040812515   -0.68722938     0.049923918  
   2812000   0.051736213   -0.80367106     0.042334879   -0.68378193     0.032902681  
   2813000   0.050785452   -0.80452458     0.041046579   -0.68734897     0.04944927   
   2814000   0.052010383   -0.80396209     0.040099724   -0.68589712     0.072865903  
   2815000   0.051388375   -0.80398804     0.04074314    -0.68621207     0.042022824  
   2816000   0.051709636   -0.8068993      0.042940239   -0.68644465     0.036980101  
   2817000   0.050372993   -0.80459087     0.042294655   -0.68678547     0.040009927  
   2818000   0.051022031   -0.80615598     0.041113198   -0.68855911     0.047100194  
   2819000   0.051207134   -0.80839975     0.04050017    -0.69113843     0.033324588  
   2820000   0.050980911   -0.80572952     0.042524988   -0.68678251     0.053544565  
   2821000   0.051270555   -0.80782608     0.04041593    -0.69055393     0.053478631  
   2822000   0.052117352   -0.8079929      0.043022369   -0.68684494     0.027105846  
   2823000   0.051602244   -0.80588087     0.041765256   -0.68676218     0.038474524  
   2824000   0.051755454   -0.80624485     0.042169379   -0.68649238     0.034969443  
   2825000   0.050675023   -0.80528164     0.040162445   -0.68915571     0.048287996  
   2826000   0.049602151   -0.80569513     0.042281996   -0.68905791     0.032945394  
   2827000   0.050268767   -0.80768809     0.040075357   -0.69225823     0.039929082  
   2828000   0.05250775    -0.80558997     0.040526933   -0.68635223     0.038467658  
   2829000   0.050723324   -0.80680121     0.04127305    -0.68949226     0.044348676  
   2830000   0.05091429    -0.80494867     0.042156487   -0.68647002     0.049764468  
   2831000   0.050720077   -0.80590951     0.042364812   -0.68751366     0.03791      
   2832000   0.048990122   -0.80310406     0.041053252   -0.68861303     0.060808179  
   2833000   0.051200898   -0.80483527     0.040051128   -0.68803235     0.042539339  
   2834000   0.050516064   -0.80422236     0.041031491   -0.68746566     0.040400372  
   2835000   0.05194641    -0.8064786      0.040497692   -0.68811157     0.047609834  
   2836000   0.049667972   -0.805418       0.041410138   -0.68955397     0.037267568  
   2837000   0.05030725    -0.80530143     0.040533631   -0.6893556      0.041092618  
   2838000   0.05140016    -0.80523672     0.039569624   -0.6886166      0.031620965  
   2839000   0.050375586   -0.80650955     0.042003778   -0.68899114     0.036283613  
   2840000   0.051655031   -0.80528175     0.040339418   -0.68750977     0.048197843  
   2841000   0.051418765   -0.80519926     0.041408997   -0.68671187     0.0714516    
   2842000   0.051526826   -0.80564399     0.040644013   -0.6877596      0.05143187   
   2843000   0.051587473   -0.80630509     0.041427558   -0.68754624     0.041889455  
   2844000   0.050502331   -0.80538661     0.042246527   -0.68743546     0.018873577  
   2845000   0.052857562   -0.80572551     0.039584755   -0.68690556     0.067315463  
   2846000   0.051168781   -0.80364256     0.044335256   -0.68260365     0.026658184  
   2847000   0.052084978   -0.8049991      0.041232953   -0.68568908     0.036080905  
   2848000   0.04987608    -0.80425753     0.041977803   -0.68751388     0.059162056  
   2849000   0.04947509    -0.80682257     0.041186488   -0.69147132     0.037480431  
   2850000   0.04986269    -0.80737821     0.042946517   -0.68968591     0.020494461  
   2851000   0.048479674   -0.80286006     0.041559805   -0.68862766     0.045874774  
   2852000   0.050200207   -0.80644924     0.042164775   -0.68903273     0.031042369  
   2853000   0.050519271   -0.80538137     0.042424409   -0.68722694     0.032954739  
   2854000   0.050839987   -0.80479558     0.042186741   -0.68639806     0.051096499  
   2855000   0.050884927   -0.80353895     0.040833138   -0.68642767     0.080698284  
   2856000   0.051273631   -0.80475827     0.042088301   -0.68580914     0.041672219  
   2857000   0.05157671    -0.8066788      0.043928725   -0.68543492     0.018092309  
   2858000   0.052832056   -0.8049933      0.04281135    -0.68298499     0.038573372  
   2859000   0.051399024   -0.80636378     0.039803049   -0.68951194     0.054664976  
   2860000   0.052040994   -0.80551639     0.041784831   -0.68572043     0.065396332  
   2861000   0.050395689   -0.80742527     0.042969747   -0.68891075     0.044658882  
   2862000   0.052327522   -0.80673923     0.042695635   -0.68560296     0.052696132  
   2863000   0.051069783   -0.80591328     0.040039064   -0.68931897     0.040026819  
   2864000   0.050806804   -0.80534055     0.040423016   -0.6887565      0.026417125  
   2865000   0.051401249   -0.80168457     0.041658628   -0.68297381     0.051264183  
   2866000   0.052083593   -0.80458721     0.0430246     -0.68348763     0.03291757   
   2867000   0.0511787     -0.80530896     0.042963188   -0.68562725     0.056108453  
   2868000   0.051811085   -0.8041378      0.038341005   -0.68813031     0.0428872    
   2869000   0.050121759   -0.80528351     0.041513423   -0.68863595     0.003281389  
   2870000   0.053391318   -0.8052062      0.04183006    -0.68334083     0.039000955  
   2871000   0.05175094    -0.80447946     0.04310884    -0.68379429     0.058270272  
   2872000   0.050235394   -0.80440335     0.040979408   -0.68811946     0.03363478   
   2873000   0.052225326   -0.80669305     0.040825931   -0.68757967     0.049464809  
   2874000   0.050894937   -0.8076286      0.041503284   -0.68983216     0.049401817  
   2875000   0.050822885   -0.80665185     0.040675225   -0.68979148     0.066951435  
   2876000   0.050395334   -0.80701571     0.041617843   -0.68985363     0.064181384  
   2877000   0.051249921   -0.80614203     0.042742911   -0.68657384     0.055128733  
   2878000   0.050997755   -0.80718444     0.041082255   -0.6896549      0.022063101  
   2879000   0.05139003    -0.80762625     0.04410008    -0.68649086     0.053308492  
   2880000   0.050450145   -0.80648823     0.042908662   -0.68795318     0.060044759  
   2881000   0.050718393   -0.8059344      0.043684529   -0.68622137     0.046839999  
   2882000   0.050583703   -0.80672363     0.043652169   -0.68724486     0.053019265  
   2883000   0.050415015   -0.80447889     0.042441105   -0.68646406     0.06777856   
   2884000   0.052572699   -0.80653153     0.041685088   -0.68603827     0.054318392  
   2885000   0.050164042   -0.80589388     0.04268221    -0.68801415     0.052415592  
   2886000   0.052063868   -0.80730414     0.045046925   -0.6842118      0.049802846  
   2887000   0.050464208   -0.80649633     0.04213275    -0.6887161      0.020172151  
   2888000   0.051326899   -0.80501027     0.043249067   -0.68482052     0.01540615   
   2889000   0.050695209   -0.80754938     0.043140335   -0.68841529     0.028092755  
   2890000   0.051520272   -0.80706289     0.042030187   -0.68780215     0.028557739  
   2891000   0.050601839   -0.80508831     0.041293813   -0.6879407      0.031353845  
   2892000   0.051332802   -0.80615055     0.042196305   -0.68700472     0.044571592  
   2893000   0.050988596   -0.80579476     0.042301261   -0.68705995     0.039033393  
   2894000   0.050065986   -0.80522545     0.042373481   -0.68780144     0.015466603  
   2895000   0.053593078   -0.80676404     0.041487768   -0.68493852     0.021248412  
   2896000   0.05262156    -0.80525883     0.040239965   -0.68613745     0.019902942  
   2897000   0.051796487   -0.80574931     0.040979255   -0.68712545     0.033696526  
   2898000   0.05251063    -0.80455084     0.042762057   -0.68307366     0.040102553  
   2899000   0.050357294   -0.80416443     0.042115791   -0.68656143     0.037414145  
   2900000   0.051490809   -0.80742244     0.043386062   -0.68684999     0.028208218  
   2901000   0.051582779   -0.80534787     0.043541502   -0.68448212     0.030618823  
   2902000   0.050370641   -0.80641956     0.042618638   -0.68829371     0.0048452792 
   2903000   0.050069084   -0.8055869      0.042681613   -0.68785011     0.026210537  
   2904000   0.048622641   -0.80560915     0.042106685   -0.69061556     0.044635317  
   2905000   0.049219585   -0.80699368     0.039764957   -0.69344697     0.038933443  
   2906000   0.050501103   -0.80732054     0.040828285   -0.69078948     0.015667605  
   2907000   0.050400264   -0.805054       0.041600936   -0.68790144     0.025878004  
   2908000   0.05140995    -0.80655533     0.04104415    -0.68844601     0.020679515  
   2909000   0.050262221   -0.80538743     0.040738736   -0.689304       0.050619153  
   2910000   0.050390267   -0.80585763     0.039988325   -0.69033267     0.047818348  
   2911000   0.049223367   -0.8052198      0.041346689   -0.69008569     0.034851429  
   2912000   0.05125107    -0.80757951     0.041041342   -0.68971116     0.044081966  
   2913000   0.05145893    -0.8037664      0.043344745   -0.68328306     0.032896493  
   2914000   0.053080226   -0.80507106     0.039834425   -0.68566766     0.0633133    
   2915000   0.051708651   -0.80499778     0.04048925    -0.68699559     0.041916802  
   2916000   0.050768289   -0.80163896     0.040643893   -0.68489177     0.036473015  
   2917000   0.050820849   -0.80581384     0.042326319   -0.68730543     0.013108576  
   2918000   0.051212162   -0.80585941     0.041685035   -0.68740569     0.04411535   
   2919000   0.049985584   -0.80677778     0.041805679   -0.6900421      0.041937734  
   2920000   0.051252831   -0.80341392     0.041161511   -0.68542277     0.038641693  
   2921000   0.052950951   -0.80625535     0.042487902   -0.68439226     0.040960019  
   2922000   0.051831759   -0.80640109     0.042327007   -0.6863766      0.021140311  
   2923000   0.050777215   -0.80606886     0.041041391   -0.68891078     0.046896612  
   2924000   0.050822454   -0.8062757      0.041737399   -0.6883538      0.050625302  
   2925000   0.050534755   -0.80713791     0.0403415     -0.69104318     0.021171483  
   2926000   0.050457409   -0.80672932     0.039794259   -0.69129778     0.040376358  
   2927000   0.050874466   -0.80538283     0.040635943   -0.68848442     0.037277195  
   2928000   0.051285257   -0.80715068     0.042905896   -0.68736653     0.049859409  
   2929000   0.051054914   -0.80427971     0.039708055   -0.68803869     0.031147567  
   2930000   0.052012361   -0.80691248     0.041864181   -0.68708009     0.036803812  
   2931000   0.04931469    -0.80407003     0.040357687   -0.68978804     0.039158229  
   2932000   0.049615896   -0.80741375     0.040406593   -0.69263132     0.054015608  
   2933000   0.05117392    -0.80863266     0.040909349   -0.69101195     0.02256365   
   2934000   0.05019656    -0.80464959     0.040226093   -0.68917724     0.058640039  
   2935000   0.04926897    -0.80384794     0.042783291   -0.68720888     0.062852303  
   2936000   0.047764234   -0.8049226      0.043904214   -0.68941826     0.035125451  
   2937000   0.051378661   -0.8046613      0.040939848   -0.68670318     0.05633724   
   2938000   0.052242983   -0.80543874     0.044084372   -0.68304045     0.059510038  
   2939000   0.051086845   -0.80752873     0.042157186   -0.68879072     0.042537165  
   2940000   0.050696825   -0.80610459     0.042645109   -0.68746331     0.040495239  
   2941000   0.04903716    -0.80511258     0.042370456   -0.68923384     0.052674356  
   2942000   0.051232863   -0.80624738     0.041576006   -0.68787166     0.040086379  
   2943000   0.051435817   -0.80596849     0.04242862    -0.68643593     0.067014637  
   2944000   0.053721229   -0.80752294     0.040896061   -0.68609702     0.038017807  
   2945000   0.050535996   -0.80512951     0.042808491   -0.68656593     0.023079853  
   2946000   0.050758053   -0.8069589      0.043721829   -0.68714911     0.029447862  
   2947000   0.052190228   -0.80646603     0.041988264   -0.68624293     0.010082767  
   2948000   0.050180117   -0.80763876     0.042381222   -0.69003593     0.038657773  
   2949000   0.052003361   -0.80694405     0.042562715   -0.68642661     0.026679698  
   2950000   0.05135521    -0.80609658     0.041545639   -0.68756782     0.041158109  
   2951000   0.051074117   -0.80430656     0.041087933   -0.68665688     0.037019647  
   2952000   0.052337491   -0.80676148     0.04266159    -0.6856443      0.012083851  
   2953000   0.050550409   -0.80543988     0.041726354   -0.68793683     0.024795367  
   2954000   0.051874819   -0.80641221     0.041293826   -0.68735636     0.0086601973 
   2955000   0.050535442   -0.80755288     0.040657441   -0.69114118     0.034040127  
   2956000   0.049993172   -0.80689773     0.041616967   -0.69033939     0.045466189  
   2957000   0.050941853   -0.80818067     0.04192915    -0.68988804     0.051511889  
   2958000   0.050324737   -0.80514224     0.04153293    -0.68817091     0.02960801   
   2959000   0.052092086   -0.80801778     0.041852678   -0.68807738     0.047717213  
   2960000   0.050513141   -0.80612936     0.040819627   -0.6895889      0.050854094  
   2961000   0.049995166   -0.80637557     0.041482797   -0.68994841     0.049524897  
   2962000   0.049831185   -0.80791046     0.043262697   -0.68994921     0.034604583  
   2963000   0.049936619   -0.80673956     0.04107053    -0.69081243     0.046125695  
   2964000   0.049774852   -0.80552209     0.041821795   -0.68908618     0.043482096  
   2965000   0.050612169   -0.80459638     0.041293975   -0.68743313     0.057444497  
   2966000   0.050349867   -0.80735399     0.044819413   -0.6870585      0.046210126  
   2967000   0.051099291   -0.80695936     0.0411449     -0.68921498     0.048265883  
   2968000   0.051233015   -0.80765285     0.041893107   -0.6889598      0.031905798  
   2969000   0.051552973   -0.80823153     0.041418628   -0.68953333     0.040986946  
   2970000   0.050858558   -0.80755453     0.040604622   -0.69071129     0.027999241  
   2971000   0.051617812   -0.80681544     0.040711611   -0.68872706     0.01297546   
   2972000   0.05056591    -0.80685615     0.041327714   -0.6897285      0.036465246  
   2973000   0.051320057   -0.80528069     0.0413929     -0.68695737     0.033865808  
   2974000   0.051436825   -0.8055135      0.042211949   -0.68619609     0.049556223  
   2975000   0.050473911   -0.80772391     0.040959073   -0.69110282     0.032730838  
   2976000   0.050832057   -0.80522099     0.042808893   -0.6862132      0.042357485  
   2977000   0.050900396   -0.80691796     0.042496268   -0.68812035     0.025009377  
   2978000   0.051998925   -0.80454094     0.041072677   -0.6855202      0.047444082  
   2979000   0.050786678   -0.80605421     0.042266427   -0.68765692     0.035755389  
   2980000   0.05220167    -0.80499723     0.039927423   -0.68681782     0.032596277  
   2981000   0.051371343   -0.80632025     0.042282318   -0.68703063     0.039040103  
   2982000   0.051035815   -0.80635089     0.040048254   -0.68979831     0.062683322  
   2983000   0.050262089   -0.80669939     0.041252839   -0.69010206     0.030100735  
   2984000   0.050347648   -0.807926       0.041451783   -0.69100147     0.022140695  
   2985000   0.051355365   -0.80549878     0.039662976   -0.68885245     0.04766048   
   2986000   0.049801208   -0.80575344     0.041391368   -0.68970845     0.034573999  
   2987000   0.051538412   -0.80643939     0.041986118   -0.68719553     0.022280845  
   2988000   0.049970784   -0.80919424     0.042960787   -0.69132564     0.035322789  
   2989000   0.050750431   -0.8061133      0.039910446   -0.69012633     0.035244496  
   2990000   0.05022139    -0.80739648     0.043465736   -0.68864726     0.034000455  
   2991000   0.051923204   -0.80878239     0.040230008   -0.69071782     0.027096208  
   2992000   0.050817945   -0.8071693      0.040830126   -0.69016143     0.021143654  
   2993000   0.05082517    -0.807662       0.041979213   -0.68949422     0.010671992  
   2994000   0.051539937   -0.80646542     0.041796675   -0.68740871     0.04741479   
   2995000   0.052036237   -0.80586912     0.042727246   -0.68513788     0.037991688  
   2996000   0.052131315   -0.80652533     0.042349603   -0.68602921     0.022971943  
   2997000   0.05091088    -0.80548253     0.041627905   -0.68753757     0.04454429   
   2998000   0.053304668   -0.80576578     0.043880011   -0.68198035     0.020858856  
   2999000   0.051493932   -0.80695459     0.041052353   -0.68871117     0.026491276  
   3000000   0.050351153   -0.80580027     0.041486739   -0.68883553     0.047490997  
   3001000   0.050436962   -0.80571006     0.04205609    -0.68804733     0.04085537   
   3002000   0.051370471   -0.80656541     0.042753655   -0.68680576     0.065545289  
   3003000   0.05210039    -0.8051162      0.041584026   -0.68543201     0.036871679  
   3004000   0.051076178   -0.80527353     0.041646359   -0.68706233     0.030561101  
   3005000   0.051566354   -0.80502719     0.041632947   -0.68609462     0.025594688  
   3006000   0.050187298   -0.80424172     0.040995245   -0.6880141      0.019601029  
   3007000   0.051350857   -0.80641344     0.041477227   -0.68795962     0.023754437  
   3008000   0.049749624   -0.8060523      0.040688216   -0.69078779     0.034460267  
   3009000   0.051929755   -0.80557419     0.0427704     -0.68495941     0.027556476  
   3010000   0.049557592   -0.80543932     0.040411692   -0.69073919     0.026195449  
   3011000   0.049630352   -0.80301614     0.040634245   -0.6879844      0.045414257  
   3012000   0.051979524   -0.80469923     0.041113321   -0.68566693     0.034231105  
   3013000   0.052645383   -0.80345103     0.041942241   -0.68259166     0.034048927  
   3014000   0.050686314   -0.80420775     0.041048672   -0.68717866     0.03264504   
   3015000   0.051484492   -0.80385388     0.042627673   -0.68404929     0.036836726  
   3016000   0.049970791   -0.80423416     0.042392266   -0.68693407     0.027995664  
   3017000   0.050336995   -0.80339691     0.041647267   -0.68629286     0.039771621  
   3018000   0.05086721    -0.80358336     0.042887205   -0.68444456     0.035888359  
   3019000   0.052960725   -0.80436093     0.043075238   -0.68189585     0.036224825  
   3020000   0.054326765   -0.80391506     0.042466821   -0.68001066     0.0073632441 
   3021000   0.054954274   -0.80077152     0.04512754    -0.67326575     0.056256761  
   3022000   0.05251465    -0.80335353     0.042368133   -0.68226424     0.040439899  
   3023000   0.05127201    -0.80343419     0.044329898   -0.6822459      0.013146607  
   3024000   0.052184424   -0.80386709     0.045135709   -0.68050525     0.042337052  
   3025000   0.050798307   -0.80449923     0.044254719   -0.68409621     0.044337801  
   3026000   0.052459542   -0.80409205     0.042124782   -0.68332873     0.059020582  
   3027000   0.052024272   -0.80379863     0.041947741   -0.68386482     0.018009748  
   3028000   0.052198929   -0.80632344     0.045054647   -0.68302092     0.02168106   
   3029000   0.0522373     -0.80353345     0.041389562   -0.68383849     0.043750146  
   3030000   0.051918754   -0.80298557     0.043051166   -0.68210652     0.049417126  
   3031000   0.050440248   -0.80296908     0.042397953   -0.68495957     0.044690299  
   3032000   0.050743973   -0.8025924      0.041478695   -0.68504686     0.055377034  
   3033000   0.052207515   -0.80493257     0.041454334   -0.68521749     0.050360261  
   3034000   0.0515154     -0.80439692     0.042398593   -0.68477508     0.035527761  
   3035000   0.050550079   -0.80427368     0.041617246   -0.68688023     0.030572698  
   3036000   0.052277769   -0.80448459     0.042883723   -0.6832348      0.048517679  
   3037000   0.049818922   -0.80587734     0.042255759   -0.68894141     0.020429611  
   3038000   0.053959166   -0.80493927     0.042959988   -0.68109275     0.036334607  
   3039000   0.051765622   -0.80407057     0.044343501   -0.68212873     0.037288244  
   3040000   0.051365489   -0.80407051     0.04418611    -0.68288587     0.030709439  
   3041000   0.052228849   -0.80406004     0.041091066   -0.68467624     0.041632362  
   3042000   0.049661577   -0.80414085     0.042197124   -0.68749942     0.034036472  
   3043000   0.049939454   -0.80442658     0.041084924   -0.6884808      0.025888057  
   3044000   0.05070835    -0.80380688     0.041459725   -0.6863337      0.047354073  
   3045000   0.049917027   -0.80437175     0.042661412   -0.68688311     0.037097741  
   3046000   0.052333864   -0.8044797      0.040575813   -0.68545374     0.04933529   
   3047000   0.048978599   -0.80441154     0.043738127   -0.68725291     0.0376158    
   3048000   0.051704866   -0.80336901     0.039822165   -0.68603958     0.040495896  
   3049000   0.048811383   -0.80107132     0.041765594   -0.68613588     0.033324603  
   3050000   0.049181547   -0.80301579     0.040327923   -0.68896314     0.02923488   
   3051000   0.050735604   -0.80495527     0.039693059   -0.68920791     0.046594351  
   3052000   0.05092354    -0.80475556     0.040779501   -0.68764003     0.03959937   
   3053000   0.052486426   -0.80339401     0.039295497   -0.68541967     0.07704152   
   3054000   0.050855679   -0.80508578     0.041580228   -0.68727125     0.048629663  
   3055000   0.053346912   -0.8039643      0.041862627   -0.68213294     0.04229276   
   3056000   0.05092795    -0.80698526     0.044304748   -0.68633787     0.055028103  
   3057000   0.050328631   -0.8055819      0.042930886   -0.68720677     0.057047449  
   3058000   0.05148476    -0.80313174     0.042270385   -0.68368404     0.033533029  
   3059000   0.052330664   -0.80683811     0.041679767   -0.68671299     0.042320656  
   3060000   0.053220834   -0.80529902     0.042138617   -0.68338065     0.053951611  
   3061000   0.052079577   -0.80817936     0.042901383   -0.68720901     0.024788276  
   3062000   0.050439476   -0.80696387     0.043544835   -0.68780863     0.055682047  
   3063000   0.051544244   -0.80451319     0.040759704   -0.686487       0.032401459  
   3064000   0.05133606    -0.80523963     0.043399562   -0.68488566     0.038999927  
   3065000   0.051431611   -0.80273588     0.041216705   -0.68442153     0.043312404  
   3066000   0.049570741   -0.80633554     0.042772232   -0.68925517     0.03630695   
   3067000   0.050967893   -0.80541907     0.040843735   -0.68817282     0.051935762  
   3068000   0.049838712   -0.80466105     0.042731359   -0.68721985     0.043201656  
   3069000   0.051344469   -0.8050967      0.041813282   -0.6863164      0.013722416  
   3070000   0.051401635   -0.80370295     0.04128113    -0.68536911     0.065457292  
   3071000   0.052130433   -0.80532392     0.04237375    -0.68480497     0.041015019  
   3072000   0.052579368   -0.80378149     0.040602589   -0.68436073     0.064013824  
   3073000   0.05090119    -0.80537522     0.041064717   -0.68800797     0.044680269  
   3074000   0.051673932   -0.805696       0.039361594   -0.68887352     0.033945464  
   3075000   0.051629911   -0.80299095     0.040918112   -0.68467794     0.045135447  
   3076000   0.051862369   -0.80615898     0.042772565   -0.68564305     0.044968813  
   3077000   0.051379506   -0.8041404      0.041576321   -0.68554454     0.067515144  
   3078000   0.050971742   -0.80616096     0.042187028   -0.68756565     0.022277233  
   3079000   0.051416375   -0.80486389     0.041591986   -0.6861971      0.036667353  
   3080000   0.04989666    -0.8045716      0.041502383   -0.68827252     0.047548587  
   3081000   0.052895061   -0.8048128      0.041557876   -0.68396353     0.037308689  
   3082000   0.051441577   -0.80713233     0.040323189   -0.68969655     0.063697619  
   3083000   0.051594646   -0.80506123     0.042342638   -0.68537655     0.031139032  
   3084000   0.049755799   -0.80621879     0.042821941   -0.6888113      0.029110665  
   3085000   0.049857241   -0.80600961     0.040863818   -0.69040818     0.055185823  
   3086000   0.050978625   -0.80630165     0.042802714   -0.68708034     0.057109665  
   3087000   0.050397434   -0.8067539      0.043909556   -0.68729696     0.067438458  
   3088000   0.052208726   -0.80602643     0.041312613   -0.68645125     0.055152685  
   3089000   0.049761263   -0.80590263     0.041329444   -0.68997945     0.046664679  
   3090000   0.050207074   -0.80403675     0.041204491   -0.68757023     0.074059767  
   3091000   0.051343355   -0.80465979     0.041374727   -0.68631972     0.048447205  
   3092000   0.05170446    -0.80477491     0.04133453    -0.68593372     0.062004174  
   3093000   0.049978156   -0.80573424     0.04000834    -0.69080703     0.037361289  
   3094000   0.05167673    -0.80772354     0.038484272   -0.69177419     0.048868843  
   3095000   0.04997137    -0.80745704     0.04252279    -0.69002555     0.056697197  
   3096000   0.052426755   -0.8060677      0.041619422   -0.68585888     0.051744765  
   3097000   0.050442449   -0.80710504     0.042965319   -0.68852486     0.043783084  
   3098000   0.052138027   -0.80673949     0.042240566   -0.68634234     0.040632027  
   3099000   0.050067246   -0.80326643     0.043015294   -0.68519872     0.048041426  
   3100000   0.049309767   -0.80565206     0.042246998   -0.68948813     0.04524434   
   3101000   0.050942477   -0.8046788      0.042188733   -0.68612566     0.043733575  
   3102000   0.05218614    -0.80670086     0.039613393   -0.68885876     0.03197726   
   3103000   0.04957832    -0.80499238     0.041927617   -0.68874526     0.044566026  
   3104000   0.052063823   -0.80603775     0.040307773   -0.68768463     0.040135596  
   3105000   0.050626448   -0.80692454     0.04160315    -0.68943071     0.030884525  
   3106000   0.050431152   -0.8068602      0.041570904   -0.68969137     0.035127874  
   3107000   0.051444233   -0.80427725     0.043499021   -0.68366167     0.032555975  
   3108000   0.049949674   -0.80561041     0.043524158   -0.68721008     0.057430276  
   3109000   0.051924435   -0.80771502     0.041270781   -0.68860784     0.036550884  
   3110000   0.051615593   -0.80466213     0.044262263   -0.68302642     0.029438738  
   3111000   0.050352279   -0.80495504     0.042161515   -0.68731384     0.036531031  
   3112000   0.049271939   -0.80676439     0.040510378   -0.69239379     0.061941011  
   3113000   0.051798743   -0.80603986     0.041733031   -0.68665884     0.0092142092 
   3114000   0.051312294   -0.80639261     0.042674211   -0.68679961     0.04586577   
   3115000   0.050477316   -0.80599323     0.042011252   -0.68831486     0.01683258   
   3116000   0.051036014   -0.80678205     0.043714499   -0.68656292     0.061953155  
   3117000   0.051444603   -0.80724518     0.040846808   -0.68928125     0.031106515  
   3118000   0.051037505   -0.80572812     0.040358378   -0.68886287     0.065889388  
   3119000   0.050759448   -0.8062097      0.041506483   -0.68861317     0.052526189  
   3120000   0.049933096   -0.80752279     0.043598274   -0.6890732      0.063630603  
   3121000   0.051212156   -0.80500052     0.042366455   -0.68586539     0.061808819  
   3122000   0.051902045   -0.80616662     0.042752262   -0.68561152     0.074220695  
   3123000   0.051351945   -0.8061653      0.043230509   -0.68595657     0.027915208  
   3124000   0.051471523   -0.80620951     0.043374545   -0.68567749     0.066327641  
   3125000   0.052034753   -0.80439831     0.043820697   -0.68257584     0.047058476  
   3126000   0.05156679    -0.80400356     0.04279156    -0.68391172     0.034659882  
   3127000   0.049437706   -0.80712925     0.044320303   -0.68870023     0.057191717  
   3128000   0.050417559   -0.80553671     0.043503467   -0.6864557      0.080051419  
   3129000   0.052662915   -0.80770348     0.042636503   -0.68612357     0.087365506  
   3130000   0.049338861   -0.80642454     0.039987361   -0.69247663     0.062164982  
   3131000   0.049583386   -0.80526364     0.043266837   -0.68766971     0.049171726  
   3132000   0.051934467   -0.80764639     0.040448027   -0.68934692     0.056100844  
   3133000   0.049587306   -0.80726529     0.042489497   -0.69044282     0.044892759  
   3134000   0.050366619   -0.80561157     0.041129736   -0.68898065     0.045960929  
   3135000   0.051792696   -0.80671091     0.0426242     -0.68644778     0.058365104  
   3136000   0.050454907   -0.8066376      0.040910708   -0.69009336     0.056793288  
   3137000   0.050828689   -0.80724397     0.041242061   -0.68980807     0.04507195   
   3138000   0.05267034    -0.80575537     0.043008198   -0.68379263     0.065771099  
   3139000   0.05115152    -0.80520538     0.042383949   -0.68614365     0.071140056  
   3140000   0.051829767   -0.80778137     0.04006786    -0.69001901     0.06682613   
   3141000   0.051232065   -0.80764861     0.041294477   -0.68955562     0.057788186  
   3142000   0.050907323   -0.80666947     0.042539595   -0.68781815     0.031514661  
   3143000   0.050318836   -0.80552615     0.040152628   -0.68994397     0.043261845  
   3144000   0.05284071    -0.80710531     0.041942688   -0.68595269     0.038371955  
   3145000   0.050667055   -0.8058972      0.044686967   -0.68525869     0.067338761  
   3146000   0.051105427   -0.80629012     0.041991559   -0.68768988     0.095583536  
   3147000   0.051939534   -0.80642008     0.043432019   -0.68512902     0.06701431   
   3148000   0.052652425   -0.80587006     0.044001918   -0.68294046     0.077308286  
   3149000   0.051800837   -0.80666258     0.043354666   -0.68565679     0.072409339  
   3150000   0.051420425   -0.80491663     0.040945712   -0.68689004     0.063593286  
   3151000   0.05158154    -0.80622054     0.041522099   -0.68737605     0.075308147  
   3152000   0.051568444   -0.80630632     0.041964257   -0.6870393      0.090982144  
   3153000   0.049685911   -0.80723236     0.041840241   -0.69091134     0.067322843  
   3154000   0.051806534   -0.80626358     0.041767491   -0.68683642     0.077254133  
   3155000   0.051620245   -0.80550116     0.041592249   -0.6865285      0.058568567  
   3156000   0.050938738   -0.80744137     0.04164967    -0.68943289     0.055968879  
   3157000   0.05131992    -0.8066147      0.043139546   -0.68654494     0.059062024  
   3158000   0.04864243    -0.80706356     0.043436148   -0.69071084     0.084136814  
   3159000   0.050710785   -0.8061622      0.040104083   -0.69004102     0.070163428  
   3160000   0.050786334   -0.80629323     0.039432629   -0.69073025     0.08405503   
   3161000   0.050122859   -0.80852018     0.043264363   -0.69012004     0.076226142  
   3162000   0.052727298   -0.807794       0.041516847   -0.68723723     0.096817915  
   3163000   0.050655446   -0.80698372     0.040860148   -0.69018942     0.073227219  
   3164000   0.050236476   -0.80511833     0.04293552    -0.68687672     0.066480881  
   3165000   0.050742497   -0.80574079     0.041504773   -0.68817137     0.052795672  
   3166000   0.052103884   -0.80628023     0.042777699   -0.68539713     0.046355311  
   3167000   0.051419428   -0.80608267     0.041221157   -0.68778213     0.047522389  
   3168000   0.05014824    -0.80459656     0.041583055   -0.68783968     0.041793823  
   3169000   0.049908797   -0.80320924     0.043844425   -0.68454991     0.098664906  
   3170000   0.051018829   -0.80657051     0.042492059   -0.68759958     0.06371924   
   3171000   0.051520495   -0.80564662     0.041115654   -0.68730008     0.069663079  
   3172000   0.050946599   -0.80508874     0.039809857   -0.68890829     0.068263793  
   3173000   0.04925383    -0.80683075     0.042614929   -0.69038274     0.037893627  
   3174000   0.051480916   -0.80603009     0.041911723   -0.68694681     0.10119786   
   3175000   0.05161114    -0.80594756     0.043282148   -0.68529865     0.09562881   
   3176000   0.048777726   -0.80608356     0.043901207   -0.68906297     0.073542414  
   3177000   0.051045622   -0.80641872     0.04278318    -0.6871165      0.030290784  
   3178000   0.052344708   -0.80510392     0.04243824    -0.68419927     0.047546183  
   3179000   0.050281191   -0.80520544     0.045625916   -0.68420639     0.068993245  
   3180000   0.051197274   -0.80566301     0.04334741    -0.68556924     0.047723436  
   3181000   0.051199046   -0.80515021     0.041055536   -0.68734566     0.070155293  
   3182000   0.049941548   -0.8046213      0.040826886   -0.68893042     0.066764085  
   3183000   0.050925389   -0.80706168     0.0433083     -0.68741458     0.026512242  
   3184000   0.049665324   -0.80596318     0.044103542   -0.68740972     0.054073877  
   3185000   0.048499577   -0.80560282     0.041658321   -0.69124207     0.043980557  
   3186000   0.050718598   -0.80558147     0.041044731   -0.68850792     0.055526165  
   3187000   0.051507377   -0.80521589     0.040265717   -0.68773895     0.063857986  
   3188000   0.050245656   -0.80714503     0.042769032   -0.68905614     0.062084202  
   3189000   0.050823      -0.80778187     0.042536491   -0.68906007     0.046752479  
   3190000   0.051317431   -0.80699015     0.043676135   -0.68638753     0.073444668  
   3191000   0.05113224    -0.80734078     0.041824882   -0.68886703     0.035923427  
   3192000   0.052003657   -0.80821294     0.042365851   -0.68789193     0.040237564  
   3193000   0.050848379   -0.80632982     0.040119616   -0.68998684     0.076739534  
   3194000   0.049768435   -0.80728237     0.041637347   -0.69104053     0.042306567  
   3195000   0.049713428   -0.80676876     0.041471698   -0.69077503     0.049072013  
   3196000   0.049866586   -0.80679426     0.041857003   -0.69018564     0.059653468  
   3197000   0.05158589    -0.80636264     0.042516316   -0.68651741     0.067796767  
   3198000   0.050875009   -0.80746768     0.041971588   -0.68923281     0.055381399  
   3199000   0.050519318   -0.80589424     0.041569863   -0.68859429     0.086825901  
   3200000   0.049083897   -0.80579066     0.043353905   -0.68885841     0.054670228  
   3201000   0.052237225   -0.80564291     0.041832742   -0.68550488     0.05361675   
   3202000   0.053519087   -0.80788996     0.043410056   -0.68425307     0.054808226  
   3203000   0.050564387   -0.80606097     0.041791781   -0.68847154     0.067584913  
   3204000   0.050481198   -0.80579921     0.041496424   -0.68862984     0.053549561  
   3205000   0.051218617   -0.80852053     0.043097711   -0.68864446     0.063364761  
   3206000   0.050094642   -0.80685231     0.040857825   -0.690901       0.044359713  
   3207000   0.051474883   -0.80603599     0.044404393   -0.68446909     0.085435576  
   3208000   0.05126059    -0.80420832     0.043379217   -0.68398783     0.07218836   
   3209000   0.050930907   -0.80637253     0.041720681   -0.68830477     0.070375832  
   3210000   0.052073464   -0.80624565     0.040967289   -0.68721856     0.06530929   
   3211000   0.052797714   -0.80705381     0.040513297   -0.68739504     0.049788116  
   3212000   0.051578848   -0.80803548     0.043193534   -0.68752359     0.056969276  
   3213000   0.052980971   -0.80689652     0.041836493   -0.68563984     0.07522576   
   3214000   0.053282587   -0.80594691     0.044641329   -0.68143326     0.093147753  
   3215000   0.051239802   -0.80368705     0.043243831   -0.6836331      0.056333285  
   3216000   0.05098885    -0.80507705     0.039666464   -0.68897665     0.064107733  
   3217000   0.051087708   -0.80717062     0.043166152   -0.68742235     0.059975546  
   3218000   0.052105203   -0.80688363     0.041744368   -0.68703189     0.12614916   
   3219000   0.050827487   -0.80700043     0.043010453   -0.68779793     0.06459852   
   3220000   0.052087316   -0.80764049     0.043028469   -0.68653145     0.073583064  
   3221000   0.051536093   -0.80668428     0.042445897   -0.68698412     0.10110902   
   3222000   0.0509202     -0.80676567     0.043766949   -0.68666769     0.086855638  
   3223000   0.052279057   -0.80334808     0.041698327   -0.68328176     0.046037599  
   3224000   0.051796613   -0.80629786     0.04358912    -0.68506395     0.089322744  
   3225000   0.050904966   -0.80707061     0.043813232   -0.68694919     0.064609981  
   3226000   0.050292798   -0.80719178     0.044778162   -0.68702309     0.044758594  
   3227000   0.050125265   -0.80934338     0.041355008   -0.69284899     0.055395638  
   3228000   0.049214235   -0.80734028     0.0412595     -0.69230705     0.075327444  
   3229000   0.052030057   -0.80549938     0.041075626   -0.68642902     0.074613361  
   3230000   0.052107322   -0.80744961     0.043827278   -0.68551177     0.087117796  
   3231000   0.051885599   -0.80742976     0.042528753   -0.68712282     0.079294099  
   3232000   0.051737672   -0.80951651     0.043298262   -0.68866181     0.067883258  
   3233000   0.051383048   -0.80781199     0.042744936   -0.68804221     0.057977265  
   3234000   0.050921655   -0.80761385     0.04280025    -0.6884804      0.070474244  
   3235000   0.05199569    -0.80748703     0.041814816   -0.687729       0.083310755  
   3236000   0.050258198   -0.80799544     0.041978812   -0.69067797     0.065234543  
   3237000   0.050541691   -0.8081026      0.041473646   -0.69086533     0.087008773  
   3238000   0.051406516   -0.81003875     0.042020022   -0.6909587      0.070514456  
   3239000   0.049948753   -0.80657037     0.041299513   -0.69039607     0.067890944  
   3240000   0.051001073   -0.80704075     0.044138958   -0.68644953     0.061034156  
   3241000   0.052133745   -0.80732449     0.043461531   -0.68571279     0.073021934  
   3242000   0.051011877   -0.80863408     0.040024999   -0.69214064     0.041422592  
   3243000   0.051589989   -0.80701348     0.041526225   -0.6881522      0.070091738  
   3244000   0.052921453   -0.80862656     0.041104559   -0.68819104     0.035305225  
   3245000   0.052034067   -0.80805985     0.041786706   -0.6882724      0.053838874  
   3246000   0.050773672   -0.80794312     0.042612548   -0.6892192      0.025188029  
   3247000   0.049275625   -0.80701024     0.043086441   -0.69005804     0.048363293  
   3248000   0.050139397   -0.80666483     0.043755377   -0.68774888     0.021017298  
   3249000   0.052714761   -0.80753649     0.043318893   -0.68519647     0.037519383  
   3250000   0.051856484   -0.80724757     0.042881039   -0.68663199     0.00085308749
   3251000   0.052740516   -0.80639861     0.043570664   -0.68376822     0.04716786   
   3252000   0.051490978   -0.80635328     0.04266495    -0.6865017      0.046515572  
   3253000   0.051739125   -0.80556657     0.042262256   -0.6857457      0.062928382  
   3254000   0.051218361   -0.80670491     0.04215975    -0.68776718     0.046722244  
   3255000   0.05200083    -0.80731942     0.044687603   -0.6846809      0.048891256  
   3256000   0.052708411   -0.80919205     0.042374171   -0.68780627     0.040306277  
   3257000   0.052185122   -0.80925024     0.043291964   -0.6877311      0.052694967  
   3258000   0.052407672   -0.80898859     0.04183178    -0.68859602     0.02947693   
   3259000   0.052088945   -0.80877744     0.041809131   -0.6888853      0.0371503    
   3260000   0.051762312   -0.81015013     0.043587266   -0.68896949     0.053093762  
   3261000   0.051054461   -0.80880138     0.044249554   -0.68801954     0.020045368  
   3262000   0.050341812   -0.80993803     0.039574473   -0.69489956     0.058745307  
   3263000   0.05193651    -0.80777011     0.043988318   -0.68592729     0.058182607  
   3264000   0.050939563   -0.8098008      0.041159584   -0.69228117     0.019709173  
   3265000   0.050110121   -0.80792254     0.04127841    -0.69152745     0.039573854  
   3266000   0.051125584   -0.80855915     0.041769726   -0.69015052     0.035632191  
   3267000   0.053109033   -0.80838017     0.041243193   -0.68752483     0.043549205  
   3268000   0.052793685   -0.80702919     0.04181702    -0.68607273     0.059817237  
   3269000   0.053697797   -0.8087675      0.043346803   -0.68492597     0.042056782  
   3270000   0.052264659   -0.80862798     0.044376194   -0.68590537     0.016017671  
   3271000   0.05005065    -0.80841415     0.043443056   -0.68994355     0.044909846  
   3272000   0.051256924   -0.80918902     0.044201121   -0.68815211     0.033798873  
   3273000   0.051860842   -0.80664301     0.040795821   -0.68810611     0.052544645  
   3274000   0.049557043   -0.80753762     0.041575124   -0.69167489     0.040481942  
   3275000   0.051246383   -0.80681879     0.042429506   -0.68756931     0.035848418  
   3276000   0.049300515   -0.80699733     0.041078556   -0.69201571     0.018738307  
   3277000   0.052482592   -0.80806733     0.041902179   -0.68749205     0.041847668  
   3278000   0.050329548   -0.8070025      0.04349427    -0.68806261     0.035058049  
   3279000   0.051283395   -0.80861296     0.042483317   -0.68925418     0.023601666  
   3280000   0.050288325   -0.80763465     0.041283452   -0.69096738     0.057327589  
   3281000   0.048818458   -0.80577135     0.04247206    -0.69011885     0.016256411  
   3282000   0.05205031    -0.80956007     0.041212889   -0.69032209     0.013502982  
   3283000   0.050556804   -0.81080161     0.04361138    -0.69140395     0.034703083  
   3284000   0.05024248    -0.80859685     0.042241657   -0.69104009     0.032506284  
   3285000   0.051311189   -0.80773064     0.041462703   -0.68935081     0.049876703  
   3286000   0.051645047   -0.8080929      0.041424922   -0.68925039     0.058070245  
   3287000   0.050325275   -0.80958051     0.042916811   -0.69122448     0.060253426  
   3288000   0.049894438   -0.81029621     0.040846438   -0.6946564      0.035857259  
   3289000   0.049910241   -0.80888895     0.041434161   -0.69263773     0.055928297  
   3290000   0.050851136   -0.808018       0.042744333   -0.68904617     0.038641938  
   3291000   0.052264755   -0.80721086     0.04094169    -0.68792262     0.0477819    
   3292000   0.052582032   -0.80824134     0.039157976   -0.6902612      0.053329763  
   3293000   0.0513272     -0.80791285     0.041030604   -0.68994112     0.049268315  
   3294000   0.050442873   -0.80922316     0.044044546   -0.68956312     0.040422409  
   3295000   0.051229011   -0.80784636     0.042793618   -0.68825881     0.055436887  
   3296000   0.052400513   -0.80789175     0.044340867   -0.68500082     0.036515383  
   3297000   0.051590203   -0.8089733      0.043863389   -0.68777454     0.026579366  
   3298000   0.053523004   -0.80728861     0.042588128   -0.68446778     0.057954312  
   3299000   0.051977402   -0.80904543     0.041257892   -0.68987174     0.074037781  
   3300000   0.051164889   -0.8082879      0.041429039   -0.69016104     0.031975812  
   3301000   0.05085928    -0.80749086     0.040705522   -0.69054563     0.042509847  
   3302000   0.050433423   -0.80862352     0.041497875   -0.69152431     0.057633717  
   3303000   0.050960974   -0.80708859     0.042270661   -0.68842579     0.073325525  
   3304000   0.052302575   -0.807882       0.043401954   -0.6860768      0.080138872  
   3305000   0.052599103   -0.81018089     0.04234098    -0.68899216     0.037147717  
   3306000   0.051819777   -0.80839774     0.041411435   -0.68930679     0.089534666  
   3307000   0.050223816   -0.81087021     0.043703533   -0.69187955     0.054676899  
   3308000   0.050570847   -0.80917314     0.043218496   -0.69014731     0.071578674  
   3309000   0.050613626   -0.80796885     0.04134201    -0.69075538     0.079221822  
   3310000   0.052517825   -0.81032479     0.045534201   -0.68606467     0.073181727  
   3311000   0.054111327   -0.80747443     0.045092384   -0.68126743     0.059441125  
   3312000   0.052507079   -0.80741645     0.042240443   -0.6864662      0.037152722  
   3313000   0.052616334   -0.80589431     0.042074091   -0.68494664     0.075131231  
   3314000   0.051165826   -0.80874635     0.041966321   -0.6900808      0.063420805  
   3315000   0.051631779   -0.80882941     0.042781917   -0.68864979     0.06609449   
   3316000   0.051058437   -0.81009983     0.04332433    -0.69023725     0.042435666  
   3317000   0.052001732   -0.80764086     0.044392772   -0.68529581     0.079027933  
   3318000   0.050845175   -0.80698063     0.040595696   -0.69016638     0.060563086  
   3319000   0.051590884   -0.80763577     0.040714437   -0.68958493     0.081825174  
   3320000   0.051340047   -0.80976982     0.043933539   -0.68887589     0.059874561  
   3321000   0.050553661   -0.8084163      0.042734207   -0.68990053     0.059253935  
   3322000   0.053146451   -0.80830708     0.040985774   -0.68765306     0.051809882  
   3323000   0.055548119   -0.80957634     0.04347662    -0.6828313      0.074506011  
   3324000   0.051845345   -0.80830822     0.041341962   -0.68924842     0.07228498   
   3325000   0.053178989   -0.81086515     0.042816069   -0.68833206     0.072469741  
   3326000   0.053362847   -0.80924533     0.041233057   -0.68801964     0.036763543  
   3327000   0.05053387    -0.80920174     0.042468512   -0.69098133     0.07597946   
   3328000   0.051502704   -0.81123572     0.043983475   -0.69004803     0.05681279   
   3329000   0.049944758   -0.80756297     0.042695073   -0.68999909     0.03395392   
   3330000   0.051015051   -0.80776906     0.04137518    -0.68992068     0.049047895  
   3331000   0.051220357   -0.80774333     0.041280762   -0.6896816      0.036665571  
   3332000   0.04910502    -0.80768194     0.043511582   -0.69056035     0.034773205  
   3333000   0.051924866   -0.8093188      0.043765932   -0.68771582     0.060639113  
   3334000   0.052534388   -0.80716237     0.04439026    -0.68402137     0.070208656  
   3335000   0.052883999   -0.80766997     0.045054602   -0.68334055     0.053002392  
   3336000   0.050840957   -0.8092753      0.043364926   -0.68969814     0.03467546   
   3337000   0.051324679   -0.80895793     0.043567465   -0.68845311     0.017641964  
   3338000   0.051864129   -0.80906406     0.041333817   -0.68998424     0.098414978  
   3339000   0.050987769   -0.80846861     0.042461683   -0.68957461     0.089059297  
   3340000   0.053194041   -0.80806061     0.041037594   -0.68728343     0.064656969  
   3341000   0.051016248   -0.81036136     0.043769231   -0.69011713     0.035290753  
   3342000   0.051292743   -0.80940686     0.041934647   -0.69058274     0.042248886  
   3343000   0.05328693    -0.81045903     0.0425898     -0.6879904      0.050678917  
   3344000   0.049869683   -0.81001352     0.042324503   -0.69293275     0.049811742  
   3345000   0.050850221   -0.80859596     0.041337922   -0.69103192     0.062179962  
   3346000   0.051211947   -0.81010784     0.041958815   -0.69138067     0.073148208  
   3347000   0.048772727   -0.80860655     0.042058925   -0.69343574     0.029939747  
   3348000   0.050368854   -0.80988259     0.044163968   -0.69021408     0.061536822  
   3349000   0.050822631   -0.80959257     0.040675432   -0.69273238     0.058138896  
   3350000   0.051660423   -0.80753314     0.041759554   -0.68833295     0.059559113  
   3351000   0.052925326   -0.80841815     0.042810244   -0.68627113     0.062101197  
   3352000   0.053109789   -0.80957005     0.040869623   -0.68908714     0.030822005  
   3353000   0.051011106   -0.80937536     0.041886128   -0.69102194     0.052333557  
   3354000   0.052536802   -0.80762173     0.042915834   -0.68595153     0.068985519  
   3355000   0.050376402   -0.80834824     0.040557532   -0.69227486     0.074211888  
   3356000   0.051972208   -0.80733334     0.041834807   -0.68759052     0.070911665  
   3357000   0.052299973   -0.81194718     0.04127467    -0.69227316     0.044894583  
   3358000   0.053067193   -0.80850723     0.041837872   -0.68711993     0.043585907  
   3359000   0.05119332    -0.80858687     0.043533217   -0.68831322     0.048592164  
   3360000   0.052960135   -0.81072747     0.042902695   -0.68843583     0.017013504  
   3361000   0.051436518   -0.8097062      0.042815214   -0.68978598     0.048724807  
   3362000   0.052829353   -0.81018913     0.042428004   -0.68856822     0.03524492   
   3363000   0.051734281   -0.80637235     0.040258882   -0.68856211     0.084140613  
   3364000   0.050557913   -0.80781754     0.039734807   -0.69229479     0.047010068  
   3365000   0.050652219   -0.81011016     0.040892519   -0.69328833     0.05695449   
   3366000   0.051320769   -0.80808366     0.04259105    -0.68856112     0.06683879   
   3367000   0.05291102    -0.81093275     0.04156081    -0.69005662     0.078500639  
   3368000   0.050573539   -0.80889014     0.041714269   -0.69136451     0.033028041  
   3369000   0.051896301   -0.80917303     0.043020595   -0.68835821     0.042653204  
   3370000   0.052673075   -0.80890258     0.042463897   -0.68748004     0.043880627  
   3371000   0.052563823   -0.80895028     0.041729087   -0.68842632     0.045823077  
   3372000   0.050077553   -0.80768975     0.042614509   -0.69000738     0.04312201   
   3373000   0.050120666   -0.80766134     0.039907364   -0.69262148     0.043334904  
   3374000   0.047949559   -0.80894919     0.041917803   -0.69515345     0.039828201  
   3375000   0.050077329   -0.80924368     0.040816826   -0.69335932     0.045165171  
   3376000   0.048852868   -0.80912142     0.041523283   -0.69436611     0.019239351  
   3377000   0.049941482   -0.80841734     0.042609812   -0.69094363     0.054911024  
   3378000   0.050798473   -0.80752967     0.043332166   -0.68804896     0.054299755  
   3379000   0.050223833   -0.80885445     0.041927507   -0.69163979     0.071173698  
   3380000   0.051206068   -0.81054131     0.042665541   -0.69111623     0.038059063  
   3381000   0.048238982   -0.8083141      0.042308655   -0.69369366     0.059666451  
   3382000   0.049907915   -0.80865503     0.041133053   -0.6927084      0.033651802  
   3383000   0.049629778   -0.80898348     0.041363121   -0.69322372     0.054304345  
   3384000   0.052591289   -0.80775014     0.042349772   -0.68656433     0.020550084  
   3385000   0.052527475   -0.80760714     0.04353706    -0.6853297      0.03212703   
   3386000   0.051806392   -0.8084838      0.044385083   -0.68643927     0.037976642  
   3387000   0.051809041   -0.80893274     0.04437656    -0.68689275     0.060861361  
   3388000   0.050991763   -0.80903417     0.043529235   -0.68906663     0.057335764  
   3389000   0.052421981   -0.80814331     0.042726264   -0.6868348      0.053897367  
   3390000   0.050341415   -0.80636512     0.044042957   -0.68685876     0.026386351  
   3391000   0.051369999   -0.80804461     0.043134377   -0.68790495     0.066256185  
   3392000   0.052151535   -0.80904381     0.043922378   -0.68694459     0.057921593  
   3393000   0.051829444   -0.80964534     0.044337262   -0.68761407     0.04231313   
   3394000   0.052110357   -0.80787915     0.044199103   -0.68556494     0.044691222  
   3395000   0.051884252   -0.80840746     0.045185068   -0.68544623     0.027561468  
   3396000   0.050910591   -0.80862493     0.043027438   -0.68928087     0.029098282  
   3397000   0.051003234   -0.80995166     0.043290363   -0.6902058      0.031713107  
   3398000   0.052835086   -0.80754501     0.045003345   -0.68334017     0.058398751  
   3399000   0.052290728   -0.80837072     0.041766912   -0.68821832     0.039308247  
   3400000   0.051153058   -0.80829247     0.042791498   -0.68882089     0.019059703  
   3401000   0.050206891   -0.80826895     0.044718445   -0.68828875     0.047252237  
   3402000   0.049858211   -0.80894265     0.041364546   -0.69283904     0.050964652  
   3403000   0.049957498   -0.80966536     0.040176504   -0.69460095     0.03410464   
   3404000   0.051216718   -0.81119079     0.042034681   -0.6923806      0.056751183  
   3405000   0.051974142   -0.80739294     0.043763305   -0.68571872     0.049892964  
   3406000   0.050744939   -0.80771666     0.044477749   -0.6871706      0.057484183  
   3407000   0.052428611   -0.80930096     0.044707459   -0.68600132     0.060314653  
   3408000   0.052519813   -0.80737253     0.042219972   -0.68642366     0.059050033  
   3409000   0.051812159   -0.80796043     0.044407009   -0.68588532     0.049613739  
   3410000   0.049752161   -0.80900242     0.04415721    -0.69026512     0.055496961  
   3411000   0.050345008   -0.80771351     0.041207711   -0.69103701     0.022983201  
   3412000   0.050519087   -0.8074888      0.043527476   -0.68823158     0.048686392  
   3413000   0.052419452   -0.80961597     0.0437972     -0.68724032     0.040522351  
   3414000   0.051359924   -0.80784516     0.041965034   -0.68888995     0.033247875  
   3415000   0.050571873   -0.80951977     0.044022177   -0.68968872     0.027014062  
   3416000   0.053799601   -0.80890075     0.04370808    -0.68454533     0.011301337  
   3417000   0.052732858   -0.80684837     0.043924217   -0.68387589     0.026551255  
   3418000   0.052035937   -0.80810178     0.045016587   -0.68508165     0.012173255  
   3419000   0.051697891   -0.80949647     0.043219625   -0.68878004     0.039362755  
   3420000   0.050852097   -0.80921498     0.041788428   -0.69119762     0.047788384  
   3421000   0.050332458   -0.80933463     0.045027337   -0.68885732     0.055196419  
   3422000   0.051544052   -0.8078936      0.04436       -0.6862674      0.028787191  
   3423000   0.050821053   -0.80842459     0.041339593   -0.6909026      0.04055797   
   3424000   0.048713756   -0.80797607     0.044196255   -0.69075632     0.026461936  
   3425000   0.051583674   -0.80905455     0.042950952   -0.68877801     0.069684094  
   3426000   0.051976308   -0.80919457     0.043841753   -0.68743866     0.034579728  
   3427000   0.052112819   -0.80835835     0.041896669   -0.68834288     0.050835144  
   3428000   0.052754972   -0.80892584     0.04375611    -0.68608833     0.045303135  
   3429000   0.050815906   -0.80839243     0.044274868   -0.68794288     0.0020000307 
   3430000   0.052048854   -0.8085225      0.043324111   -0.68717548     0.024911309  
   3431000   0.051599652   -0.80973853     0.046414341   -0.68597464     0.023525849  
   3432000   0.052743967   -0.80920093     0.042769636   -0.68736639     0.0067115193 
   3433000   0.052512859   -0.80828021     0.045872994   -0.68368874     0.025678637  
   3434000   0.053194225   -0.80908094     0.044285072   -0.68505601     0.045529758  
   3435000   0.051696494   -0.80721691     0.044894591   -0.68482761     0.042348866  
   3436000   0.050856057   -0.80833572     0.041379002   -0.69072185     0.026129203  
   3437000   0.051267287   -0.80722369     0.042787637   -0.68758473     0.045113769  
   3438000   0.050704668   -0.81006488     0.042480357   -0.69157659     0.039975371  
   3439000   0.049581827   -0.80724924     0.040683849   -0.69224063     0.034056593  
   3440000   0.05155963    -0.80916781     0.043380834   -0.68849743     0.048478398  
   3441000   0.051316023   -0.80803368     0.042443943   -0.68866537     0.059500928  
   3442000   0.052211535   -0.80932461     0.043905133   -0.6871527      0.019933995  
   3443000   0.050296033   -0.80779502     0.042144015   -0.69025562     0.029652332  
   3444000   0.051334705   -0.80834475     0.043970307   -0.68742206     0.026087985  
   3445000   0.05159799    -0.81147247     0.045856117   -0.6882693      0.036753393  
   3446000   0.051687077   -0.80871172     0.044001176   -0.68722995     0.054005353  
   3447000   0.051919905   -0.80713988     0.04265896    -0.68665131     0.056537858  
   3448000   0.05116257    -0.80829196     0.044439038   -0.68715858     0.035837771  
   3449000   0.050736949   -0.80541458     0.044383184   -0.68497507     0.051497078  
   3450000   0.050453259   -0.80705072     0.042912522   -0.68850713     0.051093977  
   3451000   0.05306819    -0.80684657     0.042548983   -0.68474666     0.016058168  
   3452000   0.052466874   -0.80605015     0.043907387   -0.68349323     0.036011942  
   3453000   0.052438885   -0.80849575     0.043200939   -0.68668723     0.03028901   
   3454000   0.050826473   -0.807482       0.042500435   -0.68879104     0.065132073  
   3455000   0.051001239   -0.80765253     0.043661481   -0.68753854     0.040082215  
   3456000   0.05026031    -0.8081605      0.042137897   -0.69068078     0.047177161  
   3457000   0.051679146   -0.8052757      0.041670065   -0.68613693     0.065855464  
   3458000   0.051812265   -0.80868606     0.04192375    -0.68909405     0.022580064  
   3459000   0.051287654   -0.80886827     0.044212656   -0.68777376     0.025126732  
   3460000   0.049336032   -0.80699856     0.043638001   -0.68940426     0.035846981  
   3461000   0.050119956   -0.80738303     0.043306935   -0.68894467     0.062978246  
   3462000   0.050908689   -0.80905552     0.041820248   -0.69092151     0.054895043  
   3463000   0.048977949   -0.80621284     0.042548697   -0.69024461     0.036848953  
   3464000   0.051907292   -0.80669311     0.04229304    -0.68658937     0.062316128  
   3465000   0.050798348   -0.80785921     0.042340277   -0.68937057     0.061457398  
   3466000   0.05171295    -0.80823182     0.042052761   -0.68865968     0.042858122  
   3467000   0.052354714   -0.80723892     0.04436078    -0.68439674     0.047752627  
   3468000   0.052953838   -0.8076392      0.044128071   -0.68413162     0.043799983  
   3469000   0.05356278    -0.80853059     0.043310662   -0.6849276      0.060777586  
   3470000   0.052769933   -0.80633756     0.042567217   -0.68466651     0.067121686  
   3471000   0.052205065   -0.80856129     0.043749799   -0.68655442     0.042115809  
   3472000   0.0519812     -0.806178       0.042105847   -0.68615065     0.038835645  
   3473000   0.052111353   -0.80837436     0.041750986   -0.68850677     0.058699197  
   3474000   0.050365648   -0.80921853     0.043116559   -0.69060224     0.088704857  
   3475000   0.050704197   -0.80810177     0.043595137   -0.68849941     0.050751529  
   3476000   0.051446676   -0.80875549     0.042549077   -0.68908618     0.061379342  
   3477000   0.051172062   -0.80892416     0.041687927   -0.69052766     0.094856629  
   3478000   0.050997475   -0.80859866     0.04278462    -0.68936718     0.056224439  
   3479000   0.050995545   -0.80801793     0.044235459   -0.68733851     0.047344901  
   3480000   0.051530028   -0.80607993     0.041592554   -0.6872422      0.055964707  
   3481000   0.051396674   -0.80767208     0.04388448    -0.68674233     0.031061099  
   3482000   0.053167408   -0.80850226     0.044482463   -0.68432014     0.069232758  
   3483000   0.051916391   -0.80731489     0.042102581   -0.68738797     0.056657396  
   3484000   0.050759225   -0.80747777     0.042583835   -0.68880422     0.065374628  
   3485000   0.051315229   -0.80980787     0.046771961   -0.68611273     0.071414595  
   3486000   0.049955716   -0.80667901     0.043950901   -0.68784288     0.05528984   
   3487000   0.052073662   -0.80838888     0.04120702    -0.68912176     0.05051264   
   3488000   0.049579495   -0.80667419     0.04277011    -0.68958281     0.011313986  
   3489000   0.05059942    -0.80889388     0.04309938    -0.68994434     0.032863736  
   3490000   0.049428037   -0.80593916     0.043325742   -0.68851919     0.052640127  
   3491000   0.051616719   -0.80726776     0.043459001   -0.68643363     0.048208929  
   3492000   0.051785672   -0.80773296     0.044471606   -0.68563296     0.040767053  
   3493000   0.050130951   -0.80785554     0.043903938   -0.68880369     0.045886473  
   3494000   0.052971305   -0.80868183     0.042106751   -0.68716938     0.033501946  
   3495000   0.052263577   -0.80573538     0.043159298   -0.68423129     0.045818106  
   3496000   0.052283728   -0.80743882     0.044403301   -0.68466053     0.033871987  
   3497000   0.049993826   -0.80779165     0.043955163   -0.68889413     0.022037271  
   3498000   0.051863236   -0.80878713     0.043056742   -0.68798573     0.049780001  
   3499000   0.050474256   -0.80798431     0.041849922   -0.69047185     0.053453303  
   3500000   0.05228597    -0.8094554      0.041268774   -0.68980827     0.063133329  
   3501000   0.04959015    -0.8081593      0.042197841   -0.69162423     0.052588014  
   3502000   0.050799344   -0.80791978     0.043710106   -0.68805982     0.051754881  
   3503000   0.051922412   -0.80859479     0.041820063   -0.68894135     0.03300248   
   3504000   0.050422034   -0.80727017     0.041926451   -0.68975947     0.040963121  
   3505000   0.051368909   -0.80776275     0.042659134   -0.68809997     0.056962247  
   3506000   0.051280261   -0.80860785     0.041697962   -0.69003912     0.048639204  
   3507000   0.050051885   -0.80763267     0.043205896   -0.68939739     0.05646917   
   3508000   0.050639602   -0.80938965     0.04408384    -0.68939541     0.047000295  
   3509000   0.049978461   -0.80839933     0.043517469   -0.68996254     0.02180996   
   3510000   0.050529971   -0.80766099     0.043297345   -0.68861758     0.059606645  
   3511000   0.052334855   -0.80855581     0.041111025   -0.68899314     0.075884456  
   3512000   0.052377336   -0.80866312     0.042686277   -0.68746153     0.065403719  
   3513000   0.051836626   -0.80792822     0.043493781   -0.68672967     0.040228331  
   3514000   0.051823573   -0.80976609     0.041616495   -0.69046439     0.055021583  
   3515000   0.052042817   -0.80850345     0.044143586   -0.686346       0.045967498  
   3516000   0.05127984    -0.80713602     0.043780193   -0.68648569     0.063795295  
   3517000   0.05144712    -0.80816142     0.043229358   -0.68781117     0.052393873  
   3518000   0.050868563   -0.80713804     0.042870306   -0.68801411     0.073968109  
   3519000   0.050225198   -0.80823042     0.042732177   -0.69020906     0.028288074  
   3520000   0.052877055   -0.80768322     0.041649331   -0.68676948     0.048003665  
   3521000   0.050177525   -0.8082312      0.042833592   -0.69017988     0.071865837  
   3522000   0.051193451   -0.80759343     0.043349629   -0.68750317     0.084203816  
   3523000   0.050715174   -0.80738783     0.042073899   -0.68929024     0.048906404  
   3524000   0.051871509   -0.80708497     0.045746952   -0.68358095     0.05248917   
   3525000   0.050919372   -0.8098536      0.043716238   -0.68980758     0.049654379  
   3526000   0.053204965   -0.80740431     0.04215242    -0.68549593     0.06110257   
   3527000   0.049296414   -0.80686377     0.041830735   -0.69113612     0.056003999  
   3528000   0.050334469   -0.80589856     0.043625492   -0.68682008     0.068444984  
   3529000   0.049340925   -0.80708132     0.043933222   -0.68918446     0.065453346  
   3530000   0.051079186   -0.80657666     0.041017348   -0.68898997     0.057174417  
   3531000   0.051220462   -0.80898755     0.042951509   -0.68925492     0.061130099  
   3532000   0.052291372   -0.80813677     0.04334233    -0.68640798     0.070945866  
   3533000   0.051621138   -0.81023817     0.044898124   -0.68795829     0.050462213  
   3534000   0.051889206   -0.80605775     0.042029168   -0.68624499     0.078675688  
   3535000   0.053907365   -0.80889428     0.044114652   -0.68397075     0.047293008  
   3536000   0.05230206    -0.80790298     0.042957194   -0.68654331     0.052356435  
   3537000   0.050251487   -0.80678417     0.044654079   -0.68680149     0.061765633  
   3538000   0.050786454   -0.80651533     0.041735874   -0.68864893     0.077479404  
   3539000   0.048989647   -0.80965281     0.043279322   -0.69293643     0.049866076  
   3540000   0.049838595   -0.8088727      0.043553165   -0.69060987     0.043313744  
   3541000   0.052769899   -0.81021724     0.042603837   -0.68850962     0.028820979  
   3542000   0.05220839    -0.80813043     0.042434287   -0.68743408     0.061514573  
   3543000   0.050597219   -0.80951681     0.043992165   -0.68967778     0.065809964  
   3544000   0.05015754    -0.80860876     0.042559055   -0.69086193     0.035176851  
   3545000   0.051105251   -0.80840433     0.043362677   -0.68843323     0.035254893  
   3546000   0.051320899   -0.80589222     0.043456379   -0.68550416     0.041303775  
   3547000   0.050925572   -0.80807202     0.045035013   -0.68669793     0.028440252  
   3548000   0.051568934   -0.80708513     0.043095727   -0.68668591     0.049896723  
   3549000   0.049446268   -0.80914136     0.04320193    -0.69181788     0.034107505  
   3550000   0.051832646   -0.80795817     0.042133301   -0.68812606     0.056959683  
   3551000   0.050880243   -0.80610511     0.042741576   -0.68709241     0.066267499  
   3552000   0.051885891   -0.806477       0.045945205   -0.68275317     0.052117901  
   3553000   0.050978438   -0.80802791     0.042777142   -0.68883245     0.025342401  
   3554000   0.051279676   -0.80851124     0.04212991    -0.68951144     0.026902665  
   3555000   0.050899647   -0.81020818     0.041718398   -0.69218957     0.044261818  
   3556000   0.051492284   -0.80845549     0.042956309   -0.68831058     0.048672491  
   3557000   0.051767012   -0.80816083     0.043916048   -0.68664436     0.053570295  
   3558000   0.053202002   -0.80875176     0.043238516   -0.68576173     0.037749914  
   3559000   0.054667619   -0.80960188     0.042383691   -0.68526967     0.022002928  
   3560000   0.051759801   -0.80893242     0.043539206   -0.6878036      0.051880114  
   3561000   0.053648732   -0.80996572     0.044287316   -0.68525723     0.029856578  
   3562000   0.05201861    -0.81024215     0.043638091   -0.68862648     0.059353087  
   3563000   0.051118333   -0.81070954     0.042504293   -0.69157722     0.069937477  
   3564000   0.050828412   -0.81123442     0.042547786   -0.6924932      0.072415177  
   3565000   0.051571356   -0.81076583     0.04139074    -0.69206797     0.041949308  
   3566000   0.051144382   -0.80863559     0.04356839    -0.68840012     0.037909621  
   3567000   0.050592291   -0.80968848     0.044223498   -0.6896255      0.062235879  
   3568000   0.052350938   -0.81159451     0.042940588   -0.69017817     0.058720441  
   3569000   0.051430075   -0.81092148     0.044221021   -0.68960512     0.07776024   
   3570000   0.050821001   -0.8103294      0.041639135   -0.69250795     0.056085733  
   3571000   0.051379636   -0.8095683      0.042525052   -0.69002352     0.063872489  
   3572000   0.051729013   -0.8097514      0.042541266   -0.68966667     0.055347407  
   3573000   0.051595513   -0.80945729     0.043333479   -0.68878048     0.057978543  
   3574000   0.05150301    -0.80830212     0.041466831   -0.68963062     0.09557275   
   3575000   0.051555018   -0.80954859     0.043113598   -0.68915236     0.06964302   
   3576000   0.049339504   -0.81127195     0.042264523   -0.69504592     0.056970329  
   3577000   0.050575831   -0.81199056     0.043371764   -0.69280399     0.061435773  
   3578000   0.050159321   -0.80852666     0.043043627   -0.69029259     0.054152272  
   3579000   0.051614605   -0.81086423     0.041926687   -0.69156559     0.063547637  
   3580000   0.049307274   -0.80909454     0.044216219   -0.69096513     0.074294767  
   3581000   0.050659192   -0.80884415     0.043956051   -0.68894833     0.078825333  
   3582000   0.051811981   -0.81047487     0.042988982   -0.68981806     0.039269569  
   3583000   0.050957683   -0.80911787     0.043998465   -0.68873219     0.051590156  
   3584000   0.05125835    -0.81091748     0.041013926   -0.69306563     0.059339223  
   3585000   0.049853025   -0.81192437     0.044557579   -0.6926355      0.043355161  
   3586000   0.04899136    -0.81065402     0.043886081   -0.69332831     0.057527928  
   3587000   0.049023482   -0.80965223     0.043604735   -0.69255972     0.079464911  
   3588000   0.050369055   -0.81078435     0.043321431   -0.69195809     0.077730333  
   3589000   0.051433497   -0.80953285     0.041930282   -0.69050209     0.051580194  
   3590000   0.050949086   -0.80899036     0.042940462   -0.68967558     0.074123774  
   3591000   0.05102431    -0.81000059     0.042427475   -0.69108603     0.042163164  
   3592000   0.052217291   -0.80917842     0.042309214   -0.6885938      0.036090711  
   3593000   0.04960876    -0.8090286      0.044054373   -0.6906091      0.039663888  
   3594000   0.050849855   -0.80951709     0.045023245   -0.68826827     0.05289772   
   3595000   0.052310669   -0.80817847     0.042040344   -0.68772275     0.037607675  
   3596000   0.051688169   -0.80865101     0.042619357   -0.68854942     0.070252419  
   3597000   0.051838224   -0.81119918     0.042107528   -0.69138448     0.056106998  
   3598000   0.04993666    -0.8098238      0.04198946    -0.69297767     0.052381432  
   3599000   0.051277016   -0.81134866     0.042931092   -0.69155167     0.060454966  
   3600000   0.049761484   -0.80763051     0.04261706    -0.69041938     0.058416382  
   3601000   0.049182459   -0.80952121     0.041607748   -0.69418737     0.064902046  
   3602000   0.050108169   -0.81012468     0.041200192   -0.69381073     0.085236189  
   3603000   0.050482407   -0.8097748      0.043399718   -0.69070033     0.047247183  
   3604000   0.051000624   -0.80909925     0.04165709    -0.69099058     0.046180976  
   3605000   0.051301843   -0.80994853     0.043953354   -0.68909206     0.05214643   
   3606000   0.050833488   -0.81020495     0.044314685   -0.68968922     0.017986645  
   3607000   0.052613105   -0.80859414     0.042521283   -0.68720411     0.071033032  
   3608000   0.050345442   -0.80789516     0.041189711   -0.69123601     0.050971919  
   3609000   0.051101199   -0.80974899     0.042392421   -0.69075423     0.053956672  
   3610000   0.048256876   -0.81148481     0.044581955   -0.69456425     0.063422305  
   3611000   0.051000261   -0.80984666     0.042619438   -0.69077619     0.064198378  
   3612000   0.050152788   -0.81164421     0.04390573    -0.69255783     0.059822196  
   3613000   0.05130305    -0.8103068      0.044354898   -0.68904697     0.10569368   
   3614000   0.052277988   -0.80874014     0.04219406    -0.68817969     0.085274873  
   3615000   0.052635588   -0.80957508     0.044197319   -0.68647531     0.06483581   
   3616000   0.052264645   -0.80909283     0.041052546   -0.6896939      0.059009156  
   3617000   0.052455328   -0.80913345     0.042747343   -0.68775388     0.045126111  
   3618000   0.050851344   -0.80790407     0.041623046   -0.69005322     0.091804494  
   3619000   0.052960177   -0.8092697      0.042877594   -0.68700309     0.0639935    
   3620000   0.051221206   -0.80888563     0.043411993   -0.6886914      0.054964098  
   3621000   0.052994509   -0.80797904     0.042741869   -0.6857967      0.038150013  
   3622000   0.050551526   -0.80814672     0.044524969   -0.68784338     0.036024741  
   3623000   0.050066451   -0.80802344     0.042257861   -0.69071435     0.083453326  
   3624000   0.051710685   -0.80998944     0.042485634   -0.68998782     0.025851348  
   3625000   0.051991845   -0.80895509     0.043394964   -0.68762268     0.067283766  
   3626000   0.051938177   -0.80767699     0.04269278    -0.6871272      0.07842532   
   3627000   0.048700424   -0.808226       0.041789744   -0.69343275     0.060254387  
   3628000   0.050204417   -0.80917583     0.043507902   -0.69040989     0.09447956   
   3629000   0.050922031   -0.80830586     0.042235466   -0.68973663     0.049994291  
   3630000   0.050966089   -0.80907069     0.043104595   -0.68956629     0.080247689  
   3631000   0.052813617   -0.81047694     0.043322973   -0.68798465     0.040915871  
   3632000   0.051267728   -0.80967826     0.042598609   -0.69022768     0.066719844  
   3633000   0.051594067   -0.80756443     0.043894865   -0.68632839     0.079346588  
   3634000   0.051749475   -0.80989248     0.043438883   -0.68887947     0.064739455  
   3635000   0.049679773   -0.80823518     0.042779988   -0.69098361     0.11257432   
   3636000   0.050221763   -0.80776132     0.041998682   -0.6904786      0.11074233   
   3637000   0.050875845   -0.80945603     0.043539835   -0.68965166     0.059339349  
   3638000   0.051075502   -0.80801953     0.043181301   -0.6882744      0.064217224  
   3639000   0.051321058   -0.80875926     0.043702743   -0.68812459     0.065133646  
   3640000   0.052556695   -0.8055369      0.042035962   -0.68471675     0.079417586  
   3641000   0.052267404   -0.80952216     0.044112118   -0.68705951     0.048629601  
   3642000   0.051000872   -0.80899693     0.045206741   -0.68733824     0.064576634  
   3643000   0.052873839   -0.80861573     0.042148222   -0.68720791     0.051109798  
   3644000   0.051280866   -0.80963364     0.043236692   -0.68952527     0.073236103  
   3645000   0.052789236   -0.80972683     0.043763126   -0.68683094     0.067205492  
   3646000   0.049941953   -0.80918897     0.043290152   -0.69103422     0.068839889  
   3647000   0.048366817   -0.80999595     0.042761365   -0.69473116     0.081697067  
   3648000   0.049208784   -0.80997783     0.04337967    -0.69283261     0.038684788  
   3649000   0.050507358   -0.80895538     0.043844555   -0.68939866     0.055519768  
   3650000   0.05307861    -0.80881625     0.044166029   -0.68508367     0.023029494  
   3651000   0.052380513   -0.80978979     0.043713333   -0.68755638     0.064103981  
   3652000   0.0502303     -0.80842778     0.042646404   -0.69048454     0.059490536  
   3653000   0.051880302   -0.80892954     0.043789422   -0.68736987     0.048261139  
   3654000   0.051479964   -0.80803196     0.044901557   -0.68596028     0.092201676  
   3655000   0.050779528   -0.80817805     0.044649055   -0.68740884     0.070864999  
   3656000   0.050248858   -0.81022272     0.044566062   -0.690332       0.054872579  
   3657000   0.053773441   -0.81073155     0.044583898   -0.68553953     0.075128143  
   3658000   0.054964664   -0.80934362     0.043385187   -0.68356463     0.08015955   
   3659000   0.051406064   -0.8073573      0.043545159   -0.68675279     0.067813613  
   3660000   0.052336044   -0.81130841     0.043420999   -0.68943399     0.07198068   
   3661000   0.051998333   -0.80983165     0.043410139   -0.68847433     0.072298872  
   3662000   0.048508224   -0.81108562     0.04152237    -0.69684786     0.06710247   
   3663000   0.051741965   -0.81143226     0.043295254   -0.69057414     0.066575667  
   3664000   0.051024697   -0.81023426     0.043057069   -0.69068953     0.05534612   
   3665000   0.051982893   -0.81182985     0.044175759   -0.68973006     0.064709792  
   3666000   0.051136392   -0.80893218     0.043751029   -0.68852605     0.038109898  
   3667000   0.051125203   -0.80933758     0.042582537   -0.69011671     0.05026573   
   3668000   0.050952646   -0.8073546      0.042964744   -0.6880102      0.046245414  
   3669000   0.051994388   -0.80925547     0.042784243   -0.68852996     0.067625156  
   3670000   0.049818      -0.8087981      0.043487905   -0.6906314      0.038632615  
   3671000   0.050163928   -0.80827748     0.043362017   -0.68971812     0.064129446  
   3672000   0.049852975   -0.81052922     0.043140935   -0.69265707     0.036190008  
   3673000   0.050286115   -0.81133167     0.043665464   -0.6922857      0.065700789  
   3674000   0.050645238   -0.80986226     0.042745132   -0.69119828     0.081817135  
   3675000   0.051464444   -0.80886784     0.041870515   -0.68985046     0.059947785  
   3676000   0.051267596   -0.80981405     0.044456602   -0.68850567     0.06397598   
   3677000   0.052931932   -0.81018341     0.044357874   -0.68647886     0.04785805   
   3678000   0.053117472   -0.81209152     0.04495222    -0.68751449     0.058377356  
   3679000   0.05015812    -0.80962174     0.044922288   -0.68951081     0.069306532  
   3680000   0.053386951   -0.81213496     0.041633333   -0.69047287     0.055720414  
   3681000   0.050368334   -0.81154861     0.044084548   -0.69196031     0.026405666  
   3682000   0.050190188   -0.80914912     0.042951637   -0.69096077     0.040323909  
   3683000   0.050490747   -0.80994237     0.042814463   -0.69144065     0.047220587  
   3684000   0.050232246   -0.80925025     0.043346645   -0.69060385     0.065642249  
   3685000   0.04913757    -0.81098299     0.042184281   -0.6951399      0.076226804  
   3686000   0.050290336   -0.80964281     0.041931593   -0.69232438     0.060583343  
   3687000   0.049875425   -0.80690532     0.042745058   -0.68939539     0.069040723  
   3688000   0.052016834   -0.81014139     0.042031307   -0.69013517     0.056667721  
   3689000   0.050643657   -0.80738554     0.042334947   -0.68913412     0.050814278  
   3690000   0.052066572   -0.81170396     0.0403313     -0.69332319     0.061510705  
   3691000   0.049982948   -0.81194559     0.044085099   -0.69293444     0.037527369  
   3692000   0.049541336   -0.80967697     0.039620617   -0.69579229     0.10227554   
   3693000   0.050985394   -0.80901003     0.041461837   -0.69111945     0.076973279  
   3694000   0.052312559   -0.81155232     0.044143542   -0.68899056     0.034974257  
   3695000   0.05260952    -0.80894371     0.044384144   -0.6856962      0.024154166  
   3696000   0.053876483   -0.80931182     0.046772894   -0.68177635     0.064253865  
   3697000   0.052618165   -0.80986767     0.042399489   -0.68859186     0.078386058  
   3698000   0.051922083   -0.80792218     0.042185341   -0.68790396     0.075517273  
   3699000   0.052849718   -0.81029458     0.04309987    -0.68797128     0.10081651   
   3700000   0.051960614   -0.80842606     0.042283618   -0.68825181     0.045596049  
   3701000   0.051582763   -0.81006538     0.041646678   -0.69109448     0.086773884  
   3702000   0.050098114   -0.8066586      0.043160442   -0.68839947     0.048447079  
   3703000   0.050122286   -0.80876186     0.042614849   -0.69101208     0.098397592  
   3704000   0.049525627   -0.80951472     0.04390355    -0.69137065     0.070135393  
   3705000   0.050495934   -0.80949964     0.042892406   -0.6909122      0.072859974  
   3706000   0.053086975   -0.81171396     0.043370031   -0.68876484     0.081054056  
   3707000   0.052379034   -0.81132299     0.043527614   -0.68927751     0.069022778  
   3708000   0.050706503   -0.81002872     0.042262685   -0.69175535     0.061958977  
   3709000   0.052938492   -0.81172397     0.045367859   -0.68699961     0.067293171  
   3710000   0.051655451   -0.80864968     0.041284246   -0.68993224     0.084672689  
   3711000   0.05105004    -0.80924563     0.043883065   -0.68883691     0.067818057  
   3712000   0.050668984   -0.80885145     0.042387264   -0.69050974     0.083226471  
   3713000   0.050773214   -0.81074574     0.042948732   -0.69168632     0.050836076  
   3714000   0.052128619   -0.80969907     0.044433572   -0.68712301     0.093271015  
   3715000   0.050583711   -0.80937732     0.044793914   -0.6887568      0.0690213    
   3716000   0.050856939   -0.80954736     0.043139938   -0.69017123     0.057135485  
   3717000   0.051590885   -0.81185708     0.042977149   -0.69154353     0.045820253  
   3718000   0.051608124   -0.80781513     0.042635913   -0.68781697     0.069554462  
   3719000   0.050722279   -0.81011711     0.041304598   -0.69277818     0.075052569  
   3720000   0.051149901   -0.81289215     0.042288502   -0.69392829     0.061640643  
   3721000   0.051392806   -0.80885402     0.043503012   -0.68831153     0.056509137  
   3722000   0.05151116    -0.81074332     0.045235019   -0.68829141     0.059380206  
   3723000   0.051347515   -0.81133625     0.042558985   -0.69180568     0.068299661  
   3724000   0.051831347   -0.81216821     0.044308043   -0.69016331     0.079120321  
   3725000   0.049251929   -0.8113468      0.044936665   -0.6925799      0.06686666   
   3726000   0.052140247   -0.80957203     0.041569618   -0.6898425      0.043304432  
   3727000   0.051132603   -0.81158776     0.044920817   -0.69001752     0.053133147  
   3728000   0.051405088   -0.81131645     0.042489129   -0.69176944     0.064289324  
   3729000   0.051471291   -0.810522       0.042207471   -0.69115741     0.091884147  
   3730000   0.050393263   -0.81035723     0.043229488   -0.69158661     0.074244334  
   3731000   0.052468      -0.81042362     0.042601087   -0.68917131     0.057767041  
   3732000   0.051291067   -0.81076917     0.045766726   -0.68811548     0.057153591  
   3733000   0.052019337   -0.81089804     0.042456448   -0.69046293     0.11373443   
   3734000   0.050763401   -0.81119335     0.044726824   -0.69037055     0.063676604  
   3735000   0.049716277   -0.81103332     0.042552814   -0.6939542      0.048130478  
   3736000   0.051079974   -0.80956431     0.040285064   -0.69270872     0.096315543  
   3737000   0.051631566   -0.8103882      0.042470593   -0.69052022     0.10465958   
   3738000   0.05010681    -0.81059521     0.043528832   -0.69195465     0.081071625  
   3739000   0.051541819   -0.81181911     0.043466577   -0.69108969     0.073943831  
   3740000   0.051553252   -0.81126516     0.044376885   -0.68960829     0.087853875  
   3741000   0.051543124   -0.80984059     0.043144703   -0.68943108     0.070382133  
   3742000   0.050555383   -0.8121099      0.045634873   -0.69069088     0.060302479  
   3743000   0.051847362   -0.81331701     0.04385557    -0.69174057     0.054707282  
   3744000   0.051647271   -0.80623286     0.042330574   -0.68648136     0.080479196  
   3745000   0.050416889   -0.80963494     0.041317541   -0.69274086     0.081620443  
   3746000   0.051268695   -0.80927111     0.041555623   -0.69086206     0.051264058  
   3747000   0.051867458   -0.81057868     0.04098097    -0.69184672     0.087619377  
   3748000   0.050640779   -0.81043833     0.044129395   -0.69039677     0.058639337  
   3749000   0.051601755   -0.80928265     0.043782671   -0.68814728     0.084195152  
   3750000   0.053416562   -0.81090419     0.043079064   -0.68775197     0.056382985  
   3751000   0.049434319   -0.80936107     0.04470712    -0.69055031     0.091035984  
   3752000   0.052177915   -0.81093305     0.044489012   -0.68822766     0.085725797  
   3753000   0.051982951   -0.80982491     0.045743477   -0.68615731     0.074758026  
   3754000   0.051057781   -0.80792032     0.043760025   -0.68762303     0.086136466  
   3755000   0.05172409    -0.80892454     0.041057918   -0.69033054     0.071557345  
   3756000   0.050085883   -0.80965069     0.043075949   -0.69149439     0.06729461   
   3757000   0.049954406   -0.80884726     0.044970348   -0.68899365     0.064925989  
   3758000   0.052071867   -0.80960351     0.044910496   -0.68663561     0.078420249  
   3759000   0.051401854   -0.80879951     0.042005428   -0.68974104     0.064082753  
   3760000   0.052297776   -0.80981101     0.04082394    -0.69059102     0.077677717  
   3761000   0.050935012   -0.80964603     0.041452218   -0.69184059     0.069699907  
   3762000   0.052775597   -0.80876026     0.044174524   -0.68547341     0.0773957    
   3763000   0.052632946   -0.80894876     0.042956267   -0.68709401     0.098578336  
   3764000   0.051794931   -0.80986035     0.042635161   -0.68958292     0.094195183  
   3765000   0.049072452   -0.80953705     0.043173352   -0.69280251     0.050412071  
   3766000   0.052652977   -0.80845376     0.043404604   -0.68612065     0.064841093  
   3767000   0.052345981   -0.8072634      0.044756345   -0.68403874     0.064936509  
   3768000   0.049898424   -0.80972314     0.046030347   -0.68889345     0.053580333  
   3769000   0.051074463   -0.80891774     0.043591607   -0.68876387     0.032864775  
   3770000   0.051055776   -0.80999549     0.043062238   -0.69039899     0.06443247   
   3771000   0.050905664   -0.81052923     0.043086849   -0.69113315     0.049319848  
   3772000   0.04848493    -0.80779593     0.04389744    -0.69121801     0.07607496   
   3773000   0.051678375   -0.81071032     0.043411091   -0.68983168     0.024712178  
   3774000   0.049914234   -0.80887142     0.043111436   -0.69093693     0.047370794  
   3775000   0.051239685   -0.80816405     0.043888073   -0.68746604     0.035723066  
   3776000   0.051864449   -0.80958444     0.041982463   -0.6898555      0.050142682  
   3777000   0.050551603   -0.81132137     0.041812108   -0.69373078     0.024976897  
   3778000   0.051732336   -0.80795768     0.042017586   -0.68839166     0.060662352  
   3779000   0.051109172   -0.80717575     0.044350997   -0.68621046     0.038618102  
   3780000   0.048893193   -0.80775988     0.042334585   -0.69213283     0.073864878  
   3781000   0.051191869   -0.80726662     0.042443057   -0.6880853      0.05760466   
   3782000   0.047998823   -0.80686514     0.043404975   -0.69150838     0.056978835  
   3783000   0.050272497   -0.81017476     0.041903246   -0.69291141     0.052728838  
   3784000   0.051797369   -0.80993145     0.043192195   -0.68909333     0.012156804  
   3785000   0.05174282    -0.80978047     0.042671942   -0.68954438     0.051989113  
   3786000   0.051034227   -0.8088941      0.044323025   -0.68806912     0.057830858  
   3787000   0.050095761   -0.8086633      0.043954237   -0.6896139      0.079309229  
   3788000   0.051244035   -0.80938814     0.044496147   -0.68807553     0.070728852  
   3789000   0.05113189    -0.80910328     0.044771655   -0.68768328     0.045496524  
   3790000   0.05173409    -0.80997313     0.044876585   -0.68754548     0.058092856  
   3791000   0.050461986   -0.81152324     0.044034225   -0.69184487     0.048516728  
   3792000   0.051545542   -0.80858547     0.044423751   -0.68689329     0.043896095  
   3793000   0.052342288   -0.80829516     0.042228763   -0.68760362     0.04718813   
   3794000   0.051406763   -0.80854898     0.044014035   -0.68747455     0.045418768  
   3795000   0.052081597   -0.80870182     0.045470861   -0.68515897     0.03155042   
   3796000   0.053470453   -0.80912967     0.043955075   -0.68502066     0.056849677  
   3797000   0.050818141   -0.80919931     0.044403384   -0.6886179      0.075197946  
   3798000   0.050926442   -0.80938863     0.04311774    -0.68993051     0.028678625  
   3799000   0.051048393   -0.80698248     0.045042504   -0.68541679     0.039357362  
   3800000   0.051063925   -0.81027927     0.042640542   -0.69109226     0.067042126  
   3801000   0.051908989   -0.81001214     0.042170359   -0.69002853     0.084628419  
   3802000   0.051569431   -0.81011323     0.043609644   -0.68919935     0.079754585  
   3803000   0.052177379   -0.81072201     0.044784885   -0.68772155     0.064147329  
   3804000   0.051925123   -0.80821352     0.042926536   -0.68744955     0.042875404  
   3805000   0.049635105   -0.80702084     0.043435306   -0.68918092     0.072772045  
   3806000   0.050782459   -0.80772557     0.042857709   -0.68874332     0.077514669  
   3807000   0.051506791   -0.81048977     0.044585179   -0.68869425     0.066631062  
   3808000   0.049509108   -0.81021896     0.042966457   -0.69303675     0.025624565  
   3809000   0.053131198   -0.81097408     0.043043589   -0.68828511     0.053054726  
   3810000   0.051781224   -0.8101947      0.045230045   -0.68734293     0.054329754  
   3811000   0.051026292   -0.81053703     0.042137648   -0.69190933     0.054686784  
   3812000   0.051040027   -0.8091642      0.042741431   -0.68991212     0.052880332  
   3813000   0.051079371   -0.80835149     0.043787446   -0.68799442     0.054590461  
   3814000   0.052082322   -0.81081377     0.043768272   -0.68897241     0.040322311  
   3815000   0.050125596   -0.80998506     0.044933672   -0.6899115      0.057864644  
   3816000   0.051471491   -0.80896489     0.04520308    -0.68660439     0.059747014  
   3817000   0.05136933    -0.80995925     0.044691018   -0.68826395     0.044284783  
   3818000   0.052614639   -0.81134691     0.042723656   -0.68975221     0.047937321  
   3819000   0.051518498   -0.81103141     0.044536174   -0.68926734     0.033568714  
   3820000   0.0510944     -0.80852952     0.043995367   -0.687942       0.028568462  
   3821000   0.053691524   -0.81043125     0.042070592   -0.68787533     0.071564809  
   3822000   0.050422589   -0.80929111     0.043152356   -0.69055367     9.4339766e-05
   3823000   0.051714821   -0.81086569     0.04224802    -0.69109549     0.066831753  
   3824000   0.051016743   -0.81099362     0.043021308   -0.69149656     0.063591237  
   3825000   0.050159757   -0.81019317     0.045400611   -0.68960147     0.032850141  
   3826000   0.050372867   -0.81110161     0.044531737   -0.69105932     0.049002507  
   3827000   0.051747414   -0.80968563     0.041881774   -0.69023281     0.0057844615 
   3828000   0.050195304   -0.80908609     0.04183696    -0.69200475     0.048113581  
   3829000   0.051959104   -0.81087173     0.045926774   -0.68705659     0.036529178  
   3830000   0.051260317   -0.81068813     0.043906986   -0.68994027     0.043653463  
   3831000   0.051750983   -0.81056726     0.042868358   -0.69012251    -0.0094927862 
   3832000   0.051082838   -0.80965914     0.04355742    -0.6895269      0.0051096513 
   3833000   0.050573716   -0.80923221     0.043926771   -0.68949381     0.033490781  
   3834000   0.049872082   -0.81051428     0.040735452   -0.69501896     0.040871658  
   3835000   0.053243512   -0.81174344     0.042095749   -0.68983395     0.035443705  
   3836000   0.052050405   -0.80915993     0.043888273   -0.68724643     0.00030789857
   3837000   0.050121893   -0.80961919     0.044266697   -0.69021816     0.047666557  
   3838000   0.05261977    -0.81119635     0.043391236   -0.68892638     0.030614121  
   3839000   0.052519474   -0.81025941     0.044940053   -0.68659097     0.034441848  
   3840000   0.051621659   -0.81089301     0.044738216   -0.68877226     0.028535936  
   3841000   0.053101224   -0.81083434     0.044168148   -0.68706575     0.048010143  
   3842000   0.052359      -0.80912281     0.044697868   -0.68593712     0.070769027  
   3843000   0.052934638   -0.81116882     0.043756266   -0.68806182     0.070553314  
   3844000   0.050837595   -0.81104514     0.043322116   -0.69151583     0.043401814  
   3845000   0.052528934   -0.81058745     0.043133717   -0.68871117     0.045614482  
   3846000   0.052729014   -0.81221733     0.044833091   -0.68834174     0.037864197  
   3847000   0.053642975   -0.81074165     0.042925116   -0.68740398     0.045719518  
   3848000   0.051041578   -0.81007335     0.044673628   -0.68888675     0.026765853  
   3849000   0.050716719   -0.80919939     0.044583551   -0.68858984     0.038488305  
   3850000   0.051236465   -0.81131506     0.041435964   -0.69307398     0.018825507  
   3851000   0.052243216   -0.81033929     0.043831989   -0.68819304     0.02841715   
   3852000   0.052249332   -0.81136889     0.043548196   -0.68949726     0.052115634  
   3853000   0.051692519   -0.81042306     0.045003143   -0.68793117     0.056006658  
   3854000   0.052180657   -0.81018534     0.045747778   -0.68621708     0.053328257  
   3855000   0.052472803   -0.81105268     0.044053048   -0.68834121     0.062607482  
   3856000   0.05029969    -0.80927326     0.04336984    -0.69050256     0.051413012  
   3857000   0.05261104    -0.81025506     0.043299896   -0.68808952     0.06330964   
   3858000   0.051697779   -0.81217602     0.041267506   -0.69341188     0.037828209  
   3859000   0.051027388   -0.81064466     0.042131312   -0.69202165     0.033541094  
   3860000   0.050804693   -0.81054338     0.042896605   -0.6914889      0.043404227  
   3861000   0.05241107    -0.80931229     0.042395252   -0.68835115     0.04850304   
   3862000   0.052416862   -0.81001398     0.042359782   -0.68907963     0.044727362  
   3863000   0.0518234     -0.8097732      0.043562808   -0.68852544     0.029508407  
   3864000   0.051093069   -0.80892308     0.043867018   -0.6884659      0.035338887  
   3865000   0.050468921   -0.80993938     0.045733987   -0.68855085     0.018082726  
   3866000   0.052674033   -0.81068585     0.04321099    -0.68851479     0.07055764   
   3867000   0.050017712   -0.80998119     0.042763567   -0.69223946     0.05087089   
   3868000   0.052164542   -0.81057109     0.042350869   -0.69002389     0.038267404  
   3869000   0.051205263   -0.81079292     0.043201915   -0.69083267     0.034086489  
   3870000   0.05142762    -0.81048667     0.044812991   -0.68858202     0.037620112  
   3871000   0.049833416   -0.80885904     0.045911171   -0.68824597     0.032274758  
   3872000   0.053765725   -0.80956764     0.042342079   -0.686629       0.029982083  
   3873000   0.051212174   -0.81137678     0.044615824   -0.68999226     0.028335709  
   3874000   0.050751731   -0.81200114     0.046421064   -0.6895016      0.022196821  
   3875000   0.052305986   -0.81220209     0.044838926   -0.6889548      0.036987705  
   3876000   0.052893686   -0.81019374     0.042907541   -0.68799686     0.025403648  
   3877000   0.05233923    -0.81041161     0.042889026   -0.68906439     0.044756978  
   3878000   0.052018844   -0.81172267     0.044320339   -0.6894244      0.018055025  
   3879000   0.052605369   -0.80924085     0.043019026   -0.68736468     0.012871308  
   3880000   0.051545359   -0.81077213     0.043687893   -0.68981608     0.037863819  
   3881000   0.051942837   -0.81186048     0.042265587   -0.69173091     0.033892017  
   3882000   0.050377335   -0.81064167     0.042000499   -0.69312393     0.031822525  
   3883000   0.051631703   -0.81069141     0.043082955   -0.69021086     0.019720904  
   3884000   0.049699344   -0.81188393     0.043547807   -0.6938352      0.011341359  
   3885000   0.051753423   -0.81079289     0.044338593   -0.68887425     0.016792213  
   3886000   0.052832032   -0.80902311     0.043758527   -0.68606766     0.049143187  
   3887000   0.050758481   -0.81006022     0.045062374   -0.68890925     0.059641529  
   3888000   0.051521217   -0.80981057     0.042079906   -0.6904987      0.038040296  
   3889000   0.051878073   -0.81042846     0.042592258   -0.6900693      0.041064089  
   3890000   0.052138808   -0.81117297     0.044144632   -0.68887059     0.030130172  
   3891000   0.053386274   -0.80920605     0.043662975   -0.68551533     0.038438125  
   3892000   0.053343946   -0.81113089     0.043117502   -0.68804909     0.048371992  
   3893000   0.050779765   -0.80860955     0.043759571   -0.68872948     0.050054887  
   3894000   0.051020291   -0.81077306     0.045748012   -0.68854399     0.059405984  
   3895000   0.052891432   -0.809073       0.044814059   -0.68497298     0.059928752  
   3896000   0.052701934   -0.81016186     0.045768453   -0.68539151     0.031171066  
   3897000   0.050064587   -0.80849196     0.043286763   -0.69015677     0.069715957  
   3898000   0.051232431   -0.81070258     0.03918502    -0.69471849     0.056687529  
   3899000   0.050440142   -0.81128528     0.042882096   -0.69279178     0.072474274  
   3900000   0.049118743   -0.81026761     0.044046793   -0.69259023     0.086358027  
   3901000   0.051414478   -0.81194905     0.044876943   -0.69000014     0.030905502  
   3902000   0.051517677   -0.810353       0.043283737   -0.6898426      0.049411025  
   3903000   0.051021651   -0.81127064     0.042918455   -0.69186908     0.01681434   
   3904000   0.051069575   -0.81113431     0.041837651   -0.69274172     0.058285534  
   3905000   0.052658206   -0.8094099      0.042161668   -0.68831188     0.069530434  
   3906000   0.050364876   -0.81068615     0.044032031   -0.69115554     0.057109881  
   3907000   0.05146805    -0.81161995     0.046314629   -0.68815306     0.031273579  
   3908000   0.052476231   -0.81036058     0.043932411   -0.6877646      0.036303873  
   3909000   0.051291546   -0.81132477     0.04359196    -0.69084513     0.046018071  
   3910000   0.053206568   -0.80993034     0.042840444   -0.68733154     0.06710806   
   3911000   0.051427926   -0.81080512     0.04394163    -0.68977137     0.064563732  
   3912000   0.05006316    -0.81140096     0.042354624   -0.69400004     0.022684209  
   3913000   0.051413048   -0.81122917     0.042664216   -0.69149514     0.028813555  
   3914000   0.050814659   -0.80924809     0.042215942   -0.69085933     0.027473871  
   3915000   0.051651184   -0.81109347     0.045153124   -0.68851356     0.041088875  
   3916000   0.050494103   -0.80988709     0.042587383   -0.69160742     0.042812887  
   3917000   0.052289293   -0.80936671     0.042195802   -0.68878757     0.062301505  
   3918000   0.049907591   -0.80944085     0.04383066    -0.6907971      0.05347597   
   3919000   0.051088097   -0.80873748     0.04357742    -0.68857736     0.066246858  
   3920000   0.052001946   -0.809652       0.045102529   -0.68659688     0.029232473  
   3921000   0.052120751   -0.81016474     0.04397697    -0.68805708     0.05248619   
   3922000   0.051586218   -0.80820569     0.043683117   -0.68719316     0.051053246  
   3923000   0.050829998   -0.81082606     0.041941285   -0.69268897     0.046354955  
   3924000   0.049349743   -0.81074434     0.044033971   -0.69273351     0.038854868  
   3925000   0.050853215   -0.80877066     0.043175486   -0.68936456     0.070401176  
   3926000   0.051227672   -0.81055916     0.043188881   -0.69057835     0.061351438  
   3927000   0.05096222    -0.81001799     0.041564664   -0.69205932     0.06932987   
   3928000   0.051874885   -0.80987892     0.044213721   -0.68790307     0.049617435  
   3929000   0.050531528   -0.81021226     0.042024052   -0.69243982     0.032880819  
   3930000   0.051246376   -0.81087455     0.042730783   -0.6913238      0.049932877  
   3931000   0.050861683   -0.81024404     0.044325011   -0.68967573     0.027505029  
   3932000   0.052244131   -0.80790942     0.042967889   -0.68662589     0.052103393  
   3933000   0.051054708   -0.8090596      0.042764698   -0.68976225     0.050037206  
   3934000   0.052329427   -0.81102863     0.042523362   -0.69006177     0.020640292  
   3935000   0.051090029   -0.80809096     0.041137345   -0.69036801     0.039605087  
   3936000   0.051066979   -0.81026719     0.042329524   -0.69138662     0.039097329  
   3937000   0.052653011   -0.80956656     0.043297156   -0.68734084     0.017997467  
   3938000   0.052110021   -0.80982391     0.045062562   -0.68664675     0.02161023   
   3939000   0.052434422   -0.80877723     0.043710955   -0.68646539     0.046290287  
   3940000   0.050243146   -0.81085101     0.042784201   -0.69275071     0.029143519  
   3941000   0.050853877   -0.80873223     0.044582175   -0.68791845     0.031044454  
   3942000   0.051618578   -0.80800511     0.043830704   -0.68679649     0.03920384   
   3943000   0.052431909   -0.81109059     0.045598727   -0.68689474     0.040410085  
   3944000   0.049641145   -0.80782303     0.043476259   -0.68993309     0.039038102  
   3945000   0.051351168   -0.80739649     0.042111962   -0.68830748     0.032356717  
   3946000   0.051630753   -0.81203982     0.043595526   -0.69104813     0.044372564  
   3947000   0.052505509   -0.80876008     0.044617862   -0.68543477     0.04855769   
   3948000   0.050395094   -0.80733141     0.041732449   -0.69005509     0.041631249  
   3949000   0.050630919   -0.80813622     0.043800895   -0.68843794     0.058803581  
   3950000   0.050704872   -0.81053459     0.041714768   -0.69281158     0.07088379   
   3951000   0.050115049   -0.81127659     0.042044566   -0.69410795     0.091799578  
   3952000   0.05141704    -0.80800346     0.044541636   -0.68638603     0.07586235   
   3953000   0.05164326    -0.80730289     0.04118209    -0.68870589     0.063348392  
   3954000   0.050008063   -0.80971779     0.044606901   -0.69014718     0.033041233  
   3955000   0.050330013   -0.81047955     0.042571241   -0.692462       0.051598551  
   3956000   0.053229124   -0.81135995     0.044531091   -0.68703669     0.045518421  
   3957000   0.05205805    -0.80932469     0.045985176   -0.68530281     0.07092009   
   3958000   0.053363715   -0.81293156     0.043458287   -0.68947934     0.045825379  
   3959000   0.05021128    -0.80857383     0.043375084   -0.68993041     0.032383125  
   3960000   0.049668969   -0.81036413     0.043193423   -0.69271532     0.052568757  
   3961000   0.049997878   -0.81208974     0.042880054   -0.69426126     0.036548644  
   3962000   0.051030591   -0.8116558      0.040563265   -0.69459603     0.026295839  
   3963000   0.050231594   -0.81239152     0.043577695   -0.69351504     0.017319685  
   3964000   0.050914785   -0.8137104      0.043605597   -0.6937819      0.040191774  
   3965000   0.050902743   -0.81184541     0.042844379   -0.69269618     0.0266483    
   3966000   0.051625817   -0.81095748     0.041841353   -0.69172737     0.033919503  
   3967000   0.050681239   -0.8118619      0.04388653    -0.69200256     0.051348879  
   3968000   0.050515698   -0.81343856     0.04416745    -0.69354645     0.039012716  
   3969000   0.051314978   -0.81060482     0.04155816    -0.69212385     0.037194404  
   3970000   0.050061245   -0.80978199     0.044379852   -0.69035872     0.033409708  
   3971000   0.050562424   -0.81125314     0.044016635   -0.6914418      0.062183168  
   3972000   0.05153462    -0.81289765     0.044531581   -0.69111401     0.025730977  
   3973000   0.05122313    -0.81175601     0.041873428   -0.69309745     0.045813399  
   3974000   0.049477386   -0.81011428     0.042586972   -0.69335912     0.030067841  
   3975000   0.051452374   -0.81123741     0.043926618   -0.69018203     0.028715926  
   3976000   0.050597403   -0.81029908     0.043195607   -0.69125633     0.06087351   
   3977000   0.052364677   -0.81105302     0.043125373   -0.68943131     0.05188093   
   3978000   0.050893673   -0.81042851     0.043315312   -0.69082194     0.044784455  
   3979000   0.053271141   -0.81285526     0.042526307   -0.6904738      0.03644527   
   3980000   0.051373307   -0.81242517     0.044791267   -0.69062366     0.036232553  
   3981000   0.049458858   -0.81188915     0.043054513   -0.69469421     0.043488184  
   3982000   0.050332422   -0.81281409     0.042146986   -0.69521718     0.046612579  
   3983000   0.050485383   -0.81397328     0.041146311   -0.69714776     0.03887364   
   3984000   0.049699688   -0.81059409     0.044130862   -0.69196179     0.056869985  
   3985000   0.051299154   -0.81328054     0.044777365   -0.69160408     0.0388334    
   3986000   0.051440928   -0.81168647     0.041242857   -0.693332       0.046749728  
   3987000   0.049766578   -0.81177125     0.043271175   -0.69389837     0.031364789  
   3988000   0.051284919   -0.81090369     0.042506046   -0.6915199      0.040224735  
   3989000   0.049692918   -0.80932503     0.041805145   -0.6930286      0.054232038  
   3990000   0.05111153    -0.81114083     0.043385357   -0.69113764     0.025608531  
   3991000   0.051822532   -0.81160983     0.045012701   -0.68891348     0.056050777  
   3992000   0.050997036   -0.8118586      0.044612761   -0.69079964     0.070328256  
   3993000   0.05149862    -0.81279373     0.044893733   -0.6907019      0.055168528  
   3994000   0.049763093   -0.81352887     0.04121475    -0.69771764     0.043614904  
   3995000   0.049798128   -0.81272883     0.044042914   -0.69403691     0.053081577  
   3996000   0.04972423    -0.81270341     0.041254119   -0.69691106     0.050953433  
   3997000   0.049575383   -0.8126399      0.04279609    -0.69552871     0.00038354055
   3998000   0.050378291   -0.8109997      0.040591123   -0.69488989     0.027620556  
   3999000   0.051808406   -0.81273803     0.042463587   -0.69261197     0.019447815  
   4000000   0.050646689   -0.81017783     0.041231605   -0.6930252      0.01632806   
   4001000   0.05249175    -0.81348271     0.040838586   -0.6939573      0.034177137  
   4002000   0.051672486   -0.8141757      0.041282686   -0.69543429     0.051353001  
   4003000   0.052076504   -0.8138481      0.042723192   -0.69306055     0.047301708  
   4004000   0.051507158   -0.81235465     0.042151167   -0.69299259     0.035211893  
   4005000   0.049826005   -0.81140052     0.044786921   -0.69192281     0.028253293  
   4006000   0.05051088    -0.81342557     0.042627268   -0.69508087     0.017266103  
   4007000   0.051663707   -0.81324961     0.045565621   -0.69023842     0.042710796  
   4008000   0.051361815   -0.81141862     0.043052078   -0.69137352     0.043060642  
   4009000   0.051987907   -0.8126524      0.041904614   -0.69281624     0.047992207  
   4010000   0.05047165    -0.81049612     0.042074632   -0.69276286     0.055669956  
   4011000   0.050902135   -0.81136042     0.044028276   -0.6910282      0.037791617  
   4012000   0.053238397   -0.81189459     0.043452641   -0.68863587     0.036905272  
   4013000   0.051694447   -0.81157716     0.042512297   -0.69157322     0.062417661  
   4014000   0.052125001   -0.80935706     0.045834033   -0.68538597     0.032445545  
   4015000   0.050800331   -0.81075513     0.043934492   -0.6906693      0.036755231  
   4016000   0.051445388   -0.81286959     0.042026349   -0.69372495     0.04268414   
   4017000   0.051981227   -0.81336471     0.044000282   -0.69144289     0.045381137  
   4018000   0.051802724   -0.81284323     0.043101898   -0.69208738     0.038874292  
   4019000   0.05156003    -0.81268326     0.043541564   -0.69185154     0.042462916  
   4020000   0.051885953   -0.81419164     0.043460745   -0.69295218     0.041051911  
   4021000   0.051410718   -0.81318422     0.041545087   -0.6945728      0.044749398  
   4022000   0.051628991   -0.81466217     0.043230492   -0.69403816     0.025920752  
   4023000   0.051670487   -0.81307898     0.042230198   -0.69339306     0.022433199  
   4024000   0.050327853   -0.81281813     0.041867009   -0.69550804     0.02070676   
   4025000   0.051318389   -0.81210068     0.043482219   -0.69169054     0.014975326  
   4026000   0.050752084   -0.81196876     0.04291393    -0.69297582     0.024737338  
   4027000   0.052310847   -0.81346367     0.043522929   -0.6915251      0.010463884  
   4028000   0.052457301   -0.81321221     0.044402901   -0.69017412     0.019385083  
   4029000   0.052273173   -0.81324585     0.045176595   -0.68971008    -0.0035441426 
   4030000   0.051737718   -0.81305127     0.044775762   -0.690719      -0.0029428128 
   4031000   0.051247186   -0.81307472     0.043609541   -0.692644       0.0033674351 
   4032000   0.052443908   -0.81202103     0.042588111   -0.69081781     0.016152775  
   4033000   0.051212392   -0.81261975     0.04422394    -0.69162678     0.01475802   
   4034000   0.051679579   -0.81181568     0.04249037    -0.69185595     0.0062024805 
   4035000   0.04994666    -0.81261502     0.044581413   -0.69316196     0.01982767   
   4036000   0.050531399   -0.81343257     0.042678175   -0.6950062      0.026007705  
   4037000   0.05024905    -0.81349266     0.043343204   -0.69482451     0.04573184   
   4038000   0.052501685   -0.81373793     0.04265205    -0.69238416     0.019240075  
   4039000   0.051700643   -0.8132947      0.043530479   -0.69226329     0.015209252  
   4040000   0.052597796   -0.81452786     0.045903299   -0.68977877     0.020123266  
   4041000   0.051581013   -0.81300322     0.044926726   -0.6907549      0.020876323  
   4042000   0.049017799   -0.81284985     0.04578785    -0.69358274     0.033228667  
   4043000   0.051322817   -0.81293362     0.041600393   -0.69439867     0.0090936901 
   4044000   0.05048997    -0.81266387     0.042727083   -0.6942507      0.026662174  
   4045000   0.050254279   -0.81271112     0.040594043   -0.69678429     0.04589677   
   4046000   0.051911465   -0.81344895     0.042762596   -0.6928694      0.036502039  
   4047000   0.050143083   -0.81271019     0.04210633    -0.69543776     0.020228009  
   4048000   0.050982205   -0.81305399     0.039849117   -0.69678091     0.014377134  
   4049000   0.051326954   -0.81112987     0.043494935   -0.69069418     0.021215232  
   4050000   0.051154933   -0.81271618     0.042210413   -0.69382287     0.025005151  
   4051000   0.049189342   -0.81499482     0.043506522   -0.69775189     0.040493358  
   4052000   0.051006807   -0.81309105     0.044518444   -0.69211176     0.014759853  
   4053000   0.050772804   -0.81411601     0.042768128   -0.69523781    -0.00050585976
   4054000   0.052674698   -0.81401254     0.043131915   -0.69191955     0.027415966  
   4055000   0.049816412   -0.81224818     0.042986283   -0.69458549     0.020348427  
   4056000   0.051108684   -0.81097846     0.04214434    -0.69222055     0.0038853075 
   4057000   0.051762249   -0.81263922     0.043758139   -0.69128779     0.029829617  
   4058000   0.051280348   -0.81186845     0.045532943   -0.68946461     0.022715105  
   4059000   0.052463327   -0.81100431     0.040895185   -0.69146491     0.022189386  
   4060000   0.049088781   -0.81170971     0.043340715   -0.69478333     0.015004521  
   4061000   0.050476846   -0.81027685     0.043200183   -0.69141025     0.03173421   
   4062000   0.052476228   -0.81340261     0.042160597   -0.69257845     0.012331617  
   4063000   0.050868001   -0.81115832     0.043503975   -0.69140157     0.0037783361 
   4064000   0.050350732   -0.81348735     0.044131525   -0.69387845    -0.0026710665 
   4065000   0.051666146   -0.81318122     0.04351578    -0.69221622     0.025573311  
   4066000   0.05025477    -0.813473       0.04441274    -0.69372674     0.012602953  
   4067000   0.051260076   -0.81341127     0.045284519   -0.69128624     0.022973334  
   4068000   0.050778217   -0.81470397     0.043012051   -0.69557373     0.011486363  
   4069000   0.051048299   -0.81422622     0.043108088   -0.69459509     0.0043075428 
   4070000   0.051849903   -0.81344141     0.041691813   -0.69402491     0.029087436  
   4071000   0.051009538   -0.81426969     0.043150211   -0.69465454     0.015550364  
   4072000   0.05131567    -0.81417537     0.043085974   -0.69416555     0.0090158059 
   4073000   0.050188538   -0.81448143     0.04128335    -0.69796385     0.0063642743 
   4074000   0.049917193   -0.81304973     0.042348508   -0.69587374    -0.0037714481 
   4075000   0.051822509   -0.8131507      0.04202805    -0.69343904     0.00025401052
   4076000   0.052347949   -0.81582346     0.042552564   -0.69479963     0.024891798  
   4077000   0.048920679   -0.81265235     0.043509186   -0.69580949     0.029495851  
   4078000   0.050392625   -0.81387297     0.043776672   -0.69455613     0.024209225  
   4079000   0.050075444   -0.81211976     0.045597633   -0.69145742     0.05571235   
   4080000   0.052856909   -0.81327834     0.041628818   -0.69241531     0.01707333   
   4081000   0.051506134   -0.81400008     0.042437556   -0.69435317     0.035845574  
   4082000   0.051657636   -0.81239776     0.044368045   -0.69059326     0.019483306  
   4083000   0.050778333   -0.8129083      0.042249305   -0.69454064     0.025480297  
   4084000   0.053408331   -0.81244972     0.043111378   -0.68927753     0.036771915  
   4085000   0.051369444   -0.81159448     0.042957116   -0.69163291     0.024251548  
   4086000   0.050041848   -0.81144819     0.043954716   -0.69247913     0.027597727  
   4087000   0.051554517   -0.8114494      0.044786608   -0.68938091     0.024045237  
   4088000   0.050933752   -0.81090157     0.045684718   -0.68886552     0.042653736  
   4089000   0.052201964   -0.8126204      0.043381675   -0.6909863      0.017070105  
   4090000   0.050234463   -0.81099001     0.042343934   -0.69334299     0.038586916  
   4091000   0.049027346   -0.81304389     0.043081136   -0.69646918     0.027115566  
   4092000   0.051651925   -0.81563072     0.042563853   -0.69563897     0.019563331  
   4093000   0.050246627   -0.81201011     0.045331684   -0.69135711     0.02627738   
   4094000   0.05087807    -0.81421973     0.043402796   -0.69454907     0.015782562  
   4095000   0.051875308   -0.81172782     0.044195525   -0.68976954     0.0099906908 
   4096000   0.049449059   -0.81396442     0.045318348   -0.69452033     0.0094149427 
   4097000   0.049513833   -0.81359611     0.044639412   -0.69473387     0.028014077  
   4098000   0.050995273   -0.8133514      0.042203673   -0.69470417     0.038841836  
   4099000   0.050302116   -0.81222369     0.041631025   -0.69518817     0.026066001  
   4100000   0.050866828   -0.81418032     0.042912728   -0.69501658    -0.0088550195 
   4101000   0.05253936    -0.81439805     0.045122867   -0.69051699     0.0024578536 
   4102000   0.052306691   -0.81182422     0.044283562   -0.68913124     0.02302023   
   4103000   0.050936581   -0.81183547     0.043698615   -0.69178128     0.027986998  
   4104000   0.052622228   -0.81253724     0.043563406   -0.69009141     0.0049156269 
   4105000   0.053635552   -0.81231865     0.04311042    -0.68880681     0.019295408  
   4106000   0.051823602   -0.81306514     0.043616309   -0.69176358     0.024928103  
   4107000   0.050647501   -0.80897743     0.043809412   -0.68924578     0.025142753  
   4108000   0.051270428   -0.81252662     0.042723111   -0.69294749     0.049458705  
   4109000   0.053216141   -0.81366545     0.043020577   -0.69087216     0.025832523  
   4110000   0.049755051   -0.81074229     0.042810737   -0.69334713     0.030241181  
   4111000   0.051820137   -0.81235428     0.042823471   -0.69185075     0.022999069  
   4112000   0.051764601   -0.81282557     0.044015629   -0.69121313     0.029865045  
   4113000   0.051445675   -0.81293296     0.045177882   -0.69063635     0.0084603255 
   4114000   0.051180263   -0.81274271     0.044818742   -0.69120311     0.015993964  
   4115000   0.052125663   -0.81396448     0.04485996    -0.69096647     0.023009907  
   4116000   0.051607946   -0.81263609     0.042027485   -0.69324663     0.0085172743 
   4117000   0.050766618   -0.81319925     0.043118872   -0.69397958     0.0020907724 
   4118000   0.050351084   -0.81357683     0.044523949   -0.69357498     0.035992878  
   4119000   0.051976013   -0.8132085      0.042233016   -0.69306176     0.030497011  
   4120000   0.051803785   -0.81377816     0.043666783   -0.69245584     0.010766014  
   4121000   0.051467012   -0.81368487     0.041951341   -0.69458282     0.017305692  
   4122000   0.049743389   -0.81258685     0.042619986   -0.69539992     0.022588302  
   4123000   0.051869104   -0.80986869     0.042605123   -0.68951011     0.036290666  
   4124000   0.052055018   -0.81240425     0.043107758   -0.69126434     0.038123848  
   4125000   0.049834632   -0.81358783     0.043658479   -0.69522563     0.033740522  
   4126000   0.05034334    -0.8128937      0.041625355   -0.69580205     0.0058560929 
   4127000   0.051067811   -0.81349491     0.04546026    -0.69148236     0.013495632  
   4128000   0.049488157   -0.81209889     0.044986692   -0.69292785     0.038847474  
   4129000   0.0497734     -0.81278332     0.044077335   -0.69409405     0.037250067  
   4130000   0.052436636   -0.81147847     0.044352007   -0.68852226     0.031072332  
   4131000   0.052783494   -0.81198416     0.045142124   -0.68771787     0.033432562  
   4132000   0.051051815   -0.81308274     0.043652237   -0.69290218     0.027880353  
   4133000   0.052822092   -0.8128164      0.045068517   -0.68856586     0.022880466  
   4134000   0.052982906   -0.81227459     0.043404792   -0.68944672     0.031669529  
   4135000   0.052446514   -0.81081295     0.043676988   -0.68851695     0.017085395  
   4136000   0.05167415    -0.81254363     0.042853093   -0.69222932     0.013409368  
   4137000   0.050452613   -0.81316267     0.045723458   -0.69180912     0.02549573   
   4138000   0.049267694   -0.81397504     0.043695007   -0.69642617     0.028009251  
   4139000   0.04988327    -0.81300109     0.042664772   -0.69555969     0.039987284  
   4140000   0.050503649   -0.81174902     0.043221922   -0.6928205      0.02720837   
   4141000   0.051643246   -0.81250096     0.042124576   -0.6929615      0.04400654   
   4142000   0.050365934   -0.8142521      0.043878615   -0.69487333     0.0085023862 
   4143000   0.050793337   -0.8127519      0.044902036   -0.69170901     0.026702929  
   4144000   0.05090931    -0.81248065     0.042864571   -0.69330139     0.029166617  
   4145000   0.050911589   -0.81238032     0.042624262   -0.69343794     0.034338037  
   4146000   0.04908667    -0.81199957     0.04303309    -0.69538398     0.0078835318 
   4147000   0.049978149   -0.8126492      0.041925784   -0.69580456     0.032448444  
   4148000   0.049247807   -0.813198       0.042329324   -0.69704462     0.013077318  
   4149000   0.048619711   -0.81250565     0.044304307   -0.69531883     0.032088683  
   4150000   0.050201112   -0.81332488     0.04384057    -0.69423122     0.031151     
   4151000   0.051720723   -0.81312058     0.043770724   -0.69181882     0.03164845   
   4152000   0.049310532   -0.81275232     0.044515933   -0.69431831     0.029656072  
   4153000   0.048879261   -0.8130944      0.04393267    -0.69589014     0.021545749  
   4154000   0.04989152    -0.81305458     0.044203294   -0.69406229     0.029266497  
   4155000   0.051018048   -0.81242362     0.04311135    -0.69283457     0.04773315   
   4156000   0.050761856   -0.80959476     0.043431416   -0.69006968     0.022568106  
   4157000   0.050240743   -0.81280337     0.042563281   -0.6949276      0.030021012  
   4158000   0.051664927   -0.80995828     0.042724295   -0.68978659     0.065551061  
   4159000   0.051461511   -0.81018902     0.04203938    -0.69100718     0.03778278   
   4160000   0.051233041   -0.81081035     0.044882418   -0.68912795     0.064068231  
   4161000   0.050994838   -0.81320728     0.044545611   -0.69221876     0.0299679    
   4162000   0.050604768   -0.81313131     0.043086776   -0.69418636     0.033000338  
   4163000   0.049596988   -0.81342801     0.043404157   -0.69567637     0.053052067  
   4164000   0.05150114    -0.81125216     0.041918969   -0.69213132     0.044351306  
   4165000   0.051681516   -0.81377333     0.045033822   -0.69126725     0.047712161  
   4166000   0.053212553   -0.81124677     0.042497759   -0.68898168     0.035828874  
   4167000   0.053271812   -0.81504753     0.046679345   -0.68851202     0.021475873  
   4168000   0.051539204   -0.81248269     0.045495582   -0.68972818     0.017420295  
   4169000   0.05085306    -0.81124224     0.043194119   -0.69181774     0.037947874  
   4170000   0.050177615   -0.81295643     0.044064855   -0.69367371     0.019289556  
   4171000   0.051960901   -0.81324892     0.043371225   -0.69198663     0.030464495  
   4172000   0.05149021    -0.8128709      0.041889318   -0.6937961      0.03611803   
   4173000   0.050941871   -0.81074029     0.043593612   -0.69078316     0.032314969  
   4174000   0.052671381   -0.81245209     0.044355174   -0.68914081     0.020884391  
   4175000   0.052029594   -0.8108332      0.042662571   -0.69017659     0.039256934  
   4176000   0.050229425   -0.81340723     0.041874597   -0.6962371      0.015345406  
   4177000   0.052509716   -0.81479476     0.044794958   -0.69128605     0.0013086589 
   4178000   0.052654604   -0.81147264     0.044946889   -0.6875948      0.055999876  
   4179000   0.051789544   -0.8117261      0.047186373   -0.68690553     0.054513588  
   4180000   0.050926614   -0.81326975     0.044235169   -0.69269394     0.028652719  
   4181000   0.051675466   -0.81418911     0.043210729   -0.69351519     0.053290389  
   4182000   0.051233497   -0.81222936     0.044178519   -0.69125018     0.048495939  
   4183000   0.051744935   -0.8109196      0.042424803   -0.69092747     0.037452965  
   4184000   0.050860269   -0.81163171     0.045162924   -0.6902276      0.054395895  
   4185000   0.05184408    -0.81248878     0.043573033   -0.6911998      0.017623239  
   4186000   0.053155917   -0.81016319     0.043234255   -0.68724651     0.01442847   
   4187000   0.051760264   -0.81125359     0.041731352   -0.69193194     0.021770644  
   4188000   0.051378827   -0.81103769     0.041644061   -0.69237511    -0.0032976925 
   4189000   0.052603927   -0.81249017     0.044362517   -0.68927267     0.045757226  
   4190000   0.050996908   -0.81455727     0.043208225   -0.69490303     0.044425788  
   4191000   0.05201692    -0.81278173     0.044069784   -0.69073691     0.018083645  
   4192000   0.05096648    -0.81355665     0.041206479   -0.69594977     0.047975663  
   4193000   0.051135295   -0.81055482     0.043832156   -0.6900692      0.025025338  
   4194000   0.05236024    -0.81210205     0.045011039   -0.68860133     0.035122757  
   4195000   0.05162458    -0.81452546     0.044903871   -0.69223468     0.04591366   
   4196000   0.050089891   -0.81386613     0.047112619   -0.69166715     0.017316175  
   4197000   0.050878615   -0.81227949     0.046707206   -0.6893036      0.031343464  
   4198000   0.050877915   -0.81356894     0.043583341   -0.69371797     0.027394574  
   4199000   0.050551094   -0.81253325     0.044520083   -0.69223545     0.022183947  
   4200000   0.051203749   -0.8138639      0.044575137   -0.69253269     0.028883158  
   4201000   0.05182023    -0.81426202     0.043905385   -0.69267644     0.033818563  
   4202000   0.05280177    -0.81428928     0.044381052   -0.69075667     0.022957192  
   4203000   0.05117716    -0.81449022     0.042788064   -0.69498594     0.0097770747 
   4204000   0.051071492   -0.81424382     0.044105992   -0.69358002     0.022861853  
   4205000   0.050479404   -0.81030365     0.04491369    -0.6897197      0.022204277  
   4206000   0.05172813    -0.81382941     0.044188068   -0.69209921     0.032543863  
   4207000   0.050528287   -0.81240747     0.043669159   -0.69299477     0.021546971  
   4208000   0.052284346   -0.81434282     0.044159711   -0.69180719     0.036078532  
   4209000   0.051045937   -0.81370969     0.04548848    -0.6917017      0.040503561  
   4210000   0.051231353   -0.81191833     0.044933825   -0.69018706     0.023220632  
   4211000   0.05334907    -0.81354067     0.045274259   -0.68829443     0.038925147  
   4212000   0.051213818   -0.81335888     0.043662741   -0.69292498     0.034886418  
   4213000   0.05150134    -0.81331661     0.041821587   -0.69429285     0.058368302  
   4214000   0.050867665   -0.81369994     0.042770965   -0.69467671     0.043964032  
   4215000   0.052733552   -0.81546837     0.045248202   -0.69117088     0.0074717587 
   4216000   0.052798144   -0.81245819     0.04576021    -0.68755186     0.03310457   
   4217000   0.052433153   -0.81394778     0.044584669   -0.69076412     0.036334637  
   4218000   0.053021797   -0.81406944     0.044787461   -0.6898006      0.011374787  
   4219000   0.052469934   -0.81431184     0.0449999     -0.69065781     0.045053069  
   4220000   0.050267472   -0.81256635     0.045785119   -0.69142867     0.036388248  
   4221000   0.052548116   -0.8133831      0.041978328   -0.69263345     0.038988521  
   4222000   0.052928303   -0.81371402     0.044247846   -0.69012494     0.020706334  
   4223000   0.052738482   -0.81357475     0.042206824   -0.69231124     0.017218964  
   4224000   0.051492603   -0.8131143      0.043808069   -0.69211716     0.021459358  
   4225000   0.051240926   -0.81445758     0.044216671   -0.69342911     0.024676646  
   4226000   0.052999292   -0.81460034     0.043079944   -0.69207274     0.026155578  
   4227000   0.049687137   -0.8138327      0.044114761   -0.69523532     0.0049742915 
   4228000   0.05138647    -0.81240855     0.043719791   -0.69165878     0.031877446  
   4229000   0.050131319   -0.81275936     0.044003      -0.6936079      0.029411564  
   4230000   0.049764724   -0.81231122     0.043388153   -0.69432414     0.030607604  
   4231000   0.051560518   -0.8137601      0.044139623   -0.6923296     -0.0040226441 
   4232000   0.051295302   -0.81368374     0.044978801   -0.69181163    -0.0036415127 
   4233000   0.049015467   -0.81227793     0.045082183   -0.69371998     0.02503755   
   4234000   0.052270982   -0.81410875     0.043457097   -0.69229577     0.0073848764 
   4235000   0.051651478   -0.81357768     0.044647714   -0.69150273     0.027289823  
   4236000   0.049795665   -0.81349116     0.04263262    -0.69621323     0.025481208  
   4237000   0.051597186   -0.81310341     0.042633398   -0.69312416     0.0063022722 
   4238000   0.052190616   -0.81255756     0.043097443   -0.6912247      0.023582727  
   4239000   0.052682428   -0.81283869     0.044892489   -0.68897354     0.012149259  
   4240000   0.05178268    -0.81421271     0.043853922   -0.69273488     0.020699545  
   4241000   0.0529883     -0.81221863     0.043603147   -0.68918432    -0.0034120404 
   4242000   0.051665181   -0.81152392     0.041609577   -0.69246657     0.031197403  
   4243000   0.051389042   -0.81471992     0.041906422   -0.69577967     0.0063128346 
   4244000   0.052967763   -0.81422268     0.0429543     -0.69186799     0.013552229  
   4245000   0.050833567   -0.81422443     0.04193937    -0.6960839     -0.018586385  
   4246000   0.048901495   -0.8132305      0.042852222   -0.69707336     0.008128689  
   4247000   0.051684175   -0.81375926     0.040872397   -0.69541061     0.021479893  
   4248000   0.05132798    -0.81313277     0.042008013   -0.69418246     0.0024499645 
   4249000   0.051424854   -0.81396619     0.04333519    -0.69354349     0.0081058633 
   4250000   0.04919628    -0.81464104     0.044084955   -0.69680928     0.017989708  
   4251000   0.051033739   -0.81528795     0.044004123   -0.6947826      0.015651524  
   4252000   0.0539987     -0.81634752     0.043927027   -0.6914747      0.0022539292 
   4253000   0.050659697   -0.81332321     0.043237123   -0.69414556    -0.0014158359 
   4254000   0.051844731   -0.81358281     0.041588275   -0.69427761     0.01576969   
   4255000   0.051871905   -0.81267557     0.041230032   -0.69368788     0.0019390503 
   4256000   0.050000744   -0.81507253     0.043478366   -0.69664144     0.02211329   
   4257000   0.052798631   -0.81443506     0.04314474    -0.69214347     0.0050805766 
   4258000   0.05111928    -0.81468684     0.043623268   -0.69443413     0.014512465  
   4259000   0.050920786   -0.81499463     0.043834875   -0.69482785     0.023185479  
   4260000   0.051392436   -0.81373142     0.042894338   -0.69379816     0.039144016  
   4261000   0.049881721   -0.81449098     0.045035805   -0.69468087     0.0056372088 
   4262000   0.051548314   -0.81521874     0.046718889   -0.69122726     0.0086103277 
   4263000   0.051931954   -0.81300014     0.043979504   -0.69117296     0.0013629973 
   4264000   0.051768878   -0.81379851     0.043047241   -0.69314805    -0.0053485239 
   4265000   0.050436878   -0.81336061     0.042394372   -0.69535973     0.023870522  
   4266000   0.050786574   -0.81323387     0.045696979   -0.69140618     0.0028492667 
   4267000   0.051553692   -0.81437579     0.044323558   -0.69277159     0.0083485263 
   4268000   0.051813593   -0.81512643     0.043140847   -0.69431533     0.0033645743 
   4269000   0.051176762   -0.81303316     0.042471665   -0.69384587     0.026638381  
   4270000   0.051258889   -0.81084919     0.0463655     -0.68764496    -0.0063910408 
   4271000   0.05109499    -0.81337844     0.043419845   -0.69336556    -0.0031917629 
   4272000   0.051520518   -0.81159934     0.044621769   -0.68974665     0.029380547  
   4273000   0.053414552   -0.81266496     0.045662848   -0.68693197    -0.0087738071 
   4274000   0.05148244    -0.81644784     0.045604559   -0.69366944    -0.0061394447 
   4275000   0.053488174   -0.81531465     0.045490513   -0.68964364    -0.018738803  
   4276000   0.051804446   -0.81365015     0.045416405   -0.69057721     0.011899788  
   4277000   0.051477675   -0.81332093     0.043915461   -0.69223878     0.0012042517 
   4278000   0.052112661   -0.81247676     0.045105954   -0.68925224     0.024965609  
   4279000   0.050500453   -0.81278354     0.045153768   -0.69192797     0.017322156  
   4280000   0.05066782    -0.81497394     0.0433269     -0.69569434     0.019036992  
   4281000   0.049760215   -0.81554207     0.043817694   -0.69713221    -0.0088786394 
   4282000   0.05185119    -0.81454246     0.042146414   -0.69466944     0.012590275  
   4283000   0.04908733    -0.81265919     0.044037166   -0.69503854     0.039077423  
   4284000   0.051092021   -0.81317927     0.042705487   -0.69388519     0.026838223  
   4285000   0.051393045   -0.8133081      0.044044189   -0.69222408     0.016935453  
   4286000   0.050837464   -0.81298064     0.04477483    -0.69199881     0.032689085  
   4287000   0.050375329   -0.81499987     0.044228197   -0.69525743     0.00045921961
   4288000   0.051834711   -0.81392559     0.042242994   -0.6939807      0.019792068  
   4289000   0.052909682   -0.81616885     0.043485145   -0.69337038     0.0084325182 
   4290000   0.051063825   -0.81339181     0.046224475   -0.69062101     0.0093189927 
   4291000   0.053596761   -0.81423381     0.041922518   -0.69196802     0.023313057  
   4292000   0.050828949   -0.81169012     0.043453565   -0.69204232     0.0038728957 
   4293000   0.05155937    -0.81612044     0.043456911   -0.69537437     0.037977724  
   4294000   0.050929541   -0.81354048     0.043784075   -0.69341138     0.010509534  
   4295000   0.051260452   -0.81280698     0.04476036    -0.69120555     0.014587932  
   4296000   0.053281595   -0.81342343     0.045099257   -0.68845334     0.0039156739 
   4297000   0.052765793   -0.81296058     0.044722135   -0.68914082     0.02500481   
   4298000   0.05319774    -0.81275223     0.04467062    -0.68833648     0.015376156  
   4299000   0.051678611   -0.81236005     0.043841702   -0.69105044     0.0012685326 
   4300000   0.05111048    -0.81055457     0.044813415   -0.68912489     0.0014474655 
   4301000   0.051180417   -0.81387017     0.043442432   -0.69370664     0.024400325  
   4302000   0.051310961   -0.81393298     0.044255591   -0.69276061     0.035119999  
   4303000   0.053260632   -0.81406103     0.043613365   -0.69060826     0.021863118  
   4304000   0.051631909   -0.8146323      0.04248048    -0.69475392     0.017917814  
   4305000   0.051790814   -0.81409314     0.043351535   -0.6931055      0.0011845843 
   4306000   0.049995828   -0.81376878     0.041805316   -0.69701811    -0.00029083083
   4307000   0.05014652    -0.81485395     0.044537281   -0.69514542     0.0025945458 
   4308000   0.050526342   -0.81519035     0.04389184    -0.69555789     0.0084892666 
   4309000   0.050817969   -0.81543538     0.043415429   -0.69584218     0.014307535  
   4310000   0.049875189   -0.81312568     0.041608827   -0.69675234     0.025064238  
   4311000   0.050661054   -0.81583886     0.044389318   -0.69550699     0.0095449423 
   4312000   0.05200306    -0.81268043     0.044177389   -0.69054878    -0.0011478198 
   4313000   0.053351955   -0.81230277     0.041996837   -0.69032963     0.0011499709 
   4314000   0.052275737   -0.81433438     0.045253856   -0.6907175      0.035106135  
   4315000   0.050922068   -0.81422805     0.04554206    -0.69235217     0.010325351  
   4316000   0.052771228   -0.81415606     0.044421861   -0.69062842     0.011606274  
   4317000   0.053896728   -0.81468514     0.044096398   -0.68979581     0.0048925189 
   4318000   0.050377181   -0.8134578      0.044730841   -0.69320994    -0.0041619214 
   4319000   0.050184512   -0.81342753     0.043690676   -0.69450865     0.030057838  
   4320000   0.050856738   -0.81404713     0.042749597   -0.69506164     0.01009659   
   4321000   0.051590014   -0.81569642     0.044126085   -0.69423524     0.00804925   
   4322000   0.052593006   -0.81267697     0.043351638   -0.69048671     0.010865829  
   4323000   0.050978367   -0.81321883     0.043016618   -0.69378399    -0.012443463  
   4324000   0.050791599   -0.81308568     0.04360274    -0.69334469     0.025026724  
   4325000   0.051520563   -0.81316167     0.0440504     -0.69188029     0.00172962   
   4326000   0.052572802   -0.81238004     0.042229103   -0.69134261     0.018098795  
   4327000   0.051040263   -0.81388291     0.04337111    -0.6940008      0.011836172  
   4328000   0.051824197   -0.8137703      0.042296448   -0.69378771     0.018389511  
   4329000   0.051416251   -0.81356037     0.044439307   -0.69204645     0.0082856307 
   4330000   0.052808209   -0.81371247     0.042989013   -0.69156225     0.023646961  
   4331000   0.051039286   -0.81069113     0.042004415   -0.69217717     0.013608626  
   4332000   0.046607905   -0.81174626     0.043768762   -0.69811074     0.010110271  
   4333000   0.049719062   -0.81310895     0.041938899   -0.69663957     0.014713846  
   4334000   0.053085727   -0.81403214     0.041397209   -0.69305772     0.02960742   
   4335000   0.051449799   -0.81272419     0.041816536   -0.69378275     0.010092859  
   4336000   0.052169453   -0.81474148     0.042630323   -0.69390746     0.014789368  
   4337000   0.051496776   -0.81388089     0.04316774    -0.69351782     0.0061870643 
   4338000   0.050866792   -0.81386398     0.043905649   -0.69370737     0.013808179  
   4339000   0.050050392   -0.8118528      0.044355467   -0.69247018     0.0070660816 
   4340000   0.051172425   -0.81285813     0.043880417   -0.6922686      0.012616806  
   4341000   0.050715247   -0.81433995     0.04297543    -0.69534073    -0.00075359847
   4342000   0.054552479   -0.81525782     0.041528426   -0.69195347    -0.0096942369 
   4343000   0.052214804   -0.81433355     0.046496776   -0.6895651     -0.011213883  
   4344000   0.053239623   -0.81327267     0.04303518    -0.69042958    -0.0050500079 
   4345000   0.052178131   -0.81255965     0.04207861    -0.69226434     0.028881133  
   4346000   0.051638039   -0.81475592     0.0415826     -0.69576623     0.025266437  
   4347000   0.051527988   -0.81447079     0.045422474   -0.6918062      0.0086266461 
   4348000   0.051666358   -0.81427951     0.044194628   -0.69263534     0.010777383  
   4349000   0.050406314   -0.81178598     0.042510181   -0.69371511     0.028882636  
   4350000   0.050531833   -0.81308456     0.044253507   -0.6930822      0.0025750119 
   4351000   0.051386813   -0.81457369     0.043210288   -0.69433292    -0.013715714  
   4352000   0.054825776   -0.81320926     0.045235802   -0.68578785     0.024939865  
   4353000   0.052456238   -0.81345586     0.043227433   -0.69159483     0.0046161238 
   4354000   0.052615494   -0.81590079     0.043327376   -0.69370109    -0.0044900093 
   4355000   0.052457345   -0.8128982      0.042728324   -0.69153462     0.010082432  
   4356000   0.050103451   -0.81404264     0.044252022   -0.69468392    -0.0019081487 
   4357000   0.05195378    -0.81359008     0.043105696   -0.69260399     0.021839845  
   4358000   0.051908095   -0.81531998     0.043870193   -0.69363788     0.035664939  
   4359000   0.050019434   -0.81250753     0.043346535   -0.69418025     0.017489812  
   4360000   0.05134804    -0.81399631     0.043359358   -0.69366459    -0.0036985877 
   4361000   0.050806003   -0.81352294     0.041920858   -0.69544224     0.0037061456 
   4362000   0.050990593   -0.81337103     0.044499325   -0.69243516     0.0081034101 
   4363000   0.0517884     -0.81473192     0.043131822   -0.69396761     0.021956905  
   4364000   0.051927817   -0.81334029     0.045120402   -0.69037841     0.026227939  
   4365000   0.052494609   -0.81341634     0.045462269   -0.68926296     0.0075851299 
   4366000   0.053529528   -0.81386588     0.0430675     -0.69055589     0.04744169   
   4367000   0.053829708   -0.81330315     0.045083579   -0.6875271      0.014450281  
   4368000   0.052401217   -0.81306941     0.045271741   -0.68924655     0.026751558  
   4369000   0.051125662   -0.81490119     0.043341896   -0.69492028     0.025943362  
   4370000   0.050975161   -0.81444422     0.045132297   -0.69289851     0.014863939  
   4371000   0.053437947   -0.81233774     0.043201586   -0.68903094     0.019994248  
   4372000   0.051037073   -0.81597463     0.044252702   -0.69521571     0.019970127  
   4373000   0.052407175   -0.81476726     0.042933033   -0.69327418     0.013353306  
   4374000   0.049927409   -0.81691813     0.044369271   -0.69770606     0.0053208709 
   4375000   0.050331771   -0.81499415     0.04524326    -0.69430195     0.01582013   
   4376000   0.052682545   -0.81347297     0.04237723    -0.69212291     0.0077349175 
   4377000   0.051519137   -0.8134306      0.04457333    -0.69162842     0.0109715    
   4378000   0.050638375   -0.81360521     0.045382923   -0.69231373     0.0089012053 
   4379000   0.051967532   -0.81254507     0.04499897    -0.68964509     0.02395815   
   4380000   0.050082748   -0.8138961      0.041484505   -0.69733594     0.006435599  
   4381000   0.051290747   -0.81260934     0.044304736   -0.69141812     0.015656356  
   4382000   0.051689218   -0.81415707     0.044127222   -0.69254604     0.028949183  
   4383000   0.051490769   -0.81383145     0.043423322   -0.69322181     0.021415581  
   4384000   0.050457661   -0.81527305     0.048110678   -0.69152471    -0.0040293778 
   4385000   0.053122143   -0.81550943     0.043863332   -0.69201429     0.016456267  
   4386000   0.052405317   -0.81585807     0.044903289   -0.69239752    -0.0043908011 
   4387000   0.051059425   -0.8140027      0.04387099    -0.69359198     0.010150905  
   4388000   0.050232565   -0.81361098     0.043016736   -0.69529401     0.016931991  
   4389000   0.051978534   -0.81446087     0.045045439   -0.69149793     0.016389611  
   4390000   0.052081082   -0.81404109     0.043908774   -0.69206109     0.018806873  
   4391000   0.0523411     -0.81166987     0.043131791   -0.69007708     0.01589297   
   4392000   0.052997543   -0.81295732     0.043997663   -0.68951463     0.020926756  
   4393000   0.051155452   -0.81360221     0.043737429   -0.6931811      0.0044871151 
   4394000   0.051399475   -0.81251633     0.043353763   -0.69211309     0.035318481  
   4395000   0.050333193   -0.81521493     0.043429895   -0.69633395     0.0319688    
   4396000   0.052405278   -0.81573742     0.044867455   -0.69231277     0.023474734  
   4397000   0.052275454   -0.81583694     0.045537676   -0.69193668     0.015181859  
   4398000   0.049718464   -0.81322937     0.045027456   -0.69367233     0.032687979  
   4399000   0.052078642   -0.81517357     0.045103292   -0.69200272     0.031426573  
   4400000   0.052046787   -0.81450685     0.043983878   -0.69250316     0.046070867  
   4401000   0.052365457   -0.81540943     0.045444565   -0.69146736     0.014559647  
   4402000   0.052850845   -0.81478144     0.041930099   -0.69362622     0.029012687  
   4403000   0.053850611   -0.81443547     0.043482019   -0.69022965     0.02775369   
   4404000   0.050793752   -0.81245478     0.045699903   -0.6906134      0.040943208  
   4405000   0.051782559   -0.8144109      0.044553826   -0.69223334     0.040538185  
   4406000   0.049312115   -0.81347916     0.045376859   -0.69418185     0.011511415  
   4407000   0.051018723   -0.81567459     0.045116066   -0.69407981     0.013260383  
   4408000   0.051880695   -0.814314       0.04358196    -0.6929612      0.024754225  
   4409000   0.052254505   -0.81468957     0.044636942   -0.69172144     0.01700714   
   4410000   0.051835362   -0.81531217     0.042658061   -0.69495123     0.028767475  
   4411000   0.051115572   -0.81419434     0.04483208    -0.69273837     0.021653825  
   4412000   0.052070047   -0.81271291     0.045364789   -0.68929344    -0.00060988621
   4413000   0.049862629   -0.81506939     0.043249138   -0.69707456     0.0095415396 
   4414000   0.052884683   -0.8116883      0.042533525   -0.68987893     0.030010631  
   4415000   0.051762048   -0.81580396     0.044161815   -0.69404917     0.02738458   
   4416000   0.051831652   -0.81501487     0.044481851   -0.6928357      0.011146844  
   4417000   0.050690608   -0.81375744     0.045178672   -0.69259191     0.027712726  
   4418000   0.051919639   -0.81329068     0.044342889   -0.69111858     0.010163798  
   4419000   0.050832415   -0.815757       0.043253691   -0.69630388     0.016536294  
   4420000   0.051277595   -0.81435217     0.042425616   -0.69505979     0.019903247  
   4421000   0.051306388   -0.81357493     0.043743856   -0.69292114    -7.9038093e-05
   4422000   0.05193525    -0.81526736     0.043194227   -0.69422052     0.011453885  
   4423000   0.052593849   -0.81401741     0.042339709   -0.69283783     0.0018452872 
   4424000   0.051200154   -0.81328638     0.044387492   -0.6921482      0.024920693  
   4425000   0.053019419   -0.81323359     0.045736736   -0.68801904     0.013531689  
   4426000   0.051632558   -0.81423401     0.045282238   -0.6915529      0.0053465895 
   4427000   0.052037303   -0.81415965     0.041644086   -0.69450997     0.0054544059 
   4428000   0.052107405   -0.81381954     0.042595523   -0.69311333    -0.00082406946
   4429000   0.052340237   -0.81525169     0.042596294   -0.69419569     0.017157799  
   4430000   0.052258962   -0.81380163     0.042281668   -0.6931821      0.021173517  
   4431000   0.052106222   -0.81191343     0.04384452    -0.68996        0.0025651446 
   4432000   0.053386059   -0.81271357     0.044267895   -0.68841825     0.02356472   
   4433000   0.051343898   -0.8144492      0.042457177   -0.69502586     0.0033797951 
   4434000   0.050118172   -0.8135471      0.045252039   -0.69316631     0.0034455562 
   4435000   0.051977032   -0.81353372     0.045559634   -0.69005884     0.01342606   
   4436000   0.053530953   -0.81069792     0.043077419   -0.68737588     0.001469379  
   4437000   0.053317924   -0.81209476     0.042001861   -0.69016761    -0.011065914  
   4438000   0.051466072   -0.81382293     0.045200183   -0.69147344    -0.0015849253 
   4439000   0.049473737   -0.81531634     0.042795092   -0.69835852     0.023901205  
   4440000   0.049454341   -0.81710522     0.042431791   -0.70053978     0.029258323  
   4441000   0.052003476   -0.81462686     0.043346272   -0.6933257      0.0090510445 
   4442000   0.052108579   -0.81133724     0.044487166   -0.68873763     0.021299981  
   4443000   0.052158233   -0.81384916     0.043109674   -0.69255261    -0.00033738257
   4444000   0.05353361    -0.815305       0.044228509   -0.69082789    -0.013380534  
   4445000   0.0515251     -0.81346684     0.043990375   -0.69223868     0.018467574  
   4446000   0.052381879   -0.81292634     0.046322792   -0.68808142     0.0031989479 
   4447000   0.051607366   -0.811981       0.044423735   -0.69019615     0.012799742  
   4448000   0.051792248   -0.8104789      0.046717914   -0.68612273     0.010989246  
   4449000   0.052404456   -0.80947163     0.044779339   -0.68613632     0.024429197  
   4450000   0.053351805   -0.81061324     0.044807424   -0.68582974     0.0068519212 
   4451000   0.053736194   -0.81351442     0.042049645   -0.69091249     0.002121399  
   4452000   0.049659927   -0.81086701     0.04042299    -0.69600219     0.0077429756 
   4453000   0.051715697   -0.81136196     0.042217973   -0.69162049    -0.0039476353 
   4454000   0.05251203    -0.81190124     0.043398476   -0.68978554     0.010256998  
   4455000   0.052568239   -0.81253468     0.044128296   -0.6896049     -0.0030927892 
   4456000   0.051105425   -0.81298417     0.043612819   -0.69276267    -0.0040528807 
   4457000   0.050508043   -0.81102792     0.043383202   -0.69193154    -0.010345217  
   4458000   0.054816707   -0.81325328     0.042376582   -0.68870469    -0.00090767286
   4459000   0.051014941   -0.81110133     0.043174652   -0.69145364     0.015047624  
   4460000   0.049980105   -0.81271185     0.044754176   -0.69303589     0.0060987139 
   4461000   0.052369301   -0.8117226      0.042402464   -0.69081686     5.5197849e-06
   4462000   0.050541755   -0.81226467     0.043350022   -0.69315093    -0.0069857461 
   4463000   0.050557375   -0.81205924     0.04323473    -0.69303737    -0.0051793325 
   4464000   0.050622353   -0.81179825     0.043518454   -0.69239525    -0.0058512342 
   4465000   0.05077954    -0.81291529     0.044550605   -0.69224451    -0.01055305   
   4466000   0.051343049   -0.81103655     0.044223855   -0.68984781    -0.004160408  
   4467000   0.051490995   -0.81155572     0.043165194   -0.69120387     0.0036586576 
   4468000   0.05129164    -0.81249168     0.045121317   -0.69048254     0.0014053246 
   4469000   0.049501308   -0.81343792     0.043808108   -0.69542575     0.0012455159 
   4470000   0.051442034   -0.81206314     0.043141028   -0.69180884     0.0015746401 
   4471000   0.049338401   -0.81174554     0.04558568    -0.6922        -0.0084614856 
   4472000   0.051546849   -0.81055034     0.043778054   -0.6895019     -0.0056903963 
   4473000   0.052006344   -0.8114399      0.042566065   -0.69091465     0.020748469  
   4474000   0.052199402   -0.80818799     0.044787047   -0.68515235     0.018440015  
   4475000   0.05440137    -0.81239034     0.042629954   -0.68821097     0.012792931  
   4476000   0.05232642    -0.81159023     0.044816993   -0.68833424     0.017832207  
   4477000   0.052802512   -0.81167287     0.044657356   -0.68786284     0.0031419126 
   4478000   0.053046182   -0.81212036     0.042277344   -0.69032508     0.0075657766 
   4479000   0.05156029    -0.81176831     0.044951863   -0.68952591     0.0037908979 
   4480000   0.052077528   -0.81065314     0.044878224   -0.68770902     0.026175205  
   4481000   0.051318098   -0.81348717     0.043901259   -0.69265842    -0.0073723036 
   4482000   0.053107746   -0.81087781     0.041937786   -0.6893298     -0.015225622  
   4483000   0.0522781     -0.80967812     0.03999531    -0.69131626     0.02241404   
   4484000   0.052692114   -0.81100894     0.042876594   -0.68914516     0.00077218315
   4485000   0.053608098   -0.81269149     0.043081794   -0.68924943     0.033906042  
   4486000   0.052556255   -0.81100869     0.043948679   -0.68827649    -0.0011050376 
   4487000   0.052011618   -0.8112967      0.042129908   -0.6911997      0.015090757  
   4488000   0.05058169    -0.81094885     0.044652823   -0.69047244    -0.0085370121 
   4489000   0.049990756   -0.81338815     0.044993025   -0.69345737     0.00072266491
   4490000   0.052432523   -0.81029821     0.042036377   -0.68966379    -0.01060309   
   4491000   0.052711207   -0.81206922     0.041579402   -0.69147402    -0.0044908188 
   4492000   0.050720523   -0.8126224      0.045665937   -0.69092477    -0.0096402085 
   4493000   0.0499516     -0.81052881     0.043993479   -0.69165628     0.013233524  
   4494000   0.051057409   -0.81087808     0.044052229   -0.69028915     0.029735642  
   4495000   0.050935945   -0.81277018     0.043584428   -0.69283113     0.020527724  
   4496000   0.050203721   -0.81149539     0.043094348   -0.69314405     0.018884919  
   4497000   0.051120768   -0.81028991     0.041353058   -0.69230517     0.024385515  
   4498000   0.049665255   -0.80905115     0.04354718    -0.69105415    -0.0046956474 
   4499000   0.052123128   -0.81098863     0.042247063   -0.69060732     0.0016324048 
   4500000   0.051381895   -0.81172951     0.044218439   -0.69048795     0.0032105137 
   4501000   0.053769596   -0.81239189     0.04539649    -0.68639304    -0.0031548566 
   4502000   0.050701893   -0.80970033     0.045449068   -0.68824749     0.022306478  
   4503000   0.049187108   -0.81120704     0.043042691   -0.69443128     0.0052371582 
   4504000   0.051871581   -0.80868592     0.041461391   -0.68946735     0.021509867  
   4505000   0.049401716   -0.80826318     0.044945302   -0.68926312     0.0059191549 
   4506000   0.049781933   -0.80939175     0.044423918   -0.69034311     0.012059466  
   4507000   0.05124668    -0.81277052     0.045669864   -0.69028023     0.0066224473 
   4508000   0.052523355   -0.80812086     0.043893399   -0.68549326     0.028443056  
   4509000   0.049985331   -0.81121165     0.043064056   -0.69321797     0.012596755  
   4510000   0.050084551   -0.8110902      0.043994828   -0.69201701     0.0049111705 
   4511000   0.050457019   -0.81038949     0.042548725   -0.69220406     0.0017329688 
   4512000   0.05017037    -0.81082323     0.043296316   -0.69231991    -0.0017533635 
   4513000   0.050407251   -0.81036481     0.042888862   -0.69191386     0.015337233  
   4514000   0.050554507   -0.81209801     0.042803002   -0.69351217    -0.0019316682 
   4515000   0.049937724   -0.81244837     0.043409287   -0.69418082    -0.0091289272 
   4516000   0.051330963   -0.81191638     0.044731412   -0.69023819     0.0099466569 
   4517000   0.051628751   -0.81040795     0.041198039   -0.69181674     0.0089637005 
   4518000   0.051480396   -0.81156511     0.044321553   -0.69007279     0.027327003  
   4519000   0.051052415   -0.81083564     0.043989154   -0.69031727     0.0084387108 
   4520000   0.049867903   -0.81223663     0.043370212   -0.69411282     0.016336621  
   4521000   0.050912502   -0.80977377     0.042766277   -0.69068801     0.0033577791 
   4522000   0.052595299   -0.80918652     0.043634743   -0.68670973    -0.012859416  
   4523000   0.050408011   -0.8111064      0.044935686   -0.69060748     0.01103249   
   4524000   0.051709494   -0.81276497     0.043208647   -0.69204212    -0.0042553756 
   4525000   0.051768964   -0.81014884     0.043853051   -0.68869244     0.0057730308 
   4526000   0.050868312   -0.81138202     0.043598092   -0.69153069    -0.011436688  
   4527000   0.051401119   -0.81143656     0.043823514   -0.69056111     0.016944976  
   4528000   0.050700484   -0.81203096     0.044738196   -0.6912911      0.0069150283 
   4529000   0.051700175   -0.81205057     0.042037      -0.69251334     0.0061908313 
   4530000   0.052041727   -0.81172356     0.045407381   -0.68830396     0.015631688  
   4531000   0.051097135   -0.80983715     0.043220585   -0.69002032     0.019435574  
   4532000   0.049189057   -0.81149606     0.043145739   -0.69461434     0.014380619  
   4533000   0.050561771   -0.81016073     0.042935196   -0.69143181    -0.0021793782 
   4534000   0.051663821   -0.81150578     0.043591328   -0.69046871     0.0045494563 
   4535000   0.05272244    -0.81094095     0.043577917   -0.68833039    -0.0045795754 
   4536000   0.051462223   -0.80799262     0.046054079   -0.68479501     0.0051885248 
   4537000   0.051211307   -0.81265654     0.041795863   -0.69409327     0.018070352  
   4538000   0.051742755   -0.81279487     0.044165799   -0.69106501     0.0011902746 
   4539000   0.052065071   -0.81048718     0.042746577   -0.68969339     0.02724262   
   4540000   0.051437929   -0.81235615     0.045490469   -0.68975857     0.013017103  
   4541000   0.05136131    -0.81253573     0.047886619   -0.68765685     0.0016600097 
   4542000   0.051973405   -0.81104011     0.0445218     -0.68860849     0.028566332  
   4543000   0.05005931    -0.80986799     0.046883109   -0.68794436     0.025033927  
   4544000   0.05193474    -0.81069473     0.044323271   -0.68851961     0.017470343  
   4545000   0.054056723   -0.81112643     0.043093968   -0.68699969     0.027395744  
   4546000   0.051333851   -0.81154827     0.043264294   -0.69133287     0.0054043556 
   4547000   0.051262622   -0.81148634     0.045044849   -0.68959717    -0.0056377931 
   4548000   0.053194875   -0.81123875     0.044841418   -0.6866565      0.018584306  
   4549000   0.053281125   -0.81089736     0.044157327   -0.6868699      0.031251713  
   4550000   0.052147817   -0.8104243      0.044532296   -0.68772075     0.012696636  
   4551000   0.053911791   -0.8113512      0.042443537   -0.68809215     0.028985334  
   4552000   0.053451336   -0.81123989     0.043525822   -0.68758879     0.0080166126 
   4553000   0.052345271   -0.81164308     0.042769442   -0.69040638     0.011406836  
   4554000   0.048634387   -0.8101791      0.044296306   -0.69297828     0.026839586  
   4555000   0.050218792   -0.81008717     0.043982425   -0.69082516     0.013210638  
   4556000   0.051764106   -0.81343501     0.044110192   -0.69172875     0.0032182459 
   4557000   0.051098432   -0.8100099      0.043079458   -0.69033225     0.022321905  
   4558000   0.050743275   -0.80813825     0.041690293   -0.69038215     0.015405077  
   4559000   0.050904642   -0.80958801     0.042220836   -0.69105948     0.026384076  
   4560000   0.051784413   -0.80961396     0.044524647   -0.68746281     0.015866836  
   4561000   0.051233488   -0.81078599     0.043891394   -0.69009395     0.04138072   
   4562000   0.051367268   -0.81236932     0.044700422   -0.6906677      0.0014920734 
   4563000   0.050958496   -0.81104499     0.04335048    -0.69130608    -0.00010343587
   4564000   0.050640837   -0.81054293     0.046131963   -0.68849872     0.0071238946 
   4565000   0.050736579   -0.81197199     0.048705303   -0.68721092    -0.013314117  
   4566000   0.052225041   -0.81301643     0.044866578   -0.68986283    -0.0021144036 
   4567000   0.051025852   -0.81159451     0.045782461   -0.68932265     0.013975829  
   4568000   0.052319738   -0.81249381     0.045575869   -0.68848896     0.0083272312 
   4569000   0.052576644   -0.81177569     0.042641594   -0.69032001     0.015521747  
   4570000   0.051167276   -0.81207372     0.046037531   -0.68933479     0.023276218  
   4571000   0.050845995   -0.81061614     0.047312297   -0.68708405    -0.0035538533 
   4572000   0.053132285   -0.80908501     0.043637492   -0.68580051     0.044179205  
   4573000   0.050256466   -0.81256804     0.043681169   -0.6935508      0.015073695  
   4574000   0.05106651    -0.81176864     0.043189404   -0.69202889     0.036891572  
   4575000   0.050405061   -0.81126521     0.042726958   -0.69297944     0.016846008  
   4576000   0.053663316   -0.81189684     0.044982214   -0.68647159     0.019959815  
   4577000   0.053614032   -0.80965338     0.043578409   -0.68570581     0.0067033108 
   4578000   0.051134854   -0.81123445     0.042500833   -0.69208082     0.017572219  
   4579000   0.049875588   -0.81277033     0.045310726   -0.69269449    -0.01469367   
   4580000   0.051095966   -0.81299108     0.045214473   -0.69118211     0.0047195679 
   4581000   0.052887104   -0.81282971     0.045440636   -0.6881096     -0.011532416  
   4582000   0.050777805   -0.81104473     0.044247923   -0.69067924     0.0052061311 
   4583000   0.050918592   -0.81074128     0.044419539   -0.68999313     0.016457642  
   4584000   0.050372379   -0.81043108     0.042639056   -0.6922822      0.00018480227
   4585000   0.049410842   -0.81199746     0.04444624    -0.69348278     0.012540392  
   4586000   0.053343407   -0.81341636     0.04601129    -0.68744158     0.0083522768 
   4587000   0.051217798   -0.81289585     0.046090085   -0.69002863     0.020076774  
   4588000   0.049988689   -0.81089322     0.043953306   -0.69200525     0.050141521  
   4589000   0.050757588   -0.81070361     0.045959581   -0.68865677     0.024402349  
   4590000   0.050260406   -0.81207614     0.0448244     -0.69190977     0.021271043  
   4591000   0.05163075    -0.81354235     0.045731229   -0.69041496     0.0075027325 
   4592000   0.052464394   -0.81250518     0.044087193   -0.68977217     0.00096216922
   4593000   0.050038944   -0.81076698     0.044653882   -0.69110311     0.0042145567 
   4594000   0.052192115   -0.81262553     0.044672654   -0.68971522     0.018771389  
   4595000   0.049950235   -0.81418127     0.044156215   -0.69514805     0.023538046  
   4596000   0.050553137   -0.81255321     0.041680969   -0.69509146     0.015998114  
   4597000   0.051341356   -0.81003188     0.042085021   -0.69098451     0.026422045  
   4598000   0.052699271   -0.81114859     0.045572188   -0.68657849     0.026760441  
   4599000   0.052426941   -0.81091578     0.045399099   -0.68692701     0.019713556  
   4600000   0.050795036   -0.81222075     0.045170064   -0.69090729    -0.020529676  
   4601000   0.05085715    -0.81203288     0.043919376   -0.69187699    -0.0055227402 
   4602000   0.052928196   -0.81294285     0.044173325   -0.68942846     0.023902433  
   4603000   0.049440162   -0.81115813     0.045905963   -0.69113977     0.040226499  
   4604000   0.050922601   -0.81093167     0.04569074    -0.68890631    -0.0089216162 
   4605000   0.050849549   -0.81084763     0.041464087   -0.69315843     0.024194032  
   4606000   0.051185089   -0.81138571     0.042225525   -0.69243209     0.016353749  
   4607000   0.053247066   -0.81358857     0.044493697   -0.68927581    -0.0011829494 
   4608000   0.051042526   -0.81102476     0.046232647   -0.68827772     0.015021643  
   4609000   0.052400782   -0.81088827     0.041527996   -0.69080981     0.021531915  
   4610000   0.051194255   -0.8117383      0.046004051   -0.68899241     0.024394607  
   4611000   0.052422723   -0.81193833     0.045573109   -0.68778187     0.005752641  
   4612000   0.050381551   -0.81159572     0.044153447   -0.6919187      0.016034408  
   4613000   0.050896299   -0.80933638     0.043708558   -0.68933263     0.014814766  
   4614000   0.052284128   -0.81155687     0.043255232   -0.68992604     0.011048992  
   4615000   0.050068108   -0.81339922     0.044024561   -0.69432095     0.009059484  
   4616000   0.05093372    -0.81141647     0.043983468   -0.69108172     0.0015438559 
   4617000   0.053957366   -0.81243587     0.043958334   -0.6875937      0.018510029  
   4618000   0.051099936   -0.81108743     0.042922722   -0.69156426     0.016156684  
   4619000   0.050338107   -0.81233997     0.044572837   -0.69230868     0.00054747806
   4620000   0.051917454   -0.81256808     0.043869237   -0.6908729      0.01085121   
   4621000   0.051259848   -0.8113178      0.043109832   -0.6913678      0.016488542  
   4622000   0.051555997   -0.81259735     0.0446047     -0.69070854    -0.0046686786 
   4623000   0.050803488   -0.81187085     0.04308572    -0.69262907     0.013018193  
   4624000   0.051053078   -0.81154704     0.043134501   -0.69188233     0.02207405   
   4625000   0.05281516    -0.81186071     0.043182455   -0.68950662     0.0063304177 
   4626000   0.051595168   -0.81209035     0.043223947   -0.69152358     0.0039345242 
   4627000   0.050505381   -0.81104439     0.045617089   -0.6897181     -0.007034042  
   4628000   0.053012469   -0.81314055     0.046125073   -0.68754808     0.021566415  
   4629000   0.0513762     -0.81114314     0.043648273   -0.69048029    -0.0064392763 
   4630000   0.052468917   -0.81140224     0.044556631   -0.68819301    -0.0087658382 
   4631000   0.051471326   -0.81043819     0.042809389   -0.69047162     0.02370782   
   4632000   0.051143823   -0.81195769     0.041618785   -0.69367266     0.0061472791 
   4633000   0.051278855   -0.81176528     0.0440755     -0.69082112     0.028101673  
   4634000   0.050769565   -0.80985983     0.04626174    -0.68749287     0.0058559469 
   4635000   0.051964347   -0.81044607     0.042284083   -0.69026576     0.023517289  
   4636000   0.052415632   -0.81031166     0.0437365     -0.68800244     0.011834057  
   4637000   0.052636427   -0.81029394     0.044705398   -0.68668484    -0.0034971697 
   4638000   0.051966369   -0.81043231     0.044776344   -0.6877567      0.0049831544 
   4639000   0.052648996   -0.8100239      0.045286493   -0.68581486    -0.004787881  
   4640000   0.051092645   -0.81178986     0.0432511     -0.69194924     0.031526292  
   4641000   0.051645328   -0.80952363     0.042475576   -0.68963005    -0.00083041271
   4642000   0.052040398   -0.81122701     0.042044725   -0.69117205     0.0020645172 
   4643000   0.052156665   -0.81022739     0.044313786   -0.68772908     0.00028275394
   4644000   0.050472394   -0.81065412     0.044632262   -0.69036211     0.013157176  
   4645000   0.050716529   -0.8088842      0.043103984   -0.6897545      0.029252877  
   4646000   0.04945771    -0.81083093     0.043870155   -0.69282208     0.0028769694 
   4647000   0.052865628   -0.81085012     0.044210919   -0.68739192     0.0044902656 
   4648000   0.05393074    -0.81154722     0.044588107   -0.68611519     0.014627837  
   4649000   0.049363981   -0.81363947     0.043651409   -0.69598986     0.025430795  
   4650000   0.052709841   -0.81276303     0.04331999    -0.69042929     0.0049746231 
   4651000   0.052040293   -0.81077833     0.042831958   -0.68993629    -0.0011905335 
   4652000   0.049720438   -0.81243255     0.043850697   -0.69404931     0.024456224  
   4653000   0.050325027   -0.80897544     0.044831769   -0.68870483     0.010120491  
   4654000   0.051970316   -0.8097844      0.04307609    -0.68880313    -0.0019702718 
   4655000   0.049119692   -0.81135582     0.046043473   -0.69168035     0.0020864002 
   4656000   0.051010351   -0.80893374     0.042603071   -0.68986451     0.0052761568 
   4657000   0.052849811   -0.81138542     0.045358827   -0.68680302    -0.0086778168 
   4658000   0.051747858   -0.80952123     0.044468873   -0.68748065     0.0033838684 
   4659000   0.051502276   -0.81075287     0.04489058    -0.68865871     0.013759431  
   4660000   0.051209719   -0.8118271      0.04477431    -0.69028777     0.01004272   
   4661000   0.050462676   -0.81052636     0.043556949   -0.69132424     0.0019591762 
   4662000   0.049688357   -0.81010131     0.044545072   -0.69107179     0.0030444798 
   4663000   0.051044861   -0.81065832     0.044352038   -0.68978839     0.0024407244 
   4664000   0.050215348   -0.81141749     0.043672268   -0.6924708     -0.0028625298 
   4665000   0.049251649   -0.810689       0.042977342   -0.69388184     0.0017379811 
   4666000   0.051929677   -0.8095331      0.044485134   -0.68720371    -0.0087384342 
   4667000   0.05087105    -0.8093602      0.045125861   -0.68797699     0.01262156   
   4668000   0.051314323   -0.8108742      0.044473802   -0.68947857    -0.026140075  
   4669000   0.053270933   -0.81125631     0.044057014   -0.68734445     0.0068217441 
   4670000   0.05123196    -0.81163615     0.043846278   -0.69099151     0.0010546775 
   4671000   0.051850361   -0.81108194     0.046012091   -0.68734448    -0.0065420887 
   4672000   0.051494543   -0.80900099     0.045450822   -0.68635819     0.0070819485 
   4673000   0.049177603   -0.81006875     0.044049477   -0.69230046     0.0063332485 
   4674000   0.051989308   -0.81178289     0.04310704    -0.6907422      0.015250504  
   4675000   0.050746644   -0.81150097     0.043535383   -0.69189473    -0.017618741  
   4676000   0.052909681   -0.80895245     0.043907788   -0.68573134     0.037814382  
   4677000   0.051458116   -0.81138922     0.043595858   -0.69065599    -0.0076865102 
   4678000   0.051238566   -0.81037852     0.040777253   -0.692793       0.0052189049 
   4679000   0.050028859   -0.81175351     0.046307425   -0.69045121    -0.0020248057 
   4680000   0.051439474   -0.81032633     0.0438663     -0.6893506     -0.0037471132 
   4681000   0.051133516   -0.81193466     0.046208872   -0.68907499     0.0037232175 
   4682000   0.053427524   -0.81116188     0.042993722   -0.68807858    -0.0048026027 
   4683000   0.051312253   -0.80923276     0.044712847   -0.68760119    -0.0038540106 
   4684000   0.053010142   -0.80998683     0.043373353   -0.68714957     0.0031043721 
   4685000   0.051484882   -0.81140126     0.04450091    -0.68972285     0.0096421825 
   4686000   0.05094866    -0.81262009     0.043028354   -0.69321805     0.0081730751 
   4687000   0.051820602   -0.81126029     0.044047215   -0.68953233     0.017951664  
   4688000   0.052773201   -0.81018442     0.046397642   -0.68467804     0.010186285  
   4689000   0.052554859   -0.81072754     0.044444356   -0.68750175    -0.00089364975
   4690000   0.051789826   -0.8100786      0.044224492   -0.68821948     0.01167615   
   4691000   0.051128841   -0.81118773     0.044787751   -0.6897562      0.0055563842 
   4692000   0.051665968   -0.81070403     0.04712076    -0.68613432     0.0083717252 
   4693000   0.05141382    -0.80790746     0.046038675   -0.68479781     0.011508695  
   4694000   0.053147728   -0.81049207     0.046367161   -0.68445476    -0.0083367979 
   4695000   0.054272202   -0.81058806     0.044511143   -0.68472114     0.01240861   
   4696000   0.052120029   -0.81013799     0.044424595   -0.68758379     0.002505977  
   4697000   0.052927399   -0.81067525     0.043859255   -0.68747611    -0.0011150222 
   4698000   0.051146403   -0.80877462     0.043777041   -0.68832747     0.019657853  
   4699000   0.052615175   -0.8121159      0.044182861   -0.68906119    -0.0019156591 
   4700000   0.052780178   -0.81015325     0.043771068   -0.687263       0.0024115523 
   4701000   0.050307796   -0.81009571     0.043028504   -0.6916542      0.017706917  
   4702000   0.051749748   -0.81051302     0.043877298   -0.68906118     0.0087970644 
   4703000   0.05035084    -0.80767247     0.045093499   -0.68710144     0.0062085588 
   4704000   0.052500516   -0.80782078     0.044472213   -0.6846486      0.0054104203 
   4705000   0.05274241    -0.80905147     0.044711105   -0.68527779     0.012326892  
   4706000   0.050920306   -0.80938163     0.044333229   -0.68871722    -0.010367334  
   4707000   0.050856954   -0.81112188     0.044558791   -0.69032687     0.0036038341 
   4708000   0.049414152   -0.81007466     0.045043239   -0.69095802     0.013515289  
   4709000   0.051572175   -0.81106007     0.043986368   -0.68976535     0.014543954  
   4710000   0.053710491   -0.812994       0.04228656    -0.69019368     0.015702855  
   4711000   0.050018641   -0.81130677     0.042706768   -0.69362044     0.0004131229 
   4712000   0.050394186   -0.81212503     0.045120382   -0.69146214     0.015036337  
   4713000   0.049295968   -0.81096636     0.042733121   -0.69433699     0.014631921  
   4714000   0.049302863   -0.81107495     0.043580873   -0.69358749     0.024409114  
   4715000   0.051491678   -0.81191721     0.044836622   -0.6898929      0.0055226728 
   4716000   0.050399378   -0.81150796     0.042603646   -0.69335402     0.018831215  
   4717000   0.049382209   -0.81149655     0.042974564   -0.69449646     0.0058018357 
   4718000   0.050624517   -0.81310329     0.045018122   -0.69219739     0.020349146  
   4719000   0.050601773   -0.81231459     0.042478484   -0.69398241    -0.0060589011 
   4720000   0.05059761    -0.81144712     0.042498838   -0.69310083     0.0019980707 
   4721000   0.051770175   -0.81069869     0.040463826   -0.6926297      0.01137288   
   4722000   0.051382795   -0.80886519     0.041968191   -0.68987253     0.01175734   
   4723000   0.050396397   -0.81012183     0.043439803   -0.69113621    -0.0023618366 
   4724000   0.050612782   -0.81030597     0.043233499   -0.69120228     0.0035614926 
   4725000   0.052046482   -0.81068671     0.042800584   -0.68986677     0.001870927  
   4726000   0.049827179   -0.80857835     0.046656238   -0.68722956     0.015571001  
   4727000   0.051581382   -0.81024486     0.044410077   -0.68851263     0.00044812115
   4728000   0.049889696   -0.8100709      0.044712358   -0.69057228     0.013227102  
   4729000   0.051712793   -0.81020866     0.044321578   -0.68836794    -0.0011559298 
   4730000   0.051080245   -0.80924475     0.043612922   -0.68906089     0.0066590289 
   4731000   0.052611827   -0.81001072     0.044116679   -0.68702722     0.023035529  
   4732000   0.05149926    -0.81175385     0.043655756   -0.69089904    -0.016469032  
   4733000   0.050403668   -0.81175306     0.042927472   -0.69326886     0.011198672  
   4734000   0.051087629   -0.80916708     0.044078891   -0.68850618     0.0045475137 
   4735000   0.047870305   -0.80962031     0.043735566   -0.69412561     0.012903351  
   4736000   0.051356829   -0.81062596     0.041725559   -0.69191486     0.0089773285 
   4737000   0.052429625   -0.81218973     0.045832646   -0.68776338     0.0055650669 
   4738000   0.04965236    -0.80943695     0.0418391     -0.69316737    -0.0017377    
   4739000   0.051315336   -0.80998322     0.042994885   -0.69006499     0.01212505   
   4740000   0.051234724   -0.81069475     0.045241247   -0.688651      -0.0088915466 
   4741000   0.050346028   -0.81199462     0.044321473   -0.69220282     0.00045801152
   4742000   0.052403634   -0.81311824     0.042308699   -0.69225481    -0.010748789  
   4743000   0.052106452   -0.81165917     0.04292259    -0.69062732     0.0023529707 
   4744000   0.05033968    -0.81231224     0.045411895   -0.69143954     0.0038915781 
   4745000   0.051844776   -0.8105349      0.044835656   -0.68798226     0.012711998  
   4746000   0.051025084   -0.81063746     0.047107238   -0.68704197    -0.011808467  
   4747000   0.051363613   -0.81259946     0.044366328   -0.69123742    -4.5061719e-05
   4748000   0.049595381   -0.81020498     0.046938029   -0.68892187    -0.0016822871 
   4749000   0.051287835   -0.80994696     0.046124583   -0.68694026     0.0091911091 
   4750000   0.051834619   -0.81128563     0.042890341   -0.69069353     0.0048634472 
   4751000   0.050297264   -0.81032254     0.044040172   -0.69088514     0.025478148  
   4752000   0.051883838   -0.81199376     0.043023345   -0.69119487     0.0070582756 
   4753000   0.051354456   -0.81122722     0.043436834   -0.6908084     -0.0022886259 
   4754000   0.051882585   -0.81133978     0.044760845   -0.68880527    -0.010554798  
   4755000   0.052899402   -0.81229766     0.042960165   -0.69003958     0.00066807031
   4756000   0.052374743   -0.81009001     0.042197082   -0.6893815      0.012353798  
   4757000   0.053272474   -0.81174232     0.043274756   -0.6886104     -0.0096104195 
   4758000   0.052168738   -0.81259485     0.043446944   -0.69094529    -0.0077337162 
   4759000   0.048597357   -0.81187809     0.043714662   -0.69531442     0.0096601104 
   4760000   0.05269658    -0.81282639     0.042950362   -0.69088215     0.0054828971 
   4761000   0.05235295    -0.81201304     0.043508248   -0.69002603     0.0072078331 
   4762000   0.051591933   -0.81292867     0.04388692    -0.69170378     0.0079565075 
   4763000   0.051170962   -0.81064081     0.043231561   -0.69070233    -0.0064302292 
   4764000   0.053275508   -0.81147544     0.045653927   -0.68595981     0.019987706  
   4765000   0.053456634   -0.81088131     0.044142211   -0.68660588     0.010533809  
   4766000   0.051831127   -0.81198812     0.044259254   -0.69003234     0.0059719329 
   4767000   0.052328869   -0.81248251     0.044188477   -0.68985137    -0.0077355132 
   4768000   0.051519258   -0.81078903     0.046123472   -0.68743652    -0.0017624373 
   4769000   0.050509638   -0.81078781     0.045083892   -0.68998834     0.013564799  
   4770000   0.050566853   -0.81023058     0.044340993   -0.69008824    -0.002313222  
   4771000   0.051289362   -0.81052073     0.045071608   -0.68856472     0.0067015827 
   4772000   0.051723337   -0.81113914     0.044337339   -0.68926685     0.0059819764 
   4773000   0.051444191   -0.80872028     0.041861302   -0.68974247     0.0067487741 
   4774000   0.051515866   -0.81170852     0.043655174   -0.6908294      0.0097038004 
   4775000   0.049859188   -0.81163442     0.045752314   -0.69114158     0.014321006  
   4776000   0.051428738   -0.8113897      0.043852132   -0.69044423    -0.0079129817 
   4777000   0.051190536   -0.81233875     0.04350155    -0.69210094    -0.0023232996 
   4778000   0.052388754   -0.81145449     0.042037161   -0.6908849      0.0046478616 
   4779000   0.048329801   -0.81139334     0.043617235   -0.69532818     0.021258922  
   4780000   0.050058213   -0.80927765     0.044099646   -0.69013913     0.0090026889 
   4781000   0.051439754   -0.8127597      0.042468801   -0.69318105     0.016004246  
   4782000   0.051368346   -0.81119714     0.044446709   -0.68974762     0.016156263  
   4783000   0.051771964   -0.81209297     0.044888538   -0.68959659     0.0186444    
   4784000   0.050432364   -0.81222283     0.043184482   -0.6934386      0.0017230582 
   4785000   0.0507284     -0.81229624     0.042660948   -0.69359179     0.0045813125 
   4786000   0.050502393   -0.81140419     0.044489971   -0.6912095      0.013272296  
   4787000   0.052023875   -0.80989123     0.043117999   -0.68878776     0.012725071  
   4788000   0.052457853   -0.81082098     0.044812763   -0.6873722     -0.0010215085 
   4789000   0.051260262   -0.81182117     0.044484547   -0.69049584     0.005024902  
   4790000   0.051473556   -0.81016805     0.043591295   -0.68941623     0.0050461678 
   4791000   0.052091975   -0.81190979     0.040810127   -0.69301212     0.0102766    
   4792000   0.050875127   -0.81286918     0.043007264   -0.69359846     0.0088657463 
   4793000   0.051474071   -0.81214792     0.046340335   -0.68864629    -0.0030841987 
   4794000   0.050969494   -0.81050135     0.044128027   -0.6899684      0.0077237485 
   4795000   0.051134379   -0.81196858     0.044368541   -0.69094796     0.0084706524 
   4796000   0.050780876   -0.81163662     0.044288466   -0.69122598    -0.011146424  
   4797000   0.050544655   -0.81110616     0.0420617     -0.69327639    -0.0015215899 
   4798000   0.053627433   -0.81115387     0.044253598   -0.68651102    -0.0070687529 
   4799000   0.052620141   -0.81229733     0.042273783   -0.69114426    -0.024139741  
   4800000   0.051552634   -0.81238956     0.045372862   -0.68973764    -0.010235189  
   4801000   0.051275643   -0.81226022     0.045197874   -0.6901985     -0.014979057  
   4802000   0.050673015   -0.81208887     0.042544969   -0.69358342    -0.0036392302 
   4803000   0.051130264   -0.81306515     0.042643578   -0.69377566    -0.011158493  
   4804000   0.053912769   -0.81234431     0.042260354   -0.68926698     0.00020222894
   4805000   0.05160849    -0.81112175     0.044759294   -0.68899967     0.0069133636 
   4806000   0.051517792   -0.81157343     0.0438994     -0.69044719     0.0063050583 
   4807000   0.050375563   -0.80991411     0.043759524   -0.69063999     0.012333595  
   4808000   0.053181717   -0.81201248     0.043615553   -0.68867582     0.013190577  
   4809000   0.051713712   -0.8099663      0.044730533   -0.68771524     0.015266874  
   4810000   0.050969289   -0.81121853     0.04427689    -0.69053703     0.0098431925 
   4811000   0.051981363   -0.81090454     0.043813189   -0.68916961    -0.0015202931 
   4812000   0.051196448   -0.8130194      0.045229124   -0.69104515    -0.0023584274 
   4813000   0.050045657   -0.80906567     0.043394985   -0.69065063     0.0010101913 
   4814000   0.051365807   -0.81156153     0.041763881   -0.69279864     0.0053011452 
   4815000   0.051170586   -0.81240552     0.041011283   -0.69468787    -0.011198884  
   4816000   0.050040068   -0.81044535     0.042969795   -0.69246388     0.015547306  
   4817000   0.051994456   -0.81132014     0.04381247    -0.6895663     -0.035259924  
   4818000   0.050209854   -0.81030298     0.04277073    -0.69226606    -0.004733785  
   4819000   0.0502985     -0.81173892     0.043389187   -0.69295066     0.012763412  
   4820000   0.050216917   -0.81122467     0.0439159     -0.69203199    -0.0019694334 
   4821000   0.051653907   -0.81178078     0.04216438    -0.69218553     0.0019578976 
   4822000   0.051898804   -0.81276526     0.045204366   -0.68976291    -0.0061401941 
   4823000   0.051052127   -0.8117004      0.04497918    -0.69019243    -0.0096252972 
   4824000   0.050294901   -0.80903025     0.040917779   -0.69271879    -0.0063896134 
   4825000   0.050611022   -0.81391978     0.041581855   -0.69647037    -0.0039372903 
   4826000   0.05114495    -0.81148608     0.044409399   -0.69040875     0.0078539927 
   4827000   0.053332315   -0.8103553      0.042190348   -0.6882181      0.004749838  
   4828000   0.051039286   -0.8096801      0.044982827   -0.68818773     0.027837714  
   4829000   0.052401876   -0.80993063     0.04444532    -0.68693321    -0.0051227551 
   4830000   0.052175977   -0.81054867     0.045053399   -0.6872818      0.012082118  
   4831000   0.051632191   -0.81144035     0.04381388    -0.69022815    -0.0016511844 
   4832000   0.052342271   -0.81058155     0.044605696   -0.6875131      0.017213423  
   4833000   0.051266137   -0.80947231     0.044981976   -0.68764074     0.013170343  
   4834000   0.049816439   -0.81209549     0.045214902   -0.69220414     0.015459628  
   4835000   0.05117797    -0.80955942     0.042810527   -0.69003146     0.0080519969 
   4836000   0.051776402   -0.8103687      0.042234751   -0.69051945     0.0068748847 
   4837000   0.052095342   -0.81112328     0.045800072   -0.68723061    -0.0048294182 
   4838000   0.053148882   -0.81130825     0.039834079   -0.69180228     0.017406641  
   4839000   0.051366117   -0.80817518     0.043455989   -0.68771973     0.016975844  
   4840000   0.050802963   -0.80938811     0.043422998   -0.68980983     0.0018581343 
   4841000   0.050362598   -0.81102924     0.043336723   -0.69219736     0.013016563  
   4842000   0.051364801   -0.81186603     0.04611007    -0.68875847     0.014753131  
   4843000   0.051968627   -0.81070893     0.044947328   -0.68785895     0.0033417683 
   4844000   0.050501387   -0.81154642     0.044631735   -0.69121148    -0.015242683  
   4845000   0.053181145   -0.8105217      0.043588134   -0.68721331     0.0058271929 
   4846000   0.051504268   -0.8108742      0.043431163   -0.69023647     0.0016543872 
   4847000   0.050051088   -0.81014116     0.043366737   -0.69174623     0.021568098  
   4848000   0.052234407   -0.81011169     0.04531738    -0.68649325     0.012078615  
   4849000   0.050747709   -0.81026452     0.043481964   -0.6907101     -0.030507525  
   4850000   0.050442514   -0.80866838     0.042955862   -0.69009756     0.00095874306
   4851000   0.05159344    -0.81171153     0.043737006   -0.6906343      0.00077673736
   4852000   0.049806483   -0.81123166     0.04516008    -0.69141006     0.0043143308 
   4853000   0.051773606   -0.80675107     0.043320848   -0.68581991     0.001875333  
   4854000   0.051930538   -0.80966136     0.042850984   -0.68896482    -0.013371482  
   4855000   0.051939672   -0.81233892     0.043533854   -0.69094582    -0.016912593  
   4856000   0.050321665   -0.81235231     0.043586135   -0.69333237     0.010557539  
   4857000   0.050877745   -0.81158932     0.044671484   -0.69065046    -0.0071570031 
   4858000   0.051408359   -0.81092024     0.04524031    -0.68861714    -0.017001082  
   4859000   0.051273481   -0.81225838     0.045528027   -0.68986975    -0.0026985969 
   4860000   0.052706433   -0.81173066     0.042071142   -0.69065088     0.012146178  
   4861000   0.052280749   -0.81252315     0.043462366   -0.69069025    -0.0012261675 
   4862000   0.051941921   -0.81145111     0.04421839    -0.68937011    -0.010441408  
   4863000   0.053169648   -0.81013821     0.044085808   -0.68634938    -0.0014025195 
   4864000   0.050274141   -0.81121281     0.045085032   -0.69076522    -0.016604415  
   4865000   0.051301206   -0.81083204     0.043065874   -0.690864      -0.013260884  
   4866000   0.051869926   -0.80744032     0.044711594   -0.68497403    -0.0061282379 
   4867000   0.051973879   -0.80963563     0.045881505   -0.68584361     0.0038285525 
   4868000   0.052144024   -0.8117588      0.044671796   -0.68892143     0.016884731  
   4869000   0.052175492   -0.80995844     0.042971201   -0.68877449     0.010451356  
   4870000   0.050602492   -0.80896164     0.045532476   -0.6875744      0.00041335444
   4871000   0.053720207   -0.8108616      0.046043153   -0.68429012     0.0341875    
   4872000   0.049806735   -0.80844247     0.04254626    -0.69123431     0.013669214  
   4873000   0.051533975   -0.80949399     0.043581129   -0.68866177    -0.00084118665
   4874000   0.052684096   -0.80862175     0.041101922   -0.68854467    -0.0061570814 
   4875000   0.050630876   -0.81055839     0.041504449   -0.69315662     0.0098084685 
   4876000   0.051386319   -0.8105495      0.044830806   -0.68868894     0.0038970032 
   4877000   0.052650202   -0.80878916     0.044628837   -0.68523597     0.014518533  
   4878000   0.052022191   -0.81092845     0.044897194   -0.68804832    -0.0057531587 
   4879000   0.051088599   -0.80902775     0.044271602   -0.68817269    -0.002556882  
   4880000   0.049780321   -0.81048371     0.044971092   -0.69089032     0.0014191659 
   4881000   0.051804568   -0.81025259     0.045438752   -0.68715712    -0.0086585788 
   4882000   0.049710874   -0.81081295     0.045999669   -0.69029508     0.0047709677 
   4883000   0.049591763   -0.80942372     0.041691939   -0.69339213     0.014785541  
   4884000   0.05054911    -0.81084447     0.041401008   -0.69366872     0.0074726007 
   4885000   0.051334381   -0.81055965     0.04319106    -0.6904167      0.010719974  
   4886000   0.052750581   -0.81091238     0.045185045   -0.68665251     0.022349821  
   4887000   0.051458838   -0.81130738     0.043305909   -0.69086301     0.0064492063 
   4888000   0.052861945   -0.8105426      0.045429361   -0.68587148    -0.0043490328 
   4889000   0.053579811   -0.81088931     0.044443541   -0.68612791    -0.0020136619 
   4890000   0.052714174   -0.80912179     0.043753541   -0.686348      -0.006846666  
   4891000   0.051599244   -0.80975061     0.04465424    -0.68774744     0.0021762441 
   4892000   0.050119543   -0.80926936     0.044024482   -0.69011406    -0.0024842652 
   4893000   0.051690547   -0.81310257     0.043958292   -0.69165848    -0.034360793  
   4894000   0.049420908   -0.81002097     0.045359168   -0.69057826     0.0071424865 
   4895000   0.052102021   -0.80876292     0.045132918   -0.68552739     0.012295206  
   4896000   0.053145832   -0.81000696     0.044932529   -0.68540711     0.0015437264 
   4897000   0.051798913   -0.81012357     0.046278887   -0.68619644     0.014091031  
   4898000   0.051288678   -0.81084878     0.044503022   -0.68946238     0.015143854  
   4899000   0.051359587   -0.81044354     0.044043636   -0.68941023     0.023817474  
   4900000   0.051672937   -0.81148773     0.041645238   -0.6923831     -0.0011627067 
   4901000   0.052595635   -0.8120078      0.044269357   -0.68889588    -0.021076552  
   4902000   0.050595372   -0.81271146     0.045636986   -0.69123038    -0.010562558  
   4903000   0.051367062   -0.8095123      0.04471523    -0.68779619    -0.015743688  
   4904000   0.05166329    -0.81160445     0.043760393   -0.69039911     0.00066761816
   4905000   0.050085511   -0.81282116     0.044973113   -0.69276825     0.0091376715 
   4906000   0.053142901   -0.81083978     0.045091859   -0.686085       0.00029173479
   4907000   0.052932245   -0.81088086     0.041688414   -0.68984531     0.0024462888 
   4908000   0.050718397   -0.81161118     0.044491437   -0.69109123     0.0025992526 
   4909000   0.050284886   -0.80788758     0.045726105   -0.68678281     0.003411009  
   4910000   0.051130635   -0.81049291     0.04479776    -0.68904868     0.0070340332 
   4911000   0.048368468   -0.81112701     0.046051074   -0.69257004    -0.0054535598 
   4912000   0.051951749   -0.81152077     0.045615641   -0.68802778     0.019090038  
   4913000   0.051677779   -0.8115602      0.044076975   -0.69001656     0.0016685537 
   4914000   0.051807928   -0.81054133     0.041613565   -0.69126601     0.024056691  
   4915000   0.050642185   -0.81317161     0.046055857   -0.69120149     0.0097519373 
   4916000   0.05258543    -0.81180455     0.044436377   -0.68854092     0.0061544432 
   4917000   0.052953586   -0.81392719     0.044692007   -0.68985604     0.0080706717 
   4918000   0.051938495   -0.81208975     0.044178685   -0.69005358    -0.0029978503 
   4919000   0.049179418   -0.81069233     0.040704897   -0.6962659      0.017706136  
   4920000   0.049877561   -0.8105751      0.045362373   -0.69044465     0.00099810909
   4921000   0.051426025   -0.81051491     0.043789507   -0.68963614     0.005260136  
   4922000   0.05233035    -0.81113111     0.044256133   -0.68843009     0.00017468183
   4923000   0.051776356   -0.81224328     0.044834118   -0.68979473     0.0022482778 
   4924000   0.052553381   -0.81352808     0.043184581   -0.69156429    -0.023160297  
   4925000   0.050271774   -0.8112786      0.041363266   -0.69455632    -0.0070243414 
   4926000   0.051180913   -0.81256521     0.044102775   -0.69174059    -0.00045306081
   4927000   0.054168551   -0.81185394     0.045320658   -0.68533288     0.0081124249 
   4928000   0.050339261   -0.81041456     0.044108071   -0.69084631     0.0013043605 
   4929000   0.051748944   -0.81121238     0.043888062   -0.68975098     0.0025288166 
   4930000   0.051654115   -0.81252722     0.045277161   -0.68981888     0.010845505  
   4931000   0.052451077   -0.81217102     0.045498815   -0.68804635     0.023731637  
   4932000   0.051041604   -0.81163908     0.044937954   -0.69018812    -0.014826034  
   4933000   0.050581071   -0.8109693      0.045691965   -0.68945468     0.0087711715 
   4934000   0.05016382    -0.81089304     0.045595976   -0.69009988    -0.019119607  
   4935000   0.052840148   -0.81099703     0.043503399   -0.68828454     0.0073894151 
   4936000   0.050451759   -0.81138688     0.04334859    -0.69240948     0.0075132554 
   4937000   0.050899985   -0.81020656     0.04441066    -0.68949518     0.018484807  
   4938000   0.052389928   -0.81261252     0.046104881   -0.68797344     0.00097800779
   4939000   0.050513674   -0.81011861     0.044859307   -0.68953768     0.010711547  
   4940000   0.052888314   -0.81162234     0.046491584   -0.68584947     0.0017937869 
   4941000   0.05229795    -0.80947679     0.044306965   -0.68677351     0.0028006943 
   4942000   0.052734694   -0.81177078     0.044351682   -0.6883681      0.0096161537 
   4943000   0.051147484   -0.81196547     0.04673151    -0.68856223    -6.1678378e-06
   4944000   0.050723599   -0.81218996     0.046246033   -0.68990762     0.0012969385 
   4945000   0.050249115   -0.81114667     0.044225332   -0.69159629    -0.012263023  
   4946000   0.051258783   -0.81111124     0.045480377   -0.68879229    -0.0031224188 
   4947000   0.05148683    -0.81004208     0.04308388    -0.68977779     0.00020234544
   4948000   0.050484678   -0.81109123     0.044017042   -0.69139602    -0.0070136234 
   4949000   0.052198334   -0.81187142     0.04428287    -0.68934156    -0.0014394462 
   4950000   0.05111031    -0.81064026     0.043263783   -0.69076048    -0.001135044  
   4951000   0.051436234   -0.81118337     0.045006942   -0.68907185     0.0065966296 
   4952000   0.052335267   -0.81140182     0.042848844   -0.69010072     0.0082702811 
   4953000   0.051093186   -0.81098871     0.044714846   -0.68968353    -0.013607323  
   4954000   0.053103797   -0.81074341     0.042990335   -0.68814877     0.0084024739 
   4955000   0.052377858   -0.80887239     0.044563505   -0.68579279     0.014873808  
   4956000   0.052078467   -0.8104836      0.04689678    -0.68551952    -0.015182283  
   4957000   0.051524987   -0.81170634     0.044257184   -0.69021154     0.016428525  
   4958000   0.050524461   -0.81212858     0.044296494   -0.69209429     0.0018494326 
   4959000   0.05176578    -0.81153354     0.043475397   -0.69045957     0.011877247  
   4960000   0.051805335   -0.81034892     0.042277391   -0.69041366     0.0034841887 
   4961000   0.052041746   -0.81058907     0.041748952   -0.69082787     0.020388098  
   4962000   0.049476063   -0.81216731     0.04371876    -0.69428234     0.010712823  
   4963000   0.052705418   -0.81211132     0.043082131   -0.69002207     0.00039819575
   4964000   0.051126194   -0.81124014     0.043713495   -0.69088683    -0.0035217865 
   4965000   0.049449343   -0.81130971     0.045501317   -0.69168224     0.005101821  
   4966000   0.052111663   -0.81136624     0.045830601   -0.68741858     0.00065305962
   4967000   0.050595206   -0.81043118     0.044494827   -0.69009251    -0.0022379929 
   4968000   0.051069695   -0.8105797      0.044157457   -0.68986712    -0.0073474563 
   4969000   0.052349869   -0.81124271     0.044832951   -0.68793562     0.012816654  
   4970000   0.051631029   -0.81321879     0.043317451   -0.69250476     0.0012507795 
   4971000   0.052547555   -0.81186548     0.044209563   -0.68888544     0.013446468  
   4972000   0.051954304   -0.81195855     0.044175768   -0.68990161     0.012536021  
   4973000   0.050955926   -0.81006416     0.040824619   -0.69285496    -0.0046374439 
   4974000   0.051052508   -0.81280489     0.0450007     -0.69127484    -0.0029408463 
   4975000   0.051531204   -0.81074092     0.046109226   -0.68738476     0.021988503  
   4976000   0.050799273   -0.81110752     0.044429764   -0.69052801     0.023181347  
   4977000   0.0498219     -0.81127973     0.044937239   -0.69165786     0.0059613518 
   4978000   0.048874444   -0.81203287     0.043396554   -0.69537195    -0.0046536348 
   4979000   0.050298276   -0.81219554     0.045726475   -0.69107033    -0.0090056907 
   4980000   0.051039089   -0.80873946     0.042474301   -0.68975592     0.013034165  
   4981000   0.050856894   -0.81196162     0.044055212   -0.69167028     0.0064713118 
   4982000   0.051269606   -0.81313508     0.045153308   -0.69112698     0.0062533106 
   4983000   0.050227379   -0.81186562     0.045895184   -0.69067798     0.0038100616 
   4984000   0.051452032   -0.81205985     0.043600426   -0.69133117    -0.007531921  
   4985000   0.050824027   -0.80975552     0.043543211   -0.69002545     0.012353274  
   4986000   0.049513374   -0.81031778     0.041535807   -0.69455982     0.010271608  
   4987000   0.052712011   -0.80970321     0.042260541   -0.68842566     0.0033419329 
   4988000   0.051128634   -0.81289887     0.04385798    -0.69239742    -0.0038537185 
   4989000   0.05134091    -0.81006892     0.045891666   -0.68721558    -0.010749297  
   4990000   0.050201448   -0.80689355     0.04297431    -0.68866565    -0.0038355969 
   4991000   0.050848179   -0.80942048     0.043550338   -0.68964709     0.0081685713 
   4992000   0.051417823   -0.80895877     0.043057487   -0.68882431     0.0034776126 
   4993000   0.053622785   -0.81042723     0.046744792   -0.68330015     0.00373973   
   4994000   0.052365515   -0.81105924     0.044298956   -0.68826269    -0.0091289984 
   4995000   0.053824618   -0.80823718     0.044744176   -0.68280816     0.005567876  
   4996000   0.053181479   -0.80870418     0.043134102   -0.68584932     0.015089011  
   4997000   0.050011755   -0.80854107     0.044246085   -0.68932576     0.0056951312 
   4998000   0.052219358   -0.80868274     0.043166609   -0.68723763     0.0094783017 
   4999000   0.052057727   -0.81082579     0.044158558   -0.68863103    -0.0054670931 
   5000000   0.050243172   -0.81088081     0.042583935   -0.69298073    -0.0028353304 
   5001000   0.0491863     -0.80994559     0.044282759   -0.69193098     0.00054654573
   5002000   0.052888459   -0.81058387     0.04435182    -0.68695055     0.014067809  
   5003000   0.052684044   -0.8104528      0.042510327   -0.68896739     0.0078398723 
   5004000   0.051898324   -0.80900624     0.043834127   -0.68737485     0.024357599  
   5005000   0.052011196   -0.80621437     0.043677975   -0.68456994     0.00073218765
   5006000   0.052070118   -0.80747546     0.0443547     -0.68506597     0.0058203206 
   5007000   0.051095103   -0.80515474     0.04440806    -0.68415347    -0.0027063387 
   5008000   0.052127839   -0.80588219     0.043508364   -0.68423251     0.0098714876 
   5009000   0.051911408   -0.80548062     0.044767606   -0.68289614     0.0056483295 
   5010000   0.053159114   -0.80525778     0.043717651   -0.6818529      0.0073687414 
   5011000   0.052099041   -0.8073551      0.043778249   -0.68547871     0.00067668816
   5012000   0.050625849   -0.80688021     0.045740905   -0.68524953    -0.012261862  
   5013000   0.048930325   -0.80605274     0.044337216   -0.68836739     0.01591285   
   5014000   0.051112449   -0.80840483     0.044995719   -0.6867899      0.00054641692
   5015000   0.051676627   -0.80679396     0.046867996   -0.68246103     0.0022642353 
   5016000   0.051283118   -0.80653447     0.047789112   -0.68187031    -0.0020676415 
   5017000   0.052217096   -0.80767392     0.043478444   -0.68592036     0.0043325159 
   5018000   0.051989014   -0.8064034      0.045254139   -0.68321606     0.014020137  
   5019000   0.052436815   -0.80674708     0.046680933   -0.68146167     0.0049004897 
   5020000   0.050713455   -0.80488007     0.045337106   -0.68352186    -0.0059747511 
   5021000   0.051383299   -0.80464957     0.043834409   -0.68378994     0.0039007247 
   5022000   0.053989845   -0.80759329     0.043840971   -0.6828198      0.00085967555
   5023000   0.051900191   -0.8077775      0.045303465   -0.68467397     0.0014007369 
   5024000   0.05302383    -0.80629012     0.044299359   -0.68250633    -0.0061763031 
   5025000   0.053599027   -0.80725656     0.043641227   -0.68326866    -0.0032583374 
   5026000   0.051714975   -0.80799737     0.046106385   -0.68436857    -0.0011305968 
   5027000   0.052535412   -0.80779477     0.045027557   -0.68401493     0.003888907  
   5028000   0.052150733   -0.80605474     0.043098215   -0.68478089    -0.010209523  
   5029000   0.050766265   -0.80572277     0.045109636   -0.68451286    -0.0066582253 
   5030000   0.049905175   -0.80531204     0.043427111   -0.68707546     0.0073707999 
   5031000   0.050695438   -0.80662665     0.044184466   -0.68644809    -0.0039184154 
   5032000   0.051018606   -0.80801311     0.043967041   -0.68756753     0.012806712  
   5033000   0.050859941   -0.80407623     0.042031269   -0.68580426     0.0078264878 
   5034000   0.052427075   -0.80819852     0.046338378   -0.68327027     0.0054079427 
   5035000   0.054360809   -0.80874533     0.045637497   -0.68161923    -0.01588581   
   5036000   0.053751642   -0.8059175      0.046463849   -0.67887821     0.0020937302 
   5037000   0.053750269   -0.808067       0.045587437   -0.68190618    -0.010434222  
   5038000   0.052867315   -0.80619572     0.041933204   -0.6850127      0.0064216947 
   5039000   0.050799421   -0.80675987     0.045468165   -0.68514173    -0.0035787389 
   5040000   0.052936448   -0.80733862     0.045114749   -0.68287043    -0.01548859   
   5041000   0.051150264   -0.80609953     0.044221176   -0.68520246    -0.0043276983 
   5042000   0.050575399   -0.80580603     0.044131744   -0.68586014     0.0033807411 
   5043000   0.050724164   -0.80633239     0.045361594   -0.68493364     0.00050047839
   5044000   0.050768096   -0.80614394     0.044387965   -0.68565296     0.0024087892 
   5045000   0.05290607    -0.80640978     0.044681839   -0.68242003    -0.013352447  
   5046000   0.052408326   -0.8067277      0.044811511   -0.68335442    -0.0013089309 
   5047000   0.051794049   -0.8083539      0.047268198   -0.68344476    -0.012292143  
   5048000   0.053364005   -0.80376926     0.043946251   -0.67982864     0.010092561  
   5049000   0.052812604   -0.8074045      0.043203239   -0.68503346     0.0062478751 
   5050000   0.05079128    -0.80412741     0.042450801   -0.68553884     0.00046405011
   5051000   0.051088943   -0.80537372     0.044389798   -0.68439995     0.0062466104 
   5052000   0.052376356   -0.80820464     0.044120542   -0.68557025    -0.0061595695 
   5053000   0.052115124   -0.80399802     0.045019413   -0.68085636     0.010747335  
   5054000   0.050226889   -0.80738614     0.044102651   -0.68799177    -0.0071084124 
   5055000   0.0522477     -0.80599533     0.045496214   -0.68217812     0.018842053  
   5056000   0.052571241   -0.80638903     0.043931981   -0.68365107     0.016995742  
   5057000   0.052466691   -0.80710161     0.044889747   -0.6835626      0.01728173   
   5058000   0.051528914   -0.80434084     0.044271027   -0.68282631     0.027340075  
   5059000   0.051579945   -0.80672325     0.043715641   -0.68568761     0.00060646719
   5060000   0.050660489   -0.80656591     0.04438105    -0.68624315    -0.011291072  
   5061000   0.052733771   -0.80433668     0.043142905   -0.68214415     0.0017734066 
   5062000   0.052137087   -0.8058513      0.042887306   -0.68480882    -0.0063416822 
   5063000   0.051763103   -0.80733205     0.042497886   -0.68723961     0.0053597455 
   5064000   0.049928937   -0.80848766     0.04361058    -0.69003199    -0.0037593757 
   5065000   0.051807549   -0.80594355     0.042883888   -0.68539848     0.022354747  
   5066000   0.049921125   -0.80594334     0.045812826   -0.68529714    -0.0082709323 
   5067000   0.050637054   -0.80391939     0.043737563   -0.68427525    -4.9960354e-05
   5068000   0.050262625   -0.80676805     0.043436603   -0.68798615     0.0042437492 
   5069000   0.051144837   -0.80398687     0.043359463   -0.68395965    -0.0016153007 
   5070000   0.050207343   -0.80429745     0.04406901    -0.68496601    -0.00025951309
   5071000   0.052061467   -0.80594211     0.044912489   -0.6829878     -0.0092781609 
   5072000   0.053103565   -0.80453088     0.044467737   -0.68045918    -0.0083035563 
   5073000   0.053219888   -0.80709116     0.044732366   -0.68258046     0.0084114471 
   5074000   0.052125777   -0.80558615     0.04489754    -0.68255039     0.018269751  
   5075000   0.052491978   -0.80486976     0.045195482   -0.68098711     0.014796471  
   5076000   0.052681775   -0.80580916     0.044995342   -0.68184213     0.01016539   
   5077000   0.053167047   -0.80645514     0.04593364    -0.68082238     0.0081716463 
   5078000   0.05375175    -0.80431595     0.045356503   -0.67838384    -0.0035338789 
   5079000   0.050363888   -0.8043862      0.042894603   -0.6859945      0.013882195  
   5080000   0.050996144   -0.80603592     0.046218341   -0.68337271    -0.010001182  
   5081000   0.051206363   -0.80692932     0.045924506   -0.68424482    -0.0086086692 
   5082000   0.05183031    -0.80616696     0.044245833   -0.68422582    -0.016349914  
   5083000   0.051891587   -0.8061772      0.044853825   -0.68353622     0.0054656988 
   5084000   0.051478528   -0.80401815     0.044201983   -0.68264819     0.00025316437
   5085000   0.05131935    -0.80666634     0.045746076   -0.68399091    -0.0095449462 
   5086000   0.051705178   -0.80612911     0.042814501   -0.68580688     0.0058857958 
   5087000   0.052622606   -0.80548485     0.043741981   -0.68285989     0.0015887212 
   5088000   0.052212993   -0.80632488     0.04298217    -0.68507375    -0.018642632  
   5089000   0.051231364   -0.80612997     0.045573254   -0.68375925     0.006450484  
   5090000   0.050995849   -0.80610866     0.046336569   -0.68332766    -0.00013756314
   5091000   0.050874843   -0.80642465     0.044083581   -0.68607804     0.0067865315 
   5092000   0.050183049   -0.80710249     0.043150678   -0.68872581    -0.0049244197 
   5093000   0.051676543   -0.80505494     0.044062713   -0.68352742     0.01580946   
   5094000   0.048868194   -0.80582692     0.043492362   -0.68907956     0.012548488  
   5095000   0.051575486   -0.8073398      0.045702298   -0.68432418     0.0092327383 
   5096000   0.052640244   -0.80915989     0.044960139   -0.68529033    -0.016081972  
   5097000   0.050899426   -0.80512598     0.043194964   -0.68563113     0.017901428  
   5098000   0.050155804   -0.80687522     0.045203746   -0.68648631    -0.0058658216 
   5099000   0.048980667   -0.80596886     0.04270309    -0.68984217    -0.0037715144 
   5100000   0.05148775    -0.80762247     0.045854209   -0.68458647     5.8072374e-05
   5101000   0.05092902    -0.80497352     0.04332775    -0.68530153     0.0038895025 
   5102000   0.050233327   -0.80639205     0.041956975   -0.68913369     0.0043620287 
   5103000   0.051444034   -0.80597909     0.043406915   -0.68545591     0.011836588  
   5104000   0.050722311   -0.80589903     0.044999703   -0.68486495     0.011362296  
   5105000   0.051180828   -0.80692056     0.043504508   -0.68669434     0.0077429392 
   5106000   0.050219018   -0.80422572     0.042882053   -0.68606374     0.0024927977 
   5107000   0.050733239   -0.8059998      0.043513091   -0.68643595     0.0085549347 
   5108000   0.050033622   -0.80735065     0.043287407   -0.68906123    -0.008807075  
   5109000   0.05165056    -0.8058437      0.044748959   -0.68366888     0.0010448249 
   5110000   0.051426179   -0.80737813     0.043342819   -0.68694581    -0.0085027109 
   5111000   0.051569157   -0.80483794     0.044736104   -0.68279801    -0.015742912  
   5112000   0.051890177   -0.80516118     0.044039787   -0.68333635     0.014221562  
   5113000   0.051345739   -0.8067191      0.043442156   -0.68630802     0.0039640951 
   5114000   0.050797762   -0.80635931     0.045373797   -0.68483803    -0.0011161985 
   5115000   0.050577096   -0.80464393     0.04570411    -0.68312312     0.023550093  
   5116000   0.051735901   -0.80578692     0.043288951   -0.68494418     0.0055739992 
   5117000   0.052394256   -0.80615563     0.046648826   -0.68096612     0.0039859178 
   5118000   0.051452747   -0.80672979     0.041436276   -0.68816419     0.025080424  
   5119000   0.050442091   -0.80345757     0.043891286   -0.68395197     0.0026426876 
   5120000   0.05173844    -0.80528349     0.045237904   -0.68248799     0.0057159991 
   5121000   0.050309997   -0.80501067     0.045078661   -0.6845157      0.015214885  
   5122000   0.05316043    -0.8089335      0.044641055   -0.68460324     0.0078973655 
   5123000   0.054000165   -0.80652605     0.045926047   -0.67965201    -0.0046951601 
   5124000   0.051153638   -0.80509607     0.042584571   -0.68583054     0.01606614   
   5125000   0.050102736   -0.80684352     0.044306207   -0.6874317      0.0089668043 
   5126000   0.050475107   -0.80705977     0.045626178   -0.68576977     0.015538444  
   5127000   0.051443702   -0.80727785     0.044494795   -0.68566728     0.02016511   
   5128000   0.051080497   -0.80697266     0.044127326   -0.68627402    -0.0027780919 
   5129000   0.050500218   -0.80650921     0.043745317   -0.68706244     0.022200093  
   5130000   0.052485235   -0.80806783     0.043209265   -0.6861815      0.0027381855 
   5131000   0.052763956   -0.80669764     0.044021945   -0.68358083     0.0015683105 
   5132000   0.052257081   -0.80485138     0.04377612    -0.68274021     0.016122661  
   5133000   0.052612086   -0.80664573     0.045757      -0.68202152    -0.0022878269 
   5134000   0.051355084   -0.80705807     0.043116917   -0.68695822     0.010864494  
   5135000   0.052273534   -0.80775635     0.044213893   -0.68518275     0.01219027   
   5136000   0.052140436   -0.80568953     0.042723333   -0.684806       0.026871201  
   5137000   0.050444445   -0.80584896     0.043771867   -0.68645924     0.0085061793 
   5138000   0.053088583   -0.80802143     0.045053278   -0.68338666     0.031318437  
   5139000   0.052219201   -0.80587191     0.043920212   -0.68367344     0.012841777  
   5140000   0.050083509   -0.80848448     0.046203299   -0.68720439     0.003730615  
   5141000   0.051192412   -0.80570955     0.045477398   -0.68349308     0.014656559  
   5142000   0.0529218     -0.80865158     0.044631537   -0.68468856     0.026798605  
   5143000   0.050855917   -0.80960369     0.044650785   -0.68871824     0.020633801  
   5144000   0.05063068    -0.80862014     0.04601462    -0.6867085      0.00020336946
   5145000   0.051959212   -0.80824097     0.044803979   -0.68554845     0.0033479554 
   5146000   0.051095117   -0.80913877     0.04365867    -0.68888687    -0.0051304105 
   5147000   0.050641574   -0.80655671     0.043297653   -0.6873457      0.01375911   
   5148000   0.052187812   -0.80470143     0.046703103   -0.67976711     0.020383841  
   5149000   0.051025411   -0.80592018     0.044424821   -0.68500662     0.0036086401 
   5150000   0.051649067   -0.80617519     0.043613459   -0.68513811     0.014477351  
   5151000   0.053238334   -0.80709536     0.04380176    -0.68348762     0.016630508  
   5152000   0.051241764   -0.80779737     0.045573568   -0.68541074     0.031622579  
   5153000   0.051040248   -0.807037       0.044457749   -0.68606827     0.0096274077 
   5154000   0.050366631   -0.80798259     0.046796895   -0.68568449    -0.016877171  
   5155000   0.052890239   -0.80723527     0.04449131    -0.68345979     0.028932676  
   5156000   0.05038053    -0.80794456     0.044999606   -0.68742292     0.0093943419 
   5157000   0.049984309   -0.80871905     0.044782026   -0.68900893     0.031808249  
   5158000   0.052749348   -0.80732548     0.044130758   -0.68412175     0.012860909  
   5159000   0.052603573   -0.80725436     0.046464873   -0.68193504    -0.0070549491 
   5160000   0.052051375   -0.808667       0.044037448   -0.68660286     0.00068577189
   5161000   0.049394696   -0.80700504     0.044386836   -0.68857396     0.0099532321 
   5162000   0.051204124   -0.80628575     0.044311091   -0.68521803     0.0087050367 
   5163000   0.052344215   -0.8057258      0.044195484   -0.68306465     0.036362394  
   5164000   0.051983077   -0.8059104      0.040752205   -0.68723389     0.026548452  
   5165000   0.050815708   -0.80711413     0.044121471   -0.68681828     0.021072142  
   5166000   0.051269634   -0.80617701     0.044255636   -0.68506654     0.0091925518 
   5167000   0.052989872   -0.80488119     0.045076147   -0.68037151     0.011755937  
   5168000   0.051376738   -0.80722142     0.042754779   -0.68745125     0.020814769  
   5169000   0.051996158   -0.80680036     0.044047078   -0.68480936     0.0069685257 
   5170000   0.050922591   -0.80648547     0.042630341   -0.68752053     0.026699431  
   5171000   0.05035779    -0.80522176     0.042573032   -0.68716077     0.024145379  
   5172000   0.048856385   -0.80684631     0.043173817   -0.69043519     0.00088214558
   5173000   0.050269166   -0.80944779     0.044352829   -0.68973986     0.0064166976 
   5174000   0.050654499   -0.80933751     0.046968162   -0.68643662     0.00090903255
   5175000   0.050934818   -0.80799003     0.045931028   -0.68570607     0.010770699  
   5176000   0.053107121   -0.80655063     0.044849086   -0.68209225     0.013411265  
   5177000   0.05216566    -0.80726299     0.044937656   -0.68412733     0.021057801  
   5178000   0.052216909   -0.80774287     0.046866652   -0.68260139     0.015167272  
   5179000   0.052574102   -0.80837197     0.044110933   -0.68545076     0.0045857287 
   5180000   0.051420248   -0.8079197      0.045866406   -0.68497269     0.020186269  
   5181000   0.052079503   -0.80706189     0.04378435    -0.68520869     0.024478035  
   5182000   0.052237728   -0.80779596     0.042530352   -0.68695957     0.017192642  
   5183000   0.048981039   -0.80840433     0.044602013   -0.69037816     0.0038384297 
   5184000   0.051295808   -0.80977916     0.044935155   -0.68794993     0.013377283  
   5185000   0.050854141   -0.80631762     0.04658809    -0.68349754     0.029773588  
   5186000   0.050511715   -0.80663592     0.045319685   -0.68559755     0.017130412  
   5187000   0.051251653   -0.80801934     0.044415217   -0.68677625     0.02596575   
   5188000   0.051961205   -0.8080703      0.045315042   -0.68486373     0.013397567  
   5189000   0.050511421   -0.8066824      0.045654502   -0.68530965     0.0048546179 
   5190000   0.050798973   -0.80927515     0.045974097   -0.68715176    -0.0033414883 
   5191000   0.053753633   -0.80837153     0.043866949   -0.68392615     0.0067372962 
   5192000   0.051945708   -0.80570447     0.042361504   -0.68547467     0.0096306235 
   5193000   0.050745798   -0.8073171      0.046413459   -0.68483406    -0.0036514214 
   5194000   0.053115546   -0.80752848     0.044571437   -0.68333513     0.005107883  
   5195000   0.052510671   -0.8085655      0.045083763   -0.68476655     0.0035549082 
   5196000   0.050758986   -0.80899028     0.045375854   -0.68752507     0.016657906  
   5197000   0.051927155   -0.80830303     0.045634613   -0.68482794     0.020076717  
   5198000   0.051275335   -0.80897767     0.044779978   -0.68733431     0.013008918  
   5199000   0.052300244   -0.80714228     0.044166243   -0.68457628     0.037168677  
   5200000   0.050339919   -0.80661518     0.046774581   -0.68437944     0.011328621  
   5201000   0.053402523   -0.80730551     0.04519515    -0.68205826     0.0093311579 
   5202000   0.052752205   -0.80884175     0.046062644   -0.68370185     0.0007368231 
   5203000   0.051654403   -0.80627888     0.044289216   -0.68455805     0.013742381  
   5204000   0.052207606   -0.80848611     0.043953936   -0.68627129     0.00091556302
   5205000   0.050693291   -0.80851773     0.044614568   -0.68791229     0.020019216  
   5206000   0.051184138   -0.8070838      0.043359419   -0.68699771     0.020570894  
   5207000   0.050959595   -0.80631863     0.043251842   -0.68667671     0.027828964  
   5208000   0.052951659   -0.80825771     0.045425343   -0.68345612     0.034608092  
   5209000   0.052401902   -0.80918105     0.044006195   -0.68662271     0.0084779944 
   5210000   0.051072577   -0.80727154     0.042564776   -0.68814732     0.00011180641
   5211000   0.050582203   -0.80710414     0.045512421   -0.68576736     0.010174602  
   5212000   0.05190171    -0.806928       0.04463362    -0.68449205     0.0016031461 
   5213000   0.051641282   -0.80751398     0.045565922   -0.68453611    -0.0026940743 
   5214000   0.051000487   -0.80695172     0.044914506   -0.68558584     0.01316744   
   5215000   0.051903341   -0.8058798      0.046189266   -0.68188575     0.017673825  
   5216000   0.053206194   -0.80400293     0.042565412   -0.68167972     0.017225114  
   5217000   0.050640123   -0.80807503     0.044184606   -0.68797924    -0.0061003538 
   5218000   0.052484522   -0.80728501     0.043383479   -0.68522554     0.0069881566 
   5219000   0.050468539   -0.80657019     0.043813393   -0.68710283     0.017281377  
   5220000   0.051695747   -0.80495364     0.044070239   -0.68338981     0.0046664623 
   5221000   0.051626463   -0.80459965     0.045546716   -0.6816632      0.0016188112 
   5222000   0.049300376   -0.80657138     0.044693211   -0.68797532    -0.0017465959 
   5223000   0.050262201   -0.80803494     0.046918614   -0.68577167    -0.0008304392 
   5224000   0.051148213   -0.80766917     0.044716678   -0.68627967     0.01273453   
   5225000   0.051884587   -0.80787361     0.044793435   -0.6853035      0.0075788375 
   5226000   0.050259438   -0.80444192     0.04225423    -0.68684718     0.0031456873 
   5227000   0.05185675    -0.80616734     0.045257664   -0.68317474    -0.010405211  
   5228000   0.05203339    -0.80958281     0.045903882   -0.6856792      0.015867157  
   5229000   0.05189412    -0.80724651     0.045840378   -0.68361517     0.03250996   
   5230000   0.050674174   -0.80700705     0.043202946   -0.68784189     0.024544767  
   5231000   0.052331765   -0.80792548     0.046552672   -0.6829258      0.0064561127 
   5232000   0.052336695   -0.8079086      0.046579523   -0.68287469     0.026370055  
   5233000   0.049711858   -0.80729455     0.043041632   -0.68973324     0.012494762  
   5234000   0.04895557    -0.80766154     0.044389335   -0.68988622     0.0010288203 
   5235000   0.051009401   -0.80875039     0.044368962   -0.68791669     0.011245404  
   5236000   0.052434219   -0.80801033     0.04466441    -0.68474533     0.017355322  
   5237000   0.050135729   -0.80721098     0.046293571   -0.68576233     0.021316844  
   5238000   0.05026128    -0.80813467     0.044770158   -0.68802124     0.0066093219 
   5239000   0.052461652   -0.80683381     0.043414087   -0.68477802     0.011966238  
   5240000   0.052309937   -0.80806066     0.046114728   -0.68353164     0.023475893  
   5241000   0.052020888   -0.80869913     0.043018928   -0.68769921    -0.01536451   
   5242000   0.051831484   -0.80701726     0.043642056   -0.68567814     0.0035489175 
   5243000   0.052426238   -0.80825049     0.043699719   -0.68596215     0.014893926  
   5244000   0.053436475   -0.80858165     0.043257226   -0.68522143     0.0041602092 
   5245000   0.050702582   -0.80751941     0.043321949   -0.68819265     0.018471704  
   5246000   0.052407877   -0.80791694     0.04461117    -0.68474467     0.020465435  
   5247000   0.050684901   -0.80714544     0.044796055   -0.68637108     0.023053709  
   5248000   0.05149477    -0.80539095     0.044507019   -0.68369161     0.011810282  
   5249000   0.049052293   -0.80693555     0.043966703   -0.68943788     0.012308351  
   5250000   0.052515158   -0.80768385     0.044532847   -0.68442908     0.013162843  
   5251000   0.053748087   -0.80702713     0.043950697   -0.68250632     0.014023974  
   5252000   0.052316211   -0.80728644     0.046624751   -0.682238       0.021923276  
   5253000   0.050335857   -0.80696099     0.046043266   -0.68546265     0.013139734  
   5254000   0.049430137   -0.80517545     0.043293788   -0.68778429     0.044406978  
   5255000   0.052140882   -0.80922662     0.046316811   -0.68474894     0.018530978  
   5256000   0.050659732   -0.80728287     0.042782147   -0.68856015     0.0041008654 
   5257000   0.053726234   -0.80706336     0.045044298   -0.6814817     -0.0031656772 
   5258000   0.053638384   -0.80781357     0.046738804   -0.6806691      0.007112427  
   5259000   0.05250051    -0.80898291     0.045780538   -0.68450241     0.0048736245 
   5260000   0.051859489   -0.80721698     0.046027474   -0.68345046     0.032518627  
   5261000   0.050469476   -0.80507847     0.047188372   -0.68223473     0.030491956  
   5262000   0.052246675   -0.80658306     0.044943884   -0.68331973     0.027248252  
   5263000   0.051186875   -0.80698873     0.04332819    -0.68692976     0.0112506    
   5264000   0.051293314   -0.8075057      0.044374164   -0.6862412      0.02941762   
   5265000   0.051962784   -0.80883881     0.045151145   -0.68579378     0.019264368  
   5266000   0.052360797   -0.80755946     0.043363596   -0.68570534     0.017726753  
   5267000   0.050681494   -0.80772044     0.045417247   -0.68632999     0.0048649378 
   5268000   0.052252602   -0.80886315     0.04265829    -0.68787652     0.012813221  
   5269000   0.050454799   -0.80729531     0.045876167   -0.68578577     0.033506161  
   5270000   0.049476567   -0.80915814     0.044742717   -0.69024845     0.010751119  
   5271000   0.051191848   -0.80906788     0.041878657   -0.69045099    -0.0075902773 
   5272000   0.05113268    -0.80798684     0.042955921   -0.68838139     0.01724924   
   5273000   0.050552652   -0.80773714     0.045063581   -0.68689351     0.0112261    
   5274000   0.051251344   -0.80828415     0.043893473   -0.68756326    -0.0068287476 
   5275000   0.048982529   -0.80921736     0.044189944   -0.69160102     0.0072167935 
   5276000   0.050807073   -0.80819836     0.042277079   -0.68975984     0.010455591  
   5277000   0.052446078   -0.80703597     0.045287373   -0.68313024     0.01644252   
   5278000   0.051213825   -0.80762554     0.043282528   -0.68757184     0.01816367   
   5279000   0.050910941   -0.80701768     0.047023369   -0.68367717     0.026805948  
   5280000   0.050929275   -0.80838794     0.044576385   -0.68746693     0.011945148  
   5281000   0.051304192   -0.8076894      0.043869574   -0.68691318     0.043605168  
   5282000   0.049467455   -0.80769516     0.044808326   -0.68873352    -0.0024041885 
   5283000   0.051201418   -0.80288004     0.044470331   -0.68165713     0.0098947289 
   5284000   0.052547288   -0.80635646     0.045323155   -0.68226322     0.018343914  
   5285000   0.051600361   -0.80963842     0.04538966    -0.68689815     0.00034706143
   5286000   0.050359904   -0.80674484     0.044560556   -0.68669316     0.0076294062 
   5287000   0.050036641   -0.80690652     0.043481236   -0.68841874     0.0096141899 
   5288000   0.05249183    -0.80510366     0.043848068   -0.68256865    -0.00217051   
   5289000   0.050327621   -0.80470778     0.043719551   -0.6855455      0.021130489  
   5290000   0.050278884   -0.80514722     0.043611406   -0.68616614     0.020836518  
   5291000   0.051758191   -0.80689199     0.04390842    -0.68539637    -0.0006068713 
   5292000   0.051687272   -0.80512265     0.043819976   -0.68382178     0.011183629  
   5293000   0.052781808   -0.8074612      0.043418315   -0.68492125     0.020523466  
   5294000   0.050836868   -0.80677938     0.046520506   -0.68405277     0.0027440697 
   5295000   0.053454151   -0.80347053     0.041970446   -0.68137059     0.024469976  
   5296000   0.052942473   -0.80669551     0.044927496   -0.68240554    -0.0011564356 
   5297000   0.050955432   -0.80815415     0.045944585   -0.68582573     0.0085384688 
   5298000   0.051654679   -0.8088302      0.044837217   -0.68656095     0.008867443  
   5299000   0.051547893   -0.80700649     0.044043072   -0.68569146     0.013528184  
   5300000   0.051664067   -0.80862526     0.045985364   -0.6851938      0.0065869083 
   5301000   0.05380456    -0.80648526     0.045020352   -0.68081013     0.0027127    
   5302000   0.052749685   -0.80843851     0.044091488   -0.68527354     0.029395145  
   5303000   0.052397304   -0.80927005     0.045893903   -0.6848309      0.015732845  
   5304000   0.050811511   -0.8091091      0.044248646   -0.68869236    -0.00056197429
   5305000   0.050498706   -0.80624196     0.043407133   -0.68713564     0.0099465119 
   5306000   0.051407097   -0.80621812     0.043683198   -0.68547403     0.022089046  
   5307000   0.050611491   -0.80559981     0.045218055   -0.6845135      0.0031075114 
   5308000   0.051188255   -0.80670401     0.042850795   -0.68712037     0.0090397143 
   5309000   0.05169429    -0.80953692     0.04444717    -0.68759834     0.030492398  
   5310000   0.050559223   -0.80841675     0.046496809   -0.68613004     0.0056227585 
   5311000   0.051064603   -0.80822405     0.045749348   -0.68592722     0.010218904  
   5312000   0.05154991    -0.80913963     0.04532453    -0.68654012     0.012999801  
   5313000   0.05249041    -0.80848269     0.043939827   -0.68585805     0.017976516  
   5314000   0.051067571   -0.80960506     0.04250719    -0.69054594     0.0095082653 
   5315000   0.051100116   -0.80658138     0.046305982   -0.68367467     0.026533053  
   5316000   0.051612663   -0.8055983      0.044049135   -0.68418012     0.031297581  
   5317000   0.051524893   -0.80694635     0.044515299   -0.68519358     0.019956453  
   5318000   0.051243182   -0.80839385     0.046014588   -0.68556408     0.010876989  
   5319000   0.050029259   -0.80705854     0.043041655   -0.68902141    -0.0015207354 
   5320000   0.051812507   -0.80609945     0.043789375   -0.68464145     0.0024925648 
   5321000   0.048541728   -0.8081523      0.045282961   -0.69010372     0.012366204  
   5322000   0.050764551   -0.80747215     0.043080213   -0.68829424     0.0022361371 
   5323000   0.048452871   -0.80742382     0.0438423     -0.6909491      0.020364041  
   5324000   0.051189322   -0.80785014     0.043926972   -0.68718872     0.010451005  
   5325000   0.049578027   -0.80811632     0.043836613   -0.68996065    -0.0018637001 
   5326000   0.050306773   -0.80816664     0.043373514   -0.68938165     0.01705491   
   5327000   0.052542969   -0.80823869     0.042665296   -0.68680979     0.018409019  
   5328000   0.052877205   -0.80664847     0.044273119   -0.68311071     0.036906474  
   5329000   0.053167879   -0.80427777     0.044761744   -0.67981566     0.036999746  
   5330000   0.051886038   -0.80876852     0.043669295   -0.68732038     0.028587315  
   5331000   0.051195801   -0.80546643     0.043893005   -0.68482927     0.03975894   
   5332000   0.050703371   -0.80640494     0.04402233    -0.68637662     0.016553718  
   5333000   0.052804049   -0.80641155     0.04458112    -0.68267546     0.018960535  
   5334000   0.050864392   -0.80862646     0.044642474   -0.68773662     0.020260301  
   5335000   0.052844424   -0.80370209     0.042045458   -0.68244114     0.036579309  
   5336000   0.050492671   -0.80767015     0.04459285    -0.68738716     0.021017457  
   5337000   0.05299365    -0.80936557     0.044590495   -0.68533588     0.029573718  
   5338000   0.052734303   -0.80774702     0.044751488   -0.68394511     0.011041177  
   5339000   0.049695529   -0.80466712     0.045731092   -0.68444083     0.022237908  
   5340000   0.051577383   -0.80865639     0.043513021   -0.6878272      0.0059784568 
   5341000   0.050512056   -0.80666868     0.046790763   -0.68415872     0.020501181  
   5342000   0.051000189   -0.8065495      0.042680986   -0.68741759     0.010484071  
   5343000   0.050822012   -0.80527623     0.043657219   -0.68543517     0.028988153  
   5344000   0.053075421   -0.80536523     0.044837168   -0.6809663      0.0085113264 
   5345000   0.053918303   -0.8063695      0.04539077    -0.68015346     0.020056791  
   5346000   0.050878689   -0.80561973     0.044636692   -0.68471424     0.01466535   
   5347000   0.050558724   -0.80573655     0.044519883   -0.68542751     0.0073317227 
   5348000   0.051696649   -0.80867358     0.045455049   -0.68572359     0.020673827  
   5349000   0.052523198   -0.80388556     0.045812197   -0.67933939     0.0035095795 
   5350000   0.054051156   -0.80411955     0.043276772   -0.67981836     0.019237644  
   5351000   0.051778761   -0.80820606     0.044301971   -0.68628606     0.00090328156
   5352000   0.052902271   -0.80660181     0.043069003   -0.68423059     0.014716579  
   5353000   0.051417369   -0.80667253     0.044210306   -0.68538593     0.017776743  
   5354000   0.051656571   -0.80822095     0.044355267   -0.68643082    -0.0043515185 
   5355000   0.053184867   -0.80710741     0.045441893   -0.68193969     0.01043371   
   5356000   0.051570127   -0.80760888     0.046118098   -0.6841855      0.018398427  
   5357000   0.051299486   -0.80672479     0.045813377   -0.68401183     0.025587284  
   5358000   0.050753022   -0.80606568     0.045133409   -0.68485185     0.028690003  
   5359000   0.050396406   -0.80632574     0.042525191   -0.68825471     0.014168014  
   5360000   0.051239474   -0.80702269     0.044730094   -0.68548297     0.011642961  
   5361000   0.0525185     -0.80785431     0.045074875   -0.68405251     0.012372847  
   5362000   0.051986021   -0.80645747     0.045036098   -0.68349265     0.015562299  
   5363000   0.050829321   -0.80723149     0.044845535   -0.68619116     0.036003805  
   5364000   0.050365506   -0.8068053      0.043214808   -0.68809097     0.021934472  
   5365000   0.050840382   -0.80798574     0.044738202   -0.68703616     0.0064839123 
   5366000   0.050040655   -0.80783126     0.044817964   -0.68800074     0.0277744    
   5367000   0.050855283   -0.80897499     0.041506902   -0.69123437     0.028696981  
   5368000   0.051287231   -0.80649441     0.042875318   -0.68673788     0.025894995  
   5369000   0.051686125   -0.80977183     0.045791714   -0.68650094     0.027564015  
   5370000   0.050345256   -0.80852159     0.047795124   -0.6852573      0.015545724  
   5371000   0.049299322   -0.80807603     0.046667541   -0.68750722     0.045763677  
   5372000   0.052035329   -0.80618934     0.044811732   -0.68337497     0.019508522  
   5373000   0.050235181   -0.80770303     0.043749223   -0.68864965     0.045527877  
   5374000   0.049515602   -0.80780072     0.045098502   -0.68847673     0.030073256  
   5375000   0.050025274   -0.80878241     0.046957981   -0.68683493     0.010362664  
   5376000   0.050030438   -0.8086398      0.045625655   -0.6880169      0.011792521  
   5377000   0.051207927   -0.80824854     0.045826913   -0.68565929     0.023402718  
   5378000   0.052098332   -0.8050227      0.04474172    -0.6821839      0.027763958  
   5379000   0.051638816   -0.80590305     0.044419795   -0.68407501     0.021729351  
   5380000   0.051870184   -0.80775696     0.043996577   -0.6860053      0.011746555  
   5381000   0.052235298   -0.80699735     0.043627162   -0.68506779     0.034735842  
   5382000   0.0506784     -0.80777419     0.047437323   -0.68436831     0.025312264  
   5383000   0.05029369    -0.80870119     0.046278567   -0.68703076     0.022557237  
   5384000   0.050863461   -0.80979115     0.045233465   -0.68831171     0.031111096  
   5385000   0.050589888   -0.80861701     0.044626764   -0.68815437     0.027772394  
   5386000   0.051210281   -0.80572556     0.043507631   -0.68545207     0.021958464  
   5387000   0.051275198   -0.80706321     0.043463819   -0.68673622     0.0088852706 
   5388000   0.051165788   -0.80770893     0.043554117   -0.68745564     0.021258168  
   5389000   0.052893991   -0.80683172     0.044283491   -0.68325843     0.012363601  
   5390000   0.052690987   -0.80680254     0.04476639    -0.68305066     0.00079032317
   5391000   0.050965622   -0.80635283     0.044882209   -0.68507151     0.0038481164 
   5392000   0.050335603   -0.80809158     0.046701457   -0.68593543     0.005629918  
   5393000   0.050536839   -0.8070892      0.04197225    -0.6893606      0.00048454002
   5394000   0.051180756   -0.8084005      0.043122229   -0.68855666     0.016944207  
   5395000   0.051675653   -0.80637086     0.043054538   -0.68585285     0.018728972  
   5396000   0.051257741   -0.80455558     0.044980473   -0.6827381      0.016801814  
   5397000   0.052013676   -0.80472572     0.044300542   -0.682455       0.0050294496 
   5398000   0.049547772   -0.80487353     0.043493726   -0.6871061      0.01776127   
   5399000   0.051466796   -0.80860473     0.043870206   -0.68758414     0.012555898  
   5400000   0.051949353   -0.80611153     0.04334898    -0.68488879     0.0091663453 
   5401000   0.050740406   -0.80618674     0.043433362   -0.68669187     0.0049019027 
   5402000   0.051693702   -0.81075429     0.045280902   -0.68798286     0.0081201532 
   5403000   0.051368028   -0.80499357     0.043611053   -0.68438019     0.010206015  
   5404000   0.049843395   -0.80800154     0.044265705   -0.68901898     0.0061600314 
   5405000   0.052204571   -0.80702303     0.045107114   -0.68365958     0.001326328  
   5406000   0.050626471   -0.80724096     0.045167773   -0.68618248    -0.0008497749 
   5407000   0.051739871   -0.80781267     0.046033822   -0.68421911    -0.0046213504 
   5408000   0.052947881   -0.80599797     0.044667442   -0.68195995     0.012767095  
   5409000   0.05011953    -0.8064835      0.044075122   -0.68727759     0.02166231   
   5410000   0.052490546   -0.80648522     0.04420002    -0.68360017     0.0050017194 
   5411000   0.050397486   -0.80656438     0.043039642   -0.68797728     0.0065686124 
   5412000   0.049666651   -0.80721669     0.044712677   -0.6880521     -0.0078353647 
   5413000   0.051620559   -0.8091891      0.043374038   -0.68843418     0.01293052   
   5414000   0.051108262   -0.8091985      0.044414658   -0.68817091     0.012422337  
   5415000   0.049523429   -0.80633302     0.044658442   -0.68743736     0.00074982478
   5416000   0.049932302   -0.80778794     0.043756983   -0.68918082     0.0115068    
   5417000   0.052067419   -0.80536928     0.044818299   -0.68250024     0.0026456059 
   5418000   0.04901306    -0.80872726     0.044953358   -0.69030174     0.0023651051 
   5419000   0.049166859   -0.80630601     0.044849361   -0.68775394     0.0070779646 
   5420000   0.051780886   -0.80744574     0.04383835    -0.68598617     0.0086664404 
   5421000   0.051079725   -0.80849272     0.044119343   -0.68780322    -0.01040092   
   5422000   0.051940213   -0.80920969     0.043923901   -0.68742573     0.012987859  
   5423000   0.052068092   -0.80788843     0.042621875   -0.68721481     0.01921235   
   5424000   0.052537845   -0.80996743     0.044149464   -0.68706204     0.00037023932
   5425000   0.049410341   -0.80769446     0.043085516   -0.69054125     0.0031363606 
   5426000   0.049968972   -0.81010449     0.044641391   -0.690558      -0.017734019  
   5427000   0.052545225   -0.80854212     0.045204331   -0.6845708     -0.0099593584 
   5428000   0.050936589   -0.80907002     0.045563395   -0.68715104    -0.0030810498 
   5429000   0.051109163   -0.80610744     0.045345096   -0.68414806     0.027796212  
   5430000   0.052753671   -0.8087251      0.044834345   -0.6848113      0.0099960233 
   5431000   0.053061274   -0.80764294     0.044875182   -0.68322719     0.02201706   
   5432000   0.052162355   -0.80864879     0.04564677    -0.68480897    -0.015184894  
   5433000   0.051728939   -0.80764881     0.042914151   -0.68719131     0.0012207928 
   5434000   0.050006884   -0.80803697     0.044012588   -0.68906245     0.014556736  
   5435000   0.050517568   -0.8090165      0.044577773   -0.68871126     0.014697433  
   5436000   0.049086402   -0.80662772     0.04136332    -0.6916823      0.00024964555
   5437000   0.050445386   -0.80863724     0.044474995   -0.68854299    -0.012969728  
   5438000   0.051576428   -0.80772594     0.04696261    -0.6834486     -0.0030727738 
   5439000   0.050704199   -0.8083981      0.043675504   -0.68871536     0.005042561  
   5440000   0.050131844   -0.80721046     0.042833985   -0.68922722    -0.0093604246 
   5441000   0.051446052   -0.80712228     0.042840796   -0.6871622      0.0072793786 
   5442000   0.050333793   -0.80720964     0.045019519   -0.68673814    -0.0020513676 
   5443000   0.051660448   -0.80813763     0.045439091   -0.68525786    -0.0025672121 
   5444000   0.05051       -0.80588154     0.044416146   -0.68574928     0.032303058  
   5445000   0.050834653   -0.80808558     0.043609965   -0.68827283     0.027525103  
   5446000   0.052379097   -0.80697151     0.044010322   -0.68444323     0.037717858  
   5447000   0.051896245   -0.80834871     0.045294275   -0.68526029     0.030340378  
   5448000   0.052348436   -0.80663859     0.044831868   -0.68333473     0.01691953   
   5449000   0.052711847   -0.80808678     0.045449661   -0.68362036     0.016416094  
   5450000   0.05272201    -0.80732214     0.047157535   -0.68113261    -0.0009788498 
   5451000   0.051327003   -0.80821046     0.044210597   -0.68705903     0.012096565  
   5452000   0.051608339   -0.80552701     0.043780397   -0.68438405     0.01252553   
   5453000   0.051687429   -0.80561194     0.046083769   -0.68204705     0.025547183  
   5454000   0.05129024    -0.80712149     0.046240941   -0.68399482     0.0050153038 
   5455000   0.052202598   -0.80637014     0.045684232   -0.68243253     0.0073714945 
   5456000   0.050575357   -0.80738441     0.043077628   -0.68849269     0.0072122667 
   5457000   0.051198861   -0.80720864     0.045913308   -0.68454658     0.0084768489 
   5458000   0.052353058   -0.80727251     0.042984262   -0.68580933     0.0074377681 
   5459000   0.051028819   -0.80710475     0.043615277   -0.68699563     0.00094345145
   5460000   0.052647674   -0.80797508     0.044343435   -0.68471109     0.0054051941 
   5461000   0.049503189   -0.80653732     0.043509755   -0.68882068     0.0038610729 
   5462000   0.050724116   -0.8075391      0.044332879   -0.68716914     0.0077880847 
   5463000   0.05154662    -0.80849672     0.044890534   -0.68633614     0.0088985989 
   5464000   0.051916208   -0.80740003     0.046042728   -0.68353324    -0.0022148361 
   5465000   0.050494785   -0.80615452     0.044114925   -0.68634628     0.014447556  
   5466000   0.050204481   -0.80878756     0.043277416   -0.69025201    -0.0076291312 
   5467000   0.050628714   -0.8069165      0.041791921   -0.6892305     -0.0034206184 
   5468000   0.049713584   -0.80820157     0.04486737    -0.68881194     0.0037899091 
   5469000   0.050891479   -0.8094209      0.043386944   -0.68974599    -0.0030917788 
   5470000   0.050391067   -0.80661139     0.043563037   -0.68751052    -0.005397604  
   5471000   0.051499899   -0.80600882     0.046413181   -0.68239563     0.010222117  
   5472000   0.051443803   -0.80791416     0.046528448   -0.68426979     0.0051389933 
   5473000   0.051375271   -0.80865078     0.043484744   -0.68815284     0.0087342459 
   5474000   0.053126587   -0.80774755     0.046442077   -0.68166701     0.011116688  
   5475000   0.0524197     -0.80710351     0.044693611   -0.68383108     0.023915585  
   5476000   0.050465809   -0.80432723     0.045531186   -0.68314617     0.021852482  
   5477000   0.051552981   -0.80763396     0.043800182   -0.6865542     -0.0016909935 
   5478000   0.052167952   -0.80597865     0.045414731   -0.68236247     0.0010684731 
   5479000   0.052339914   -0.80865752     0.044517435   -0.68568087     0.0054416235 
   5480000   0.053508992   -0.80766739     0.043890207   -0.68356548     0.016294269  
   5481000   0.051186714   -0.80575502     0.044206068   -0.68481842     0.016124806  
   5482000   0.050914304   -0.8053827      0.044673184   -0.68438733    -0.0096387158 
   5483000   0.05098582    -0.80647081     0.046118768   -0.68392265     0.0037111843 
   5484000   0.05258188    -0.80530383     0.044573161   -0.68190873     0.007651593  
   5485000   0.052235962   -0.807195       0.042737713   -0.6861539      0.011089978  
   5486000   0.049742551   -0.80826486     0.04264987    -0.69104931     0.0076965878 
   5487000   0.050700193   -0.80761367     0.042514982   -0.68909746     0.0048965786 
   5488000   0.051699953   -0.8080127      0.045452512   -0.68506029    -0.0018388936 
   5489000   0.052356162   -0.80944785     0.043484772   -0.6874795      0.001377261  
   5490000   0.052170006   -0.80553132     0.041842764   -0.68548404     0.0044879546 
   5491000   0.050730137   -0.80638258     0.0437609     -0.68657557     0.0098692719 
   5492000   0.05022265    -0.80835634     0.043046675   -0.6900243     -0.0033805332 
   5493000   0.049025635   -0.80692917     0.044980299   -0.68845786     0.017669444  
   5494000   0.050324967   -0.80817951     0.044230648   -0.68851011     0.015205373  
   5495000   0.052633628   -0.80652558     0.044414965   -0.68321111     0.0067577022 
   5496000   0.055180776   -0.80669132     0.045410191   -0.67856336     0.014773953  
   5497000   0.052258529   -0.80712711     0.043436013   -0.68535388    -0.0070685866 
   5498000   0.05293691    -0.80893379     0.0428917     -0.68668795     0.0038375215 
   5499000   0.053491819   -0.80771575     0.045896523   -0.68163327    -0.010064049  
   5500000   0.051300016   -0.80598189     0.046632335   -0.68244918     0.0045689707 
Loop time of 1973.16 on 8 procs for 5000000 steps with 1550 atoms

Performance: 218938.306 tau/day, 2534.008 timesteps/s, 3.928 Matom-step/s
94.4% CPU use with 8 MPI tasks x 1 OpenMP threads

MPI task timing breakdown:
Section |  min time  |  avg time  |  max time  |%varavg| %total
---------------------------------------------------------------
Pair    | 230.68     | 310.17     | 366.93     | 246.3 | 15.72
Bond    | 43.622     | 55.094     | 60.171     |  74.6 |  2.79
Neigh   | 1.3907     | 1.3917     | 1.3931     |   0.1 |  0.07
Comm    | 416.75     | 476.94     | 566.02     | 219.5 | 24.17
Output  | 17.125     | 17.352     | 17.538     |   3.3 |  0.88
Modify  | 1092.9     | 1095.3     | 1096.6     |   3.9 | 55.51
Other   |            | 16.9       |            |       |  0.86

Nlocal:         193.75 ave         345 max          98 min
Histogram: 2 1 1 0 1 1 1 0 0 1
Nghost:        610.875 ave         701 max         467 min
Histogram: 1 0 1 0 0 0 3 1 0 2
Neighs:              0 ave           0 max           0 min
Histogram: 8 0 0 0 0 0 0 0 0 0
FullNghs:         8021 ave       20312 max        2481 min
Histogram: 2 1 2 1 1 0 0 0 0 1

Total # of neighbors = 64168
Ave neighs/atom = 41.39871
Ave special neighs/atom = 2.1612903
Neighbor list builds = 1961
Dangerous builds = 0

# Write data for deformation

write_restart ${Dir}/${file6_name}
write_restart /home/franvt/GitRepos/molDynLammps/polymericGels/gel-bonds-1/data/0.050.30.05500-2026-01-21-161335/${file6_name}
write_restart /home/franvt/GitRepos/molDynLammps/polymericGels/gel-bonds-1/data/0.050.30.05500-2026-01-21-161335/data.hydrogel
System init for write_restart ...
WARNING: Using a manybody potential with bonds/angles/dihedrals and special_bond exclusions (src/pair.cpp:250)
Hybrid pair style last /omp style table/omp
Last active /omp style is angle_style harmonic/omp
Total wall time: 0:35:10
