LAMMPS (22 Jul 2025)
OMP_NUM_THREADS environment is not set. Defaulting to 1 thread.
  using 1 OpenMP thread(s) per MPI task
package omp 0
using multi-threaded neighbor list subroutines
# Input Script of lammps for assembly simulation of polimeric network.
# Main code is based on: https://github.com/PipeB62/Hydrogel-Simulation
# Patchy particles are with bond style.

# Felipe Benavides modified by Fco. Vazquez

# Initialization
units lj
dimension 3
boundary p p p

# Styles of atoms and that stuff
atom_style full
bond_style harmonic
angle_style harmonic
pair_style hybrid/overlay zero 0.0 lj/cut/omp 1.12 table/omp linear 5000000 threebody/table

newton on

# Create simulaiton box
region simulation_box block -$L $L -$L $L -$L $L
region simulation_box block -9.796741 $L -$L $L -$L $L
region simulation_box block -9.796741 9.796741 -$L $L -$L $L
region simulation_box block -9.796741 9.796741 -9.796741 $L -$L $L
region simulation_box block -9.796741 9.796741 -9.796741 9.796741 -$L $L
region simulation_box block -9.796741 9.796741 -9.796741 9.796741 -9.796741 $L
region simulation_box block -9.796741 9.796741 -9.796741 9.796741 -9.796741 9.796741
# N-atom-types region-ID keyword value Is necesesary the extra/special/per/atom (# of special neighbors per atom)
create_box 4 simulation_box     bond/types 1     angle/types 2     extra/bond/per/atom 10     extra/angle/per/atom 6     extra/special/per/atom 10
Created orthogonal box = (-9.796741 -9.796741 -9.796741) to (9.796741 9.796741 9.796741)
  2 by 2 by 2 MPI processor grid

# Atom types
mass 1 1.0      # CL
mass 2 1.0      # MO
mass 3 1.0      # PA
mass 4 1.0      # PB

# Coefficients
include potential.in
# Script with the pair-wise interaction and bonds between particles

bond_coeff 1 100.0 0.45
angle_coeff 1 100.0 180
angle_coeff 2 100.0 109.4712
pair_coeff 1 3 zero 0.5
pair_coeff 1 4 zero 0.5
pair_coeff 2 3 zero 0.5
pair_coeff 2 4 zero 0.5
pair_coeff 3 3 zero 0.5
pair_coeff 1 1 lj/cut/omp 1.0 1.0 1.12
pair_coeff 2 2 lj/cut/omp 1.0 1.0 1.12
pair_coeff 1 2 lj/cut/omp 1.0 1.0 1.12
pair_coeff 3 4 table/omp sysFiles/pachTab.table POT 0.6 # sw/omp sysFiles/patchyPot.sw NULL NULL PA PB
Reading pair table potential file sysFiles/pachTab.table with DATE: 2024-07-08
WARNING: 7 of 1000000 force values in table POT are inconsistent with -dE/dr.
WARNING:  Should only be flagged at inflection points (src/pair_table.cpp:469)
pair_coeff 4 4 table/omp sysFiles/pachTab.table POT 0.6 # sw/omp sysFiles/patchyPot.sw NULL NULL PA PB
Reading pair table potential file sysFiles/pachTab.table with DATE: 2024-07-08
WARNING: 7 of 1000000 force values in table POT are inconsistent with -dE/dr.
WARNING:  Should only be flagged at inflection points (src/pair_table.cpp:469)
pair_coeff * * threebody/table swapMech.3b NULL NULL PA PB
pair_modify pair lj/cut/omp shift yes


# Molecules
include molecules.in
# Script with all molecule information and create groups for computes

# Read the molecule information
molecule CL sysFiles/molecule.patchy.CL
Read molecule template CL:
# Patchy Cross-Linker
  1 molecules
  0 fragments
  0 bodies
  5 atoms with max type 3
  4 bonds with max type 1
  6 angles with max type 2
  0 dihedrals with max type 0
  0 impropers with max type 0
molecule MO sysFiles/molecule.patchy.MO
Read molecule template MO:
# Patchy Monomer
  1 molecules
  0 fragments
  0 bodies
  3 atoms with max type 4
  2 bonds with max type 1
  1 angles with max type 1
  0 dihedrals with max type 0
  0 impropers with max type 0

# Introduce the molecules
# ID style args keyword arg
region spawn_box block -$L $L -$L $L -$L $L
region spawn_box block -9.796741 $L -$L $L -$L $L
region spawn_box block -9.796741 9.796741 -$L $L -$L $L
region spawn_box block -9.796741 9.796741 -9.796741 $L -$L $L
region spawn_box block -9.796741 9.796741 -9.796741 9.796741 -$L $L
region spawn_box block -9.796741 9.796741 -9.796741 9.796741 -9.796741 $L
region spawn_box block -9.796741 9.796741 -9.796741 9.796741 -9.796741 9.796741

# create_atoms type style args keyword values
# style_random: N seed region-ID
# keyword_mol: template-ID seed
# keyword_overlap: overlap value = only insert if at least this distance from all existing atoms
# keyword_maxtry: maxtry value = number of attempts to insert a particle before failure
create_atoms 0 random ${NCL} ${seed1} spawn_box mol CL ${seed1} overlap 1.0 maxtry 5000 #xls
create_atoms 0 random 25 ${seed1} spawn_box mol CL ${seed1} overlap 1.0 maxtry 5000 
create_atoms 0 random 25 3234 spawn_box mol CL ${seed1} overlap 1.0 maxtry 5000 
create_atoms 0 random 25 3234 spawn_box mol CL 3234 overlap 1.0 maxtry 5000 
Created 125 atoms
  using lattice units in orthogonal box = (-9.796741 -9.796741 -9.796741) to (9.796741 9.796741 9.796741)
  create_atoms CPU = 0.009 seconds
create_atoms 0 random ${NMO} ${seed2} spawn_box mol MO ${seed2} overlap 1.0 maxtry 5000 #mon
create_atoms 0 random 475 ${seed2} spawn_box mol MO ${seed2} overlap 1.0 maxtry 5000 
create_atoms 0 random 475 6321 spawn_box mol MO ${seed2} overlap 1.0 maxtry 5000 
create_atoms 0 random 475 6321 spawn_box mol MO 6321 overlap 1.0 maxtry 5000 
Created 1425 atoms
  using lattice units in orthogonal box = (-9.796741 -9.796741 -9.796741) to (9.796741 9.796741 9.796741)
  create_atoms CPU = 0.007 seconds

# Create patchy particles
group CrossLinker type 1 3
125 atoms in group CrossLinker
group Monomer type 2 4
1425 atoms in group Monomer
group Patches type 3 4
1050 atoms in group Patches
group CL type 1
25 atoms in group CL
group MO type 2
475 atoms in group MO
group PA type 3
100 atoms in group PA
group CM type 1 2
500 atoms in group CM

# Neighbor list
neighbor 1.8 bin # extra-distance style
#neigh_modify delay 0 every 1 check no
#neigh_modify exclude molecule/intra CrossLinker
#neigh_modify exclude molecule/intra Monomer

# COMPUTES

# Compute global kinetic and potential energy and temperature
compute t all temp
compute p all pressure t
compute ep all pe
compute ek all ke
variable eT equal etotal
variable eB equal ebond
variable eA equal eangle
variable eM equal emol
variable ec equal ecouple
variable eC equal econserve

# Potencial energy per pair-wise interaction
compute wcaPair all pair lj/cut/omp epair
compute patchPair all pair table/omp epair
compute swapPair all pair threebody/table epair

# Compute the pressure
compute press all pressure t ke virial
compute pressVirial all pressure t virial
compute pressVirialMod all pressure t pair bond angle

# Computes for the stress
compute cstress all stress/atom t ke pair bond angle
compute cstressVirial all stress/atom t virial
compute cstressVirialMod all stress/atom t pair bond angle
compute stress all reduce sum c_cstress[*]
compute stressVirial all reduce sum c_cstressVirial[*]
compute stressVirialMod all reduce sum c_cstressVirialMod[*]

# Displacement of the central particles
compute disp CM displace/atom
compute redDisp CM reduce ave c_disp[*] # All, because yes

# Get the number of central particles per cluster
compute clusters all aggregate/atom 0.6                             # Create the clusters
compute Nclpart CM chunk/atom c_clusters compress yes discard yes   # Get the number of clusters
compute clsize CM property/chunk Nclpart count                      # Counts the atoms in each chunk
compute idcl CM property/chunk Nclpart id                           # Get the ids of the clusters

# DUMPS and FIXES

thermo ${NsaveStress}
thermo 1000

# Save global energies and temperature
fix Energy all ave/time 1 ${Nsave} ${Nsave} c_t c_wcaPair c_patchPair c_swapPair c_ep c_ek v_eT v_ec v_eC c_p v_eB v_eA v_eM c_redDisp[*] file ${Dir}/${file1_name}
fix Energy all ave/time 1 1000 ${Nsave} c_t c_wcaPair c_patchPair c_swapPair c_ep c_ek v_eT v_ec v_eC c_p v_eB v_eA v_eM c_redDisp[*] file ${Dir}/${file1_name}
fix Energy all ave/time 1 1000 1000 c_t c_wcaPair c_patchPair c_swapPair c_ep c_ek v_eT v_ec v_eC c_p v_eB v_eA v_eM c_redDisp[*] file ${Dir}/${file1_name}
fix Energy all ave/time 1 1000 1000 c_t c_wcaPair c_patchPair c_swapPair c_ep c_ek v_eT v_ec v_eC c_p v_eB v_eA v_eM c_redDisp[*] file /home/franvt/GitRepos/molDynLammps/polymericGels/gel-bonds-1/data/0.050.30.05500-2026-01-26-101526/${file1_name}
fix Energy all ave/time 1 1000 1000 c_t c_wcaPair c_patchPair c_swapPair c_ep c_ek v_eT v_ec v_eC c_p v_eB v_eA v_eM c_redDisp[*] file /home/franvt/GitRepos/molDynLammps/polymericGels/gel-bonds-1/data/0.050.30.05500-2026-01-26-101526/system_assembly.fixf

# Save Pressure and Stress tensor
fix fixStress5 all ave/time 1 ${NsaveStress} ${NsaveStress} c_p c_press[*] c_pressVirial[*] c_pressVirialMod[*] c_stress[*] c_stressVirial[*] c_stressVirialMod[*] file ${Dir}/${file2_name}
fix fixStress5 all ave/time 1 1000 ${NsaveStress} c_p c_press[*] c_pressVirial[*] c_pressVirialMod[*] c_stress[*] c_stressVirial[*] c_stressVirialMod[*] file ${Dir}/${file2_name}
fix fixStress5 all ave/time 1 1000 1000 c_p c_press[*] c_pressVirial[*] c_pressVirialMod[*] c_stress[*] c_stressVirial[*] c_stressVirialMod[*] file ${Dir}/${file2_name}
fix fixStress5 all ave/time 1 1000 1000 c_p c_press[*] c_pressVirial[*] c_pressVirialMod[*] c_stress[*] c_stressVirial[*] c_stressVirialMod[*] file /home/franvt/GitRepos/molDynLammps/polymericGels/gel-bonds-1/data/0.050.30.05500-2026-01-26-101526/${file2_name}
fix fixStress5 all ave/time 1 1000 1000 c_p c_press[*] c_pressVirial[*] c_pressVirialMod[*] c_stress[*] c_stressVirial[*] c_stressVirialMod[*] file /home/franvt/GitRepos/molDynLammps/polymericGels/gel-bonds-1/data/0.050.30.05500-2026-01-26-101526/stress_assembly.fixf

# Save the global cluster information
fix 1 CM ave/time 1 1 ${Ndump} c_idcl c_clsize file ${Dir}/${file3_name} mode vector
fix 1 CM ave/time 1 1 1000 c_idcl c_clsize file ${Dir}/${file3_name} mode vector
fix 1 CM ave/time 1 1 1000 c_idcl c_clsize file /home/franvt/GitRepos/molDynLammps/polymericGels/gel-bonds-1/data/0.050.30.05500-2026-01-26-101526/${file3_name} mode vector
fix 1 CM ave/time 1 1 1000 c_idcl c_clsize file /home/franvt/GitRepos/molDynLammps/polymericGels/gel-bonds-1/data/0.050.30.05500-2026-01-26-101526/clust_assembly.fixf mode vector

# Save atom positions with cluster id
dump dumpID all custom ${Ndump} ${Dir}/traj/${file5_name} id mol c_clusters type x y z vx vy vz
dump dumpID all custom 1000 ${Dir}/traj/${file5_name} id mol c_clusters type x y z vx vy vz
dump dumpID all custom 1000 /home/franvt/GitRepos/molDynLammps/polymericGels/gel-bonds-1/data/0.050.30.05500-2026-01-26-101526/traj/${file5_name} id mol c_clusters type x y z vx vy vz
dump dumpID all custom 1000 /home/franvt/GitRepos/molDynLammps/polymericGels/gel-bonds-1/data/0.050.30.05500-2026-01-26-101526/traj/traj_assembly.*.dumpf id mol c_clusters type x y z vx vy vz
dump_modify dumpID pbc yes # remap atoms via periodic boundary conditions

# RUN SIMULATION

# Brownian Dynamics using Langevin Thermostat

timestep ${tstep}
timestep 0.001

fix VelVerlet all nve # Use Velocity Verlet integrator

# First elevate the temperature
fix ThermoLng all langevin 0.0 ${temp} ${damp} ${seed3} tally yes zero yes # Brownian Dynamics: langevin + nve
fix ThermoLng all langevin 0.0 0.05 ${damp} ${seed3} tally yes zero yes 
fix ThermoLng all langevin 0.0 0.05 1 ${seed3} tally yes zero yes 
fix ThermoLng all langevin 0.0 0.05 1 2010 tally yes zero yes 
run ${stepsheat}
run 500000
WARNING: Using a manybody potential with bonds/angles/dihedrals and special_bond exclusions (src/pair.cpp:250)
Hybrid pair style last /omp style table/omp
Last active /omp style is angle_style harmonic/omp
Neighbor list info ...
  update: every = 1 steps, delay = 0 steps, check = yes
  max neighbors/atom: 2000, page size: 100000
  master list distance cutoff = 2.92
  ghost atom cutoff = 2.92
  binsize = 1.46, bins = 14 14 14
  7 neighbor lists, perpetual/occasional/extra = 6 1 0
  (1) pair zero, perpetual, skip from (7)
      attributes: half, newton on, omp
      pair build: skip/omp
      stencil: none
      bin: none
  (2) pair lj/cut/omp, perpetual, skip from (7)
      attributes: half, newton on, omp
      pair build: skip/omp
      stencil: none
      bin: none
  (3) pair table/omp, perpetual, skip from (7)
      attributes: half, newton on, omp
      pair build: skip/omp
      stencil: none
      bin: none
  (4) pair threebody/table, perpetual, skip from (6)
      attributes: full, newton on, omp
      pair build: skip/omp
      stencil: none
      bin: none
  (5) compute aggregate/atom, occasional, copy from (6)
      attributes: full, newton on, omp
      pair build: copy
      stencil: none
      bin: none
  (6) neighbor class addition, perpetual
      attributes: full, newton on, omp
      pair build: full/bin/omp
      stencil: full/bin/3d
      bin: standard
  (7) neighbor class addition, perpetual, half/full from (6)
      attributes: half, newton on, omp
      pair build: halffull/newton/omp
      stencil: none
      bin: none
Per MPI rank memory allocation (min/avg/max) = 20.03 | 20.03 | 20.03 Mbytes
   Step          Temp          E_pair         E_mol          TotEng         Press     
         0   0              0.00041490155  0.15480456     0.15521947    -0.21361809   
      1000   0.038128237    0              0.00013757075  0.057293028    0.0036255212 
      2000   0.00015524756  8.543009e-08   0.020977048    0.021209855    0.068369326  
      3000   0.0053601671   0              0.0001566732   0.0081917366   0.0024773034 
      4000   0.00032043582  0              0.0030278828   0.0035082264  -0.026562159  
      5000   0.0011098552   0              0.00027894739  0.0019426561  -0.0005261401 
      6000   0.00052871377  0              0.00073390715  0.0015264661   0.0095531329 
      7000   0.00072896697  0              0.00040823029  0.0015009753  -1.2979742e-05
      8000   0.0007251149   0              0.00053299756  0.0016199682  -0.0032626071 
      9000   0.00081771509  1.3387704e-06  0.00052435467  0.0017514747   2.4759112e-06
     10000   0.00090243713  0              0.0006006103   0.0019533927   0.0011493598 
     11000   0.0010197323   0              0.00066288448  0.0021914962  -0.00042254769
     12000   0.0011051079   0              0.00072884253  0.0023854349  -0.00024522879
     13000   0.0011985165   0              0.00078137006  0.0025779849   0.00057614678
     14000   0.0013249056   0              0.00085482435  0.0028409006   0.00081224385
     15000   0.0014112991   0              0.00096232634  0.0030779093  -0.00010780047
     16000   0.0015343975   0              0.0010154688   0.0033155802  -0.00081771796
     17000   0.0016020278   4.7441589e-08  0.0010642477   0.0034657865   0.00030980887
     18000   0.0017598133   0              0.0011497192   0.003787736    0.0012942109 
     19000   0.0018430414   0              0.0012059735   0.003968752    5.7970273e-05
     20000   0.0019080305   0              0.0012946994   0.0041548986  -0.00044607826
     21000   0.001992366    5.7799363e-07  0.0013610759   0.0043482748   0.00069963965
     22000   0.0021283243  -3.6672612e-09  0.0014649008   0.0046553239   0.00056659963
     23000   0.0025735469  -0.0015218821   0.0017283014   0.004064249    0.00012610136
     24000   0.0024444094  -0.0016039619   0.0016864538   0.0037467405  -0.00025353478
     25000   0.0024681684  -0.0016016608   0.0016795706   0.0037777739  -0.00025316254
     26000   0.0025092316  -0.001589946    0.001707866    0.0038793392   0.00073864395
     27000   0.0030589285  -0.0031177114   0.002012252    0.0034799731   0.00066127919
     28000   0.002845273   -0.0031717067   0.0020052056   0.003098655   -0.00065030665
     29000   0.0028512639  -0.0032042003   0.0019482227   0.0030181589  -0.00057429635
     30000   0.0032344357  -0.0047618896   0.0020775691   0.0021642029  -0.00033739482
     31000   0.0030894149  -0.0048363168   0.0022389438   0.0020337595  -5.3009553e-05
     32000   0.0032581607  -0.0048324545   0.0021927205   0.0022443541   0.0004081845 
     33000   0.0032215756  -0.0048326584   0.0023286392   0.0023252265   0.00081874659
     34000   0.0040031854  -0.0075381178   0.0027834668   0.0012462531  -0.00038818505
     35000   0.0034571004  -0.0077706526   0.0024728762  -0.00011547145 -0.00047436738
     36000   0.0044781808  -0.010762873    0.002879389   -0.0011705465   0.00029027022
     37000   0.0046349367  -0.012733258    0.0026719396  -0.0031133985   0.0014358727 
     38000   0.003998545   -0.012685588    0.002635141   -0.004056499    0.00085337462
     39000   0.0042627611  -0.014426017    0.0027870632  -0.0052489372  -0.00031597353
     40000   0.004134619   -0.014466278    0.0026197665  -0.0056485844  -0.0001137876 
     41000   0.0039847584  -0.014424344    0.0027835834  -0.005667479    0.0012337074 
     42000   0.0041003877  -0.014461977    0.0027443035  -0.00557106     0.00093054757
     43000   0.0046610268  -0.016092878    0.0029636582  -0.0061421907  -0.00089918803
     44000   0.0050067312  -0.017410171    0.0032844405  -0.0066204791   0.00065734213
     45000   0.004455419   -0.017661738    0.0034852371  -0.0074976837   0.00065597604
     46000   0.0051730411  -0.018875657    0.0031358034  -0.0079852986   0.0012827956 
     47000   0.0048234191  -0.020213159    0.0036651187  -0.0093175793  -0.00014686758
     48000   0.0050129943  -0.020804911    0.0032635772  -0.010026693    0.0010465819 
     49000   0.0048960789  -0.02092223     0.003432082   -0.010150768    0.00069088756
     50000   0.0049235086  -0.020936616    0.0033882007  -0.010167917    0.00079825125
     51000   0.00492648    -0.020952896    0.0034339135  -0.01013403    -9.9449397e-06
     52000   0.0049640066  -0.020935875    0.0036265379  -0.0098681306   0.0005278417 
     53000   0.0051770599  -0.020929367    0.003623604   -0.0095451832   0.00036990358
     54000   0.0052657508  -0.020944248    0.0034947157  -0.0095560024   0.00086037796
     55000   0.0060853671  -0.023751249    0.0038114575  -0.01081763    -0.0011225271 
     56000   0.0062538265  -0.025626116    0.0044453757  -0.011806053   -0.00027783503
     57000   0.0059547504  -0.025535002    0.0040988231  -0.012509816    0.00078965433
     58000   0.0058286135  -0.025713989    0.0042028718  -0.012773837    0.00087809502
     59000   0.0059676236  -0.025765081    0.004081245   -0.012738176   -0.00083566962
     60000   0.0062263966  -0.028179923    0.0047460447  -0.014100309   -0.00074142725
     61000   0.0059818772  -0.028790768    0.0043156234  -0.015508118    0.0019284784 
     62000   0.0067672005  -0.030551642    0.0044656802  -0.01594171     0.00085783845
     63000   0.0061759127  -0.030546407    0.0042984406  -0.016990074    0.00022777165
     64000   0.006368309   -0.030614988    0.0043737853  -0.016694903    0.00091681367
     65000   0.006979178   -0.03180092     0.0046508149  -0.016688092   -0.0010421423 
     66000   0.006667507   -0.033497093    0.0049865955  -0.018515689   -0.00018351472
     67000   0.0070366041  -0.035029979    0.0048388929  -0.019642989    0.001288804  
     68000   0.0066585769  -0.035294355    0.0049549037  -0.020358029    0.00035402746
     69000   0.00774469    -0.03695675     0.0046795276  -0.020667683    0.00070925206
     70000   0.0075509027  -0.04064005     0.0055705939  -0.02375041    -0.0018496157 
     71000   0.0080932312  -0.043399417    0.005499981   -0.025767421    0.0017198277 
     72000   0.0073398181  -0.043454734    0.0052650805  -0.02718703     0.0016786875 
     73000   0.0082095926  -0.045840785    0.0054637154  -0.028070625    0.0004600615 
     74000   0.0077800166  -0.046450173    0.0052802499  -0.029507427   -0.00041996995
     75000   0.0074292031  -0.046591614    0.0053660244  -0.030088975   -0.00041463259
     76000   0.0080027951  -0.048257038    0.0055370475  -0.030723543    0.0020339269 
     77000   0.0076748602  -0.048277163    0.0053867585  -0.031385542    0.001708909  
     78000   0.008144959   -0.049644101    0.0054825338  -0.03195201    -0.00091277784
     79000   0.0074898826  -0.051124451    0.005852221   -0.034044654    0.00045086305
     80000   0.0082122728  -0.052183593    0.0058364175  -0.034036714   -0.00035149015
     81000   0.0085000032  -0.054556112    0.0056781302  -0.036136202    0.00015970755
     82000   0.0082185397  -0.056153057    0.0062090051  -0.037624196    0.00014269859
     83000   0.0096146426  -0.058705174    0.006278348   -0.038014166    0.00037179401
     84000   0.0092357251  -0.059354831    0.005857861   -0.03965232     0.00047488718
     85000   0.0081015621  -0.059531149    0.0058980691  -0.041488577   -9.8837603e-05
     86000   0.0088965743  -0.061422849    0.0060647872  -0.04202181    -0.00091965681
     87000   0.008721849   -0.062409196    0.0064831676  -0.042851695    0.0029836841 
     88000   0.010043441   -0.06582373     0.0067625536  -0.044005735    0.0013747767 
     89000   0.0095545455  -0.066951882    0.0061576629  -0.046471648    0.00010086466
     90000   0.010147375   -0.069095769    0.0060937386  -0.047790787    0.00022778544
     91000   0.0092176955  -0.069033274    0.0067508475  -0.048464804    0.00063674755
     92000   0.0095120861  -0.070714241    0.0067916841  -0.049663633    0.0015618703 
     93000   0.0092714691  -0.070794768    0.006522662   -0.050373875    0.0014469555 
     94000   0.0093884616  -0.070797593    0.0067830233  -0.049940963    0.0010637428 
     95000   0.010528898   -0.073839706    0.0066369646  -0.051419583    0.0018230506 
     96000   0.0097243418  -0.073761103    0.0063165777  -0.052867424   -0.0007493365 
     97000   0.010361445   -0.075603985    0.0070295896  -0.053042255    0.00013826626
     98000   0.010936829   -0.078282777    0.0072153604  -0.054672758    0.00022203233
     99000   0.010007058   -0.07857286     0.0069755328  -0.056596425   -0.00061588076
    100000   0.010245952   -0.0787175      0.0072617911  -0.056096696   -0.00060968091
    101000   0.010321905   -0.080184721    0.006843532   -0.05786832    -2.6514343e-05
    102000   0.0098863423  -0.080469564    0.0071374487  -0.05851217     0.0013675838 
    103000   0.011470406   -0.083627393    0.0076160969  -0.058816787    0.00050325661
    104000   0.011527542   -0.085612898    0.0075690398  -0.060763701    0.0024648261 
    105000   0.011119937   -0.087780608    0.0078257665  -0.063285697    0.00052593822
    106000   0.01170929    -0.09016856     0.0077799722  -0.064835983   -0.0010794652 
    107000   0.011522565   -0.09285923     0.0077139178  -0.067872615    0.0014563314 
    108000   0.013520888   -0.099770544    0.0085623327  -0.070939963    0.0011599371 
    109000   0.011529412   -0.1033862      0.0088490306  -0.077254211    9.9780679e-05
    110000   0.012026175   -0.10566135     0.0082480033  -0.079385721    0.00075832342
    111000   0.011215969   -0.10599615     0.0076627336  -0.081520322    0.00083506577
    112000   0.011155031   -0.10616894     0.0077189127  -0.081728273   -0.00026488348
    113000   0.011436224   -0.10621597     0.0077084037  -0.081364294    7.3577918e-05
    114000   0.012672019   -0.11039043     0.0085998253  -0.082794837    0.0012530127 
    115000   0.012153045   -0.11208671     0.0085175372  -0.085351362   -6.4095154e-05
    116000   0.012049636   -0.11466189     0.0086054506  -0.087993642   -0.0015391253 
    117000   0.012500978   -0.11861915     0.008675929   -0.091203854   -0.00017766143
    118000   0.012164833   -0.12027147     0.0084421895  -0.0935938     -0.00064637301
    119000   0.012033082   -0.12033109     0.0085189402  -0.093774174    0.00068443672
    120000   0.012304774   -0.11982163     0.0079773638  -0.093399014    0.0024791538 
    121000   0.012028658   -0.12077415     0.0089514016  -0.093791407    0.00090288115
    122000   0.012537071   -0.12184897     0.0084396635  -0.094615833    0.0012764319 
    123000   0.011919732   -0.12178777     0.0082079957  -0.095711706   -0.00048057508
    124000   0.012163611   -0.12283956     0.008478292   -0.096127624   -0.00036466826
    125000   0.013825789   -0.12750224     0.0091808058  -0.097596127    0.00099001493
    126000   0.013504797   -0.12981905     0.0092467565  -0.10032817     0.00012482573
    127000   0.013439961   -0.13079658     0.0090507072  -0.10159894     0.0011432764 
    128000   0.013012717   -0.13093314     0.0089827647  -0.10244389     0.0019440424 
    129000   0.013962174   -0.13409073     0.0097263383  -0.10343465    -0.0010035842 
    130000   0.014523329   -0.1382666      0.0098774655  -0.10661819     0.00054346323
    131000   0.014403762   -0.14060488     0.0095935778  -0.1094196      0.00094257728
    132000   0.013976998   -0.14411563     0.0097865451  -0.11337712    -0.00028717769
    133000   0.014452538   -0.14595335     0.0091556166  -0.11513291     0.0017439295 
    134000   0.01477987    -0.14760491     0.010010159   -0.11543925     0.0016421832 
    135000   0.01407846    -0.14890219     0.0095202403  -0.11827788    -0.00064767521
    136000   0.01398979    -0.15049801     0.0093087004  -0.12021816     0.0015252768 
    137000   0.013813858   -0.15115895     0.0099643113  -0.12048722     0.0022627931 
    138000   0.015546864   -0.1561069      0.0097168719  -0.12308478     0.0025026716 
    139000   0.014323714   -0.15811716     0.010175028   -0.12647042    -0.00051868088
    140000   0.014600742   -0.15968094     0.010616673   -0.12717728     0.0031588726 
    141000   0.014002304   -0.1600271      0.0095521076  -0.12948509    -0.00072309622
    142000   0.014707236   -0.16237418     0.0099462583  -0.1303813      0.0015348817 
    143000   0.014279091   -0.16329044     0.0098474887  -0.13203813    -0.00037088987
    144000   0.015445922   -0.16828354     0.010655802   -0.13447381     0.0027167188 
    145000   0.015508959   -0.17218448     0.010631815   -0.13830424    -0.00074869347
    146000   0.016809512   -0.17680752     0.01127115    -0.14033837    -0.0033860592 
    147000   0.017790705   -0.18476015     0.011735713   -0.1463556      0.001809275  
    148000   0.016435515   -0.18797597     0.011221263   -0.15211734     0.0032478816 
    149000   0.01556594    -0.19066986     0.011013799   -0.15632222     0.00070662537
    150000   0.016020087   -0.19275614     0.010709003   -0.15803251     0.0011539458 
    151000   0.017319484   -0.19676535     0.010654793   -0.16014809     0.00059819689
    152000   0.015894546   -0.19867778     0.010545786   -0.16430556     0.00033713564
    153000   0.015662758   -0.20089609     0.01063063    -0.16678648     0.0013658176 
    154000   0.016448764   -0.20295319     0.010249145   -0.16804682     0.00072499201
    155000   0.015214023   -0.20278702     0.01067193    -0.16930878     0.00050876194
    156000   0.016429981   -0.20554337     0.01122027    -0.16969403    -0.00040984206
    157000   0.016169088   -0.207497       0.01142525    -0.17183377     0.0023347039 
    158000   0.015694694   -0.2078498      0.011196875   -0.17312607     0.0021385957 
    159000   0.016729239   -0.20975725     0.010602912   -0.17407667     0.00065797939
    160000   0.018884262   -0.21742454     0.012472999   -0.17664343    -0.0022252466 
    161000   0.016554474   -0.21829539     0.012129761   -0.18134994     0.0013860148 
    162000   0.017145173   -0.21956637     0.011227418   -0.18263779    -0.00013805396
    163000   0.016977155   -0.2199947      0.011077365   -0.18346803    -0.00020005891
    164000   0.016118114   -0.22138625     0.011393215   -0.18583146     0.0021668194 
    165000   0.015887471   -0.22116355     0.011817581   -0.18553014     0.0040307943 
    166000   0.01643539    -0.22263268     0.012252133   -0.18574337    -0.00010890316
    167000   0.017303351   -0.2265019      0.012157478   -0.18840614    -0.0011023012 
    168000   0.017510164   -0.22726511     0.011294386   -0.18972243     0.0012372189 
    169000   0.017898752   -0.23187567     0.012296958   -0.19274791     0.0021897251 
    170000   0.017634835   -0.23153127     0.012104267   -0.19299182     0.0020629371 
    171000   0.01836716    -0.23446897     0.011809778   -0.19512623    -0.0018338496 
    172000   0.018980666   -0.23819923     0.012423925   -0.19732268     0.0032499168 
    173000   0.017920269   -0.23947281     0.011892009   -0.20071774    -0.00010607443
    174000   0.017708454   -0.24186777     0.012936801   -0.20238542     0.00064821455
    175000   0.018386006   -0.2434897      0.012237923   -0.20369056     3.4361569e-05
    176000   0.01876647    -0.24661441     0.012794033   -0.20568883     0.0009597011 
    177000   0.018231061   -0.24838894     0.012593682   -0.20846631     0.0012085759 
    178000   0.01865116    -0.25250814     0.012963053   -0.2115864      0.0029338567 
    179000   0.019685943   -0.2582975      0.012942926   -0.21584471     0.003523847  
    180000   0.020267829   -0.26185456     0.013464784   -0.21800765     0.0037487838 
    181000   0.018457333   -0.26268002     0.012754781   -0.2222571     -0.001164008  
    182000   0.018179061   -0.26476576     0.012541467   -0.2249733      0.0020453172 
    183000   0.01904667    -0.26771863     0.012933721   -0.22623334     0.0021047531 
    184000   0.019401618   -0.26890303     0.013199089   -0.22662029     0.0036909435 
    185000   0.019051862   -0.26974013     0.013273712   -0.22790706    -0.0016743588 
    186000   0.019071968   -0.26951437     0.013844372   -0.2270805      0.00065408498
    187000   0.021081007   -0.27284822     0.013323397   -0.22792372     0.0054805589 
    188000   0.019702062   -0.27415114     0.013452297   -0.23116481    -0.00050011186
    189000   0.018995161   -0.27446717     0.013906732   -0.23208608     0.00034958661
    190000   0.019539333   -0.2773007      0.014349499   -0.23366111    -0.0024238175 
    191000   0.020425045   -0.27912954     0.013268719   -0.23524302     8.9485553e-05
    192000   0.02042754    -0.28165242     0.013430962   -0.23759991     0.0016272571 
    193000   0.019788786   -0.28244413     0.012944587   -0.23983551     0.00011336533
    194000   0.01898992    -0.28256779     0.013105083   -0.2409962      0.00021929444
    195000   0.019266172   -0.28267788     0.013033495   -0.24076377    -0.0018834085 
    196000   0.02038122    -0.28465615     0.013507624   -0.24059642     0.0028945657 
    197000   0.020446187   -0.28673066     0.014211092   -0.24187007     3.8671082e-05
    198000   0.020236226   -0.28715744     0.013294373   -0.24352831    -0.00089361611
    199000   0.020116882   -0.28840586     0.014251907   -0.2439981      0.00085476724
    200000   0.019771003   -0.29029618     0.015104412   -0.2455544     -0.0012542755 
    201000   0.019552432   -0.2901582      0.014576044   -0.24627243    -0.00039119357
    202000   0.0192759     -0.29026953     0.0145339     -0.24684044    -0.002398628  
    203000   0.020097273   -0.29050403     0.014000926   -0.24637665     0.0032348986 
    204000   0.019570673   -0.29185268     0.014457889   -0.24805773     0.00045829945
    205000   0.020485889   -0.29455992     0.014949177   -0.24890173     0.00031276566
    206000   0.020865907   -0.29601223     0.014927742   -0.24980582     0.0056619956 
    207000   0.022259827   -0.29776004     0.014082299   -0.25030954    -0.00029566679
    208000   0.020246529   -0.2993588      0.014499326   -0.25450927     5.2307611e-05
    209000   0.021667924   -0.30351747     0.015202193   -0.25583436    -0.00024158855
    210000   0.022605359   -0.30451975     0.014781598   -0.25585199    -0.0011951419 
    211000   0.022706968   -0.30582003     0.015283358   -0.25649819     0.0018396129 
    212000   0.022584727   -0.30850233     0.015705649   -0.25894145     1.6971574e-05
    213000   0.021593756   -0.30915881     0.015154039   -0.26163503     0.0039126596 
    214000   0.021140188   -0.31046542     0.0149229     -0.2638527     -0.0016160076 
    215000   0.021195109   -0.31133793     0.014502456   -0.26506332     0.0032519967 
    216000   0.022998512   -0.31297376     0.014927548   -0.2635707      0.0038553082 
    217000   0.023312519   -0.31723663     0.015434993   -0.26685542     0.00071102009
    218000   0.02289239    -0.31884191     0.016038467   -0.26848701    -0.0061743407 
    219000   0.023027776   -0.32019243     0.01546029    -0.27021277    -0.0013228208 
    220000   0.021908721   -0.31995749     0.014957587   -0.27215802     0.0011831529 
    221000   0.022848464   -0.32261258     0.015302838   -0.27305915    -0.00056443261
    222000   0.023008081   -0.3250545      0.015846618   -0.27471803     0.0021087538 
    223000   0.023413639   -0.32674355     0.015506422   -0.27613932     0.0023797355 
    224000   0.023298889   -0.32807623     0.016129973   -0.27702047     0.0043576815 
    225000   0.021834614   -0.32918825     0.015852885   -0.28060458    -0.0039579056 
    226000   0.022172356   -0.32873859     0.015529812   -0.27997171     0.003278102  
    227000   0.021893316   -0.32901334     0.015248014   -0.28094654     0.0018366878 
    228000   0.022637931   -0.33063673     0.016389059   -0.28031268     0.0028434644 
    229000   0.023483438   -0.33280469     0.016031747   -0.28157052     0.0018034445 
    230000   0.02464461    -0.33604782     0.016399761   -0.282705      -0.0029871635 
    231000   0.024744583   -0.34142442     0.018137151   -0.28619434     0.00036097176
    232000   0.024216291   -0.34168832     0.015606347   -0.28978097     0.00080656836
    233000   0.023712463   -0.34325646     0.016246417   -0.29146429     0.0026909988 
    234000   0.023490475   -0.34571632     0.017173704   -0.29332963     0.0019674368 
    235000   0.023699912   -0.34629564     0.01641872    -0.29434998    -5.7987447e-05
    236000   0.02473833    -0.34818477     0.016699167   -0.29440205     0.0031631012 
    237000   0.024739244   -0.34745203     0.016870813   -0.29349629    -0.0017792168 
    238000   0.024760699   -0.34878403     0.017415549   -0.2942514      0.0027218724 
    239000   0.024216089   -0.34948957     0.017402434   -0.29578644    -0.0026934188 
    240000   0.024967685   -0.35041511     0.017262171   -0.29572557    -0.0027910117 
    241000   0.024891729   -0.35298499     0.016811989   -0.29885949     0.0022100832 
    242000   0.023986307   -0.35319563     0.016847566   -0.30039181     0.0039412951 
    243000   0.025249111   -0.35354375     0.016643259   -0.29905126     0.0021099406 
    244000   0.024012096   -0.35385851     0.017593744   -0.30026986     7.7546294e-06
    245000   0.02614311    -0.3559716      0.017787235   -0.298995       7.9917535e-05
    246000   0.025251155   -0.35603724     0.017678466   -0.30050648    -0.0014293135 
    247000   0.024570051   -0.35892106     0.01857851    -0.30351125    -0.0019176141 
    248000   0.025625913   -0.36219177     0.018495676   -0.30528202     0.0022083501 
    249000   0.024612688   -0.36237728     0.01821528    -0.30726678     0.0015097289 
    250000   0.0259148     -0.36405695     0.017424074   -0.30778576     0.0028544124 
    251000   0.026155786   -0.36625943     0.017825088   -0.30922597     0.0025542053 
    252000   0.024988714   -0.36958924     0.01804571    -0.31408465     0.0013622442 
    253000   0.025927356   -0.37237945     0.017253023   -0.31626049    -0.0010461959 
    254000   0.026481719   -0.37598116     0.01977583    -0.31650838     0.0045141134 
    255000   0.026437248   -0.37771545     0.019376104   -0.31870906    -0.00034613659
    256000   0.026576781   -0.37777574     0.017635604   -0.32030069    -0.0020311593 
    257000   0.025495839   -0.37831625     0.017154443   -0.32294272     0.00089913877
    258000   0.02549497    -0.37846404     0.017153563   -0.3230927      0.00017372091
    259000   0.024697026   -0.37835347     0.017929303   -0.32340253     0.0035258765 
    260000   0.02641092    -0.37983631     0.017349701   -0.32289579     0.0025277215 
    261000   0.027445963   -0.38159521     0.018387059   -0.32206577    -0.00089317523
    262000   0.026429763   -0.38277941     0.017693291   -0.32546705    -0.0010953154 
    263000   0.025484224   -0.3833674      0.019066859   -0.32609887    -0.0008836402 
    264000   0.027134902   -0.3859966      0.018524881   -0.32679562     0.0012859847 
    265000   0.02675489    -0.38650158     0.018103719   -0.32829142    -0.0020770954 
    266000   0.026754727   -0.38749274     0.01882412    -0.32856242     0.0031494562 
    267000   0.027817058   -0.38926392     0.019296079   -0.32826917    -0.0010822999 
    268000   0.027967245   -0.39002261     0.018822569   -0.32927624     0.0053439054 
    269000   0.027898375   -0.39167332     0.019786881   -0.33006587     0.0039827187 
    270000   0.02743035    -0.39292295     0.018942319   -0.33286165     0.00093842913
    271000   0.028000417   -0.39633243     0.019650605   -0.33470829     0.0048567698 
    272000   0.028119077   -0.39930695     0.019561401   -0.33759415     0.00028233696
    273000   0.028702742   -0.39934035     0.018966302   -0.33734772     0.00013082295
    274000   0.028309954   -0.40133245     0.020445265   -0.33844965    -0.0015562536 
    275000   0.028213603   -0.40543824     0.019818845   -0.34332629    -0.0030544129 
    276000   0.027907015   -0.40608098     0.019525769   -0.34472169     0.0023304084 
    277000   0.027112805   -0.40844111     0.020032606   -0.34776554     0.0032708418 
    278000   0.027251462   -0.40844221     0.019675782   -0.34791561     0.00090083141
    279000   0.029368066   -0.4110653      0.019689291   -0.34735233     0.0039364645 
    280000   0.030838971   -0.41455872     0.019404971   -0.34892514    -0.0028101875 
    281000   0.030396176   -0.41618098     0.020249701   -0.35036643     0.0011356817 
    282000   0.02820002    -0.4167933      0.020120932   -0.35439963     0.0011331461 
    283000   0.028459081   -0.41774754     0.019647341   -0.35543912     0.0029334785 
    284000   0.028717055   -0.417578       0.019629283   -0.35490092     0.002290415  
    285000   0.028015301   -0.41976866     0.020101011   -0.3576718      0.0014259934 
    286000   0.028361318   -0.41955698     0.018387456   -0.35865499    -0.00098109336
    287000   0.029119757   -0.42126296     0.019677039   -0.35793446     0.0035480821 
    288000   0.02905172    -0.42176324     0.02007744    -0.35813633     0.0031437369 
    289000   0.029128053   -0.422615       0.020261289   -0.35868982     0.001041855  
    290000   0.030734426   -0.42543722     0.020578231   -0.35878709     0.0054165689 
    291000   0.029417051   -0.42626344     0.019690079   -0.36247625    -0.00071803016
    292000   0.029091076   -0.42635985     0.02148576    -0.36126563    -0.0013685805 
    293000   0.028760491   -0.42572546     0.020097981   -0.36251458     0.00058807661
    294000   0.029494707   -0.42712709     0.020635767   -0.3622778      0.00053854439
    295000   0.031981365   -0.42957459     0.021277594   -0.3603559      0.0045099966 
    296000   0.030572527   -0.42986624     0.02197063    -0.3620664     -0.00027157434
    297000   0.031604538   -0.43273416     0.021290035   -0.3640679     -0.0036752225 
    298000   0.030190461   -0.43309172     0.021569492   -0.36626575     0.00088319984
    299000   0.030435178   -0.43306407     0.020308962   -0.36713179    -0.00050357966
    300000   0.029879091   -0.43289674     0.020607778   -0.36749924     0.0042464002 
    301000   0.031017078   -0.43451243     0.020538458   -0.36747837     0.00075634858
    302000   0.029602041   -0.43513417     0.021661019   -0.36909874     9.9177741e-05
    303000   0.031838697   -0.43602615     0.021270801   -0.36702812     0.00024596884
    304000   0.031128368   -0.43779197     0.021615191   -0.36951435     0.0027789836 
    305000   0.031517983   -0.43746994     0.02055776    -0.3696657      0.0022452174 
    306000   0.030994076   -0.43936883     0.022112398   -0.37079531     0.0041780707 
    307000   0.030389243   -0.44062943     0.021485269   -0.3735897      0.00079484622
    308000   0.030670587   -0.44072253     0.021198717   -0.37354762     0.003336946  
    309000   0.030910218   -0.4407577      0.020545076   -0.37387721    -0.0030755973 
    310000   0.032126989   -0.44235556     0.02113911    -0.37305705    -0.0016684455 
    311000   0.032743964   -0.44329385     0.022652449   -0.37155714     0.00065956961
    312000   0.030957428   -0.44488873     0.020882118   -0.37760043    -0.0005293646 
    313000   0.031413018   -0.44545487     0.021945433   -0.37642031    -0.00060695797
    314000   0.031887613   -0.44746788     0.022229665   -0.37743766    -0.0030545821 
    315000   0.032644604   -0.44780676     0.02314555    -0.37572589     0.0051113159 
    316000   0.033484192   -0.45177082     0.023979123   -0.37759782     0.00011509385
    317000   0.032393814   -0.45198994     0.02239136    -0.38103921     0.00091883509
    318000   0.032631509   -0.45348439     0.022916621   -0.38165208     0.00089582808
    319000   0.032157109   -0.45370992     0.022108752   -0.38339662     0.0021270377 
    320000   0.032118822   -0.45358157     0.02279318    -0.38264124     0.0010713022 
    321000   0.032098437   -0.4537661      0.022019982   -0.38362953    -0.0035573693 
    322000   0.03242132    -0.45535373     0.022031115   -0.38472201     0.0024888342 
    323000   0.033553396   -0.45900185     0.023569172   -0.38513506    -0.0010034712 
    324000   0.033108997   -0.45967083     0.021918152   -0.38812122     0.0014630631 
    325000   0.032943478   -0.45996532     0.022676159   -0.38790583    -0.00031307402
    326000   0.032076207   -0.46044553     0.022704907   -0.38965735    -0.0049240971 
    327000   0.034037457   -0.46097697     0.022805347   -0.38714837     0.0028234113 
    328000   0.032635766   -0.46220057     0.022954887   -0.39032362    -0.0024477105 
    329000   0.033590018   -0.46178509     0.022493563   -0.388939       0.0011597373 
    330000   0.032205312   -0.46250106     0.023714883   -0.39050937     0.0029285066 
    331000   0.031946463   -0.46420211     0.023513997   -0.39279934    -0.001391958  
    332000   0.033983739   -0.46439645     0.022629889   -0.39082384     0.0037548628 
    333000   0.033421511   -0.4647293      0.023280439   -0.39134894    -0.0025470059 
    334000   0.034693701   -0.46817948     0.023549373   -0.39262313     0.0045092181 
    335000   0.034317683   -0.46918468     0.022813283   -0.39492808    -0.00020050077
    336000   0.033772186   -0.46953192     0.025930754   -0.39297557    -0.0020472386 
    337000   0.034684728   -0.46913916     0.023750848   -0.39339479     0.0020002858 
    338000   0.033325443   -0.4692306      0.024690729   -0.39458396    -0.00096652603
    339000   0.033681754   -0.47037956     0.023220541   -0.39666899     0.0061473738 
    340000   0.034040266   -0.47284885     0.024785789   -0.3970356     -0.0016575427 
    341000   0.033395579   -0.4726675      0.024105708   -0.39850074     0.0050585502 
    342000   0.036391581   -0.47599547     0.026689509   -0.39475381    -0.002200448  
    343000   0.035993299   -0.47880783     0.025256153   -0.39959656    -0.00091348394
    344000   0.034907032   -0.47887183     0.024376898   -0.40216817     0.0020704787 
    345000   0.034700847   -0.47755284     0.025204256   -0.40033089     0.0055633718 
    346000   0.036801836   -0.47854392     0.024569544   -0.39880724     0.0017485418 
    347000   0.035668844   -0.47996144     0.024573064   -0.40191962     0.0043667673 
    348000   0.036809241   -0.48000512     0.024979067   -0.39984782    -0.0013956314 
    349000   0.036863939   -0.48038775     0.023747752   -0.40137976     0.005935384  
    350000   0.034719834   -0.48131898     0.025184606   -0.40408822     0.00094464657
    351000   0.035783096   -0.48295203     0.025612742   -0.40369927     0.0013729898 
    352000   0.035386097   -0.48451971     0.026414502   -0.40506031     0.0030999228 
    353000   0.036110965   -0.4848268      0.024858154   -0.40583715    -0.0018377679 
    354000   0.035385039   -0.48592124     0.02609433    -0.4067836     -0.0023370617 
    355000   0.037025676   -0.48579951     0.023833645   -0.40646318     0.0072024356 
    356000   0.037329361   -0.48550501     0.024520372   -0.40502672    -0.0010991683 
    357000   0.036673115   -0.48677973     0.024911697   -0.40689385    -0.0030019249 
    358000   0.035091442   -0.48642723     0.023516202   -0.41030783     0.00062626284
    359000   0.036568204   -0.48608306     0.023024637   -0.4082415      0.0027004479 
    360000   0.035536469   -0.48836871     0.026504313   -0.40859408    -0.0020260125 
    361000   0.036775504   -0.48902265     0.026040975   -0.407854      -0.004106479  
    362000   0.03491004    -0.49008759     0.02687293    -0.41088339     0.00020097025
    363000   0.036300366   -0.49212163     0.026635043   -0.41107116    -0.0012883362 
    364000   0.039298463   -0.49211342     0.025677289   -0.40752647     0.0066857075 
    365000   0.037712598   -0.49231797     0.026303376   -0.40948219    -0.0057505238 
    366000   0.037205304   -0.49315944     0.027514145   -0.40987335     0.0053750593 
    367000   0.03635368    -0.49527697     0.026213603   -0.41456803    -0.00037079924
    368000   0.038117633   -0.49519102     0.026786239   -0.41126522    -0.0013909796 
    369000   0.037205244   -0.49741542     0.026628277   -0.41501528    -0.0006296648 
    370000   0.037679956   -0.50045594     0.026995601   -0.41697687    -0.0014868148 
    371000   0.036694324   -0.50086283     0.027861335   -0.41799552    -0.0021366604 
    372000   0.038281238   -0.50148029     0.025568379   -0.4185271      0.0010267849 
    373000   0.03618013    -0.50163508     0.026407116   -0.42099278     0.0027695076 
    374000   0.03792451    -0.50306417     0.026001312   -0.42021279     0.00029499112
    375000   0.038133215   -0.50357178     0.025165146   -0.42124371    -0.00065355975
    376000   0.038222816   -0.50429319     0.025908102   -0.42108785    -0.0014619292 
    377000   0.037757147   -0.50485372     0.024132703   -0.42412183     0.002444614  
    378000   0.037511639   -0.50449991     0.026748145   -0.4215206      0.0030739007 
    379000   0.037488037   -0.50384718     0.026628503   -0.4210229      0.004348244  
    380000   0.038852435   -0.50548561     0.026303415   -0.42094114    -0.0007504111 
    381000   0.039399251   -0.50569418     0.02711105    -0.41952238    -0.00021776222
    382000   0.039770544   -0.50507208     0.027550488   -0.41790426     0.0015640263 
    383000   0.040005061   -0.50757917     0.026940406   -0.42066989    -0.0019260651 
    384000   0.039817505   -0.50949744     0.028174597   -0.42163512     0.00081607106
    385000   0.039971171   -0.51171943     0.027484052   -0.4243173     -0.0016189737 
    386000   0.039051494   -0.51172492     0.027786971   -0.4253985     -0.0050413118 
    387000   0.038492721   -0.51027008     0.028368097   -0.42420016     0.0027068701 
    388000   0.038843992   -0.51024288     0.027906117   -0.42410837     0.005701145  
    389000   0.04131087    -0.51052738     0.028311646   -0.42028941     0.0049571601 
    390000   0.039727705   -0.51399695     0.029953481   -0.42449036     0.0024550467 
    391000   0.040092224   -0.51464102     0.029675034   -0.42486645     0.00019733983
    392000   0.038805126   -0.51466725     0.027449857   -0.42904726     0.0019522389 
    393000   0.039390087   -0.51465392     0.028805631   -0.42680127    -0.0020245661 
    394000   0.040760986   -0.51610291     0.026912549   -0.42808833     0.0012914768 
    395000   0.040245322   -0.51904899     0.029016769   -0.42970319     0.0014264868 
    396000   0.039865192   -0.51937083     0.02765924    -0.43195238     0.0025228714 
    397000   0.04116921    -0.52001125     0.02802129    -0.43027599    -0.00039343091
    398000   0.040671541   -0.5201808      0.027941351   -0.4312715      0.0019755626 
    399000   0.040391184   -0.51991732     0.029307978   -0.43006165    -0.0035630163 
    400000   0.040738704   -0.51868976     0.027534328   -0.4300868      0.0015321856 
    401000   0.041376422   -0.51929977     0.025983676   -0.4312915     -0.0016627831 
    402000   0.041143914   -0.52193879     0.029750997   -0.43051174    -0.00079607232
    403000   0.044038342   -0.52658576     0.029483534   -0.43108734     0.00039158797
    404000   0.042487389   -0.52888581     0.031916307   -0.43327954     0.00093139683
    405000   0.044022282   -0.53174404     0.029332138   -0.43642108    -0.002376251  
    406000   0.042703741   -0.53366705     0.030508325   -0.43914444    -0.0057856902 
    407000   0.041021379   -0.53341225     0.030127129   -0.44179275     4.4664636e-05
    408000   0.040286885   -0.53432318     0.028978699   -0.44495314    -0.00070872138
    409000   0.04004081    -0.53421876     0.029820421   -0.44437587    -0.002667949  
    410000   0.041115713   -0.53546194     0.028239068   -0.4455891      0.0041233789 
    411000   0.041570507   -0.53614937     0.02904821    -0.44478563    -0.0062712828 
    412000   0.041250308   -0.53703461     0.030245276   -0.44495379     0.00088930147
    413000   0.042942994   -0.54098747     0.028691334   -0.4479232      0.0024743001 
    414000   0.04356398    -0.54265754     0.030257005   -0.44709673     0.00268233   
    415000   0.041302149   -0.54532332     0.030420725   -0.45298934     0.0015509538 
    416000   0.044201747   -0.54536183     0.03065811    -0.44844387     0.0046099519 
    417000   0.042808225   -0.54717405     0.03057519    -0.45242795    -0.00037331892
    418000   0.042309789   -0.54996198     0.029937764   -0.45660048     0.0036991654 
    419000   0.042882176   -0.54932342     0.029516769   -0.45552489    -0.0011047935 
    420000   0.043146535   -0.55169724     0.028773595   -0.4582456     -0.0027262617 
    421000   0.043746277   -0.55398662     0.030079878   -0.45832966     0.0025190641 
    422000   0.044371627   -0.5550995      0.02925147    -0.45933353     0.0020501223 
    423000   0.042888673   -0.55576831     0.030349603   -0.4611272     -0.0013931494 
    424000   0.043226044   -0.55560442     0.029693628   -0.46111356     0.00023621383
    425000   0.043099847   -0.55509554     0.028507362   -0.46198012    -0.0074762346 
    426000   0.042013394   -0.55546896     0.029447087   -0.46304244     0.00021570419
    427000   0.041822406   -0.55587216     0.029622342   -0.46355668     0.00021141015
    428000   0.043535635   -0.5552308      0.029090047   -0.46087943     0.0013827047 
    429000   0.043168995   -0.55424388     0.030528893   -0.45900327     0.0047850258 
    430000   0.043756708   -0.5545207      0.028835405   -0.46009258     0.00063816931
    431000   0.041488054   -0.5550095      0.029108306   -0.46370926     0.00013435509
    432000   0.045497736   -0.55643809     0.030307531   -0.45792798     0.0034934135 
    433000   0.043950322   -0.55647802     0.029366286   -0.46122878     0.0074192349 
    434000   0.044189246   -0.55725245     0.032233028   -0.45877832     0.0017570973 
    435000   0.042658005   -0.55672782     0.029768576   -0.46301351     0.0017686984 
    436000   0.043040221   -0.55709125     0.030174427   -0.46239814    -0.0031376906 
    437000   0.042920583   -0.55653356     0.029212689   -0.46298153    -0.0029945093 
    438000   0.044163211   -0.55709453     0.031219783   -0.45967267    -0.0012282603 
    439000   0.043975167   -0.5566962      0.030165459   -0.46061055    -0.0023544496 
    440000   0.04474214    -0.55597433     0.030498687   -0.45840573     0.0057711829 
    441000   0.044376189   -0.55763648     0.030111844   -0.4610033      0.0064645816 
    442000   0.044727642   -0.55692778     0.031528705   -0.4583509      0.0015052092 
    443000   0.046551741   -0.55742737     0.031112488   -0.45653232     0.00096737168
    444000   0.044735185   -0.55904013     0.032137652   -0.45984299    -0.0015892366 
    445000   0.043924846   -0.55868875     0.03081143    -0.46203256     0.00087440132
    446000   0.043670352   -0.56041064     0.030826666   -0.46412071    -0.00072617333
    447000   0.044574672   -0.56135425     0.03149961    -0.46303577     0.00010461798
    448000   0.046559727   -0.56305514     0.031199655   -0.46206095     0.0012413826 
    449000   0.046194995   -0.5640225      0.031841718   -0.46293299     0.0012438641 
    450000   0.047024436   -0.56654816     0.033954076   -0.46210294     0.0032324407 
    451000   0.046920009   -0.56617839     0.031220719   -0.46462306     0.0045401511 
    452000   0.046883647   -0.56805044     0.032638668   -0.46513168    -0.0027764733 
    453000   0.047281026   -0.5689217      0.031950662   -0.46609525    -0.0014053906 
    454000   0.047298989   -0.57124992     0.033149499   -0.46719772     0.0022447532 
    455000   0.044838658   -0.5706472      0.032759475   -0.47067313    -7.7433747e-05
    456000   0.045635046   -0.57214828     0.031580163   -0.47215971     0.0059702682 
    457000   0.046317881   -0.5713502      0.032678615   -0.46923958    -0.0075147311 
    458000   0.048312739   -0.57532501     0.034138215   -0.46876444    -0.0046156856 
    459000   0.04801099    -0.57815851     0.031562482   -0.47462601    -0.00149288   
    460000   0.047389794   -0.57970211     0.032898607   -0.47576467     0.0023608532 
    461000   0.04719454    -0.58266285     0.034152601   -0.47776411     0.00074710159
    462000   0.045800658   -0.58209585     0.032930808   -0.48050838    -0.0049446707 
    463000   0.045870965   -0.58232849     0.033571365   -0.47999507    -0.00014489824
    464000   0.044849062   -0.58323277     0.032161693   -0.48384089    -0.0012351968 
    465000   0.04638757    -0.58404537     0.033398418   -0.48111049    -0.0029526448 
    466000   0.046526175   -0.58379782     0.031980294   -0.48207329     0.0026386727 
    467000   0.046194457   -0.5837952      0.031498513   -0.4830497      0.0021824918 
    468000   0.047090084   -0.58430205     0.032304442   -0.48140806    -0.0023995827 
    469000   0.04889353    -0.58365546     0.031759694   -0.47860279     0.003690589  
    470000   0.047255847   -0.58524464     0.033201424   -0.48120518     0.001053889  
    471000   0.047019824   -0.58552527     0.032273765   -0.48276728     0.0056751097 
    472000   0.048762898   -0.58633553     0.031413838   -0.48182453    -0.00013266802
    473000   0.046545897   -0.58719182     0.033039421   -0.4843786      0.00056034361
    474000   0.045754735   -0.58689854     0.033236297   -0.48507442     0.0073634886 
    475000   0.048300185   -0.58789344     0.031925848   -0.48356406    -0.0016227689 
    476000   0.049191765   -0.58819673     0.033896355   -0.48056033     0.00032088748
    477000   0.049338475   -0.58716082     0.033474696   -0.47972616     6.5625433e-05
    478000   0.047809046   -0.58783879     0.034533296   -0.48163819     0.0024349139 
    479000   0.049314921   -0.58788363     0.033411826   -0.48054715     0.00089002303
    480000   0.047209667   -0.58899679     0.033791841   -0.48443613    -7.8546733e-05
    481000   0.048147779   -0.58863705     0.033068004   -0.48339397     0.0016876377 
    482000   0.047274017   -0.58858972     0.032519378   -0.48520506     0.0041080913 
    483000   0.048236816   -0.59133828     0.033950548   -0.48507919    -0.0021913441 
    484000   0.0482879     -0.59206041     0.035204452   -0.48447084     0.0031983859 
    485000   0.046695049   -0.59235835     0.034892737   -0.48746822     0.00025967262
    486000   0.047951816   -0.59052774     0.034995228   -0.4836512      0.003918723  
    487000   0.048145835   -0.59128365     0.032611117   -0.48650037    -8.6525436e-05
    488000   0.048334228   -0.59123012     0.032107252   -0.48666831     0.0053986627 
    489000   0.04899489    -0.59112438     0.035740648   -0.48193881     0.0046388574 
    490000   0.050465888   -0.59328742     0.033997367   -0.48364006    -0.0038298039 
    491000   0.049027064   -0.59277076     0.033876697   -0.48540091     5.0653587e-05
    492000   0.048767684   -0.59319493     0.033224905   -0.4868657      0.0042540767 
    493000   0.049429638   -0.59398038     0.032174025   -0.48770973     0.0063569218 
    494000   0.048930284   -0.59559715     0.034902822   -0.48734625     0.0038664512 
    495000   0.050151362   -0.59712871     0.034702302   -0.4872479      0.0020984216 
    496000   0.048859317   -0.59660632     0.034167512   -0.48919712    -0.0010176346 
    497000   0.049395913   -0.60022163     0.03546988    -0.49070568    -0.0051773205 
    498000   0.050400261   -0.59859219     0.034041011   -0.48899957     0.0089328102 
    499000   0.048975753   -0.59906537     0.035560184   -0.49008895    -0.00029368024
    500000   0.05074488    -0.5987374      0.032681671   -0.48998752     0.0079390947 
Loop time of 122.747 on 8 procs for 500000 steps with 1550 atoms

Performance: 351942.499 tau/day, 4073.409 timesteps/s, 6.314 Matom-step/s
92.4% CPU use with 8 MPI tasks x 1 OpenMP threads

MPI task timing breakdown:
Section |  min time  |  avg time  |  max time  |%varavg| %total
---------------------------------------------------------------
Pair    | 13.512     | 14.77      | 15.79      |  21.4 | 12.03
Bond    | 4.7578     | 5.2386     | 5.5701     |  11.0 |  4.27
Neigh   | 0.045653   | 0.045737   | 0.045766   |   0.0 |  0.04
Comm    | 11.798     | 13.007     | 14.716     |  29.5 | 10.60
Output  | 0.39499    | 0.41649    | 0.43845    |   2.2 |  0.34
Modify  | 87.828     | 87.922     | 88.069     |   0.7 | 71.63
Other   |            | 1.348      |            |       |  1.10

Nlocal:         193.75 ave         225 max         133 min
Histogram: 1 0 0 0 0 1 1 3 1 1
Nghost:         630.25 ave         656 max         603 min
Histogram: 1 1 1 1 0 0 0 1 2 1
Neighs:              0 ave           0 max           0 min
Histogram: 8 0 0 0 0 0 0 0 0 0
FullNghs:      3062.75 ave        3717 max        1749 min
Histogram: 1 0 0 0 1 2 0 0 1 3

Total # of neighbors = 24502
Ave neighs/atom = 15.807742
Ave special neighs/atom = 2.1612903
Neighbor list builds = 179
Dangerous builds = 0

unfix ThermoLng

# Now we let the system to create the polymeric network
fix ThermoLng all langevin ${temp} ${temp} ${damp} ${seed3} tally yes zero yes # Brownian Dynamics: langevin + nve
fix ThermoLng all langevin 0.05 ${temp} ${damp} ${seed3} tally yes zero yes 
fix ThermoLng all langevin 0.05 0.05 ${damp} ${seed3} tally yes zero yes 
fix ThermoLng all langevin 0.05 0.05 1 ${seed3} tally yes zero yes 
fix ThermoLng all langevin 0.05 0.05 1 2010 tally yes zero yes 
run ${steps}
run 3500000
WARNING: Using a manybody potential with bonds/angles/dihedrals and special_bond exclusions (src/pair.cpp:250)
Hybrid pair style last /omp style table/omp
Last active /omp style is angle_style harmonic/omp
Per MPI rank memory allocation (min/avg/max) = 24.04 | 24.04 | 24.04 Mbytes
   Step          Temp          E_pair         E_mol          TotEng         Press     
    500000   0.05074488    -0.5987374      0.032681671   -0.48998752     0.0079390947 
    501000   0.04991178    -0.59991848     0.035931816   -0.48916729    -0.0032166977 
    502000   0.054238658   -0.59888122     0.035804515   -0.4817712      0.0035478335 
    503000   0.053725608   -0.60051227     0.035425113   -0.48455074     0.0033276853 
    504000   0.051907353   -0.60113421     0.034714356   -0.48860906    -0.0021613071 
    505000   0.049042206   -0.60179399     0.035497651   -0.49278049    -0.011059009  
    506000   0.050462102   -0.6050625      0.034491891   -0.49492629    -0.0023198646 
    507000   0.050828875   -0.60621127     0.036899625   -0.49311752     0.002300513  
    508000   0.050649222   -0.60664467     0.035677426   -0.49504243     0.00081886581
    509000   0.050303386   -0.60697022     0.035628222   -0.4959356      0.0057842672 
    510000   0.049911339   -0.60792498     0.036681368   -0.49642491    -0.0012267452 
    511000   0.051044614   -0.60823691     0.035702224   -0.49601716     0.0020987301 
    512000   0.049742167   -0.60902139     0.03576211    -0.49869416    -0.00053958328
    513000   0.050369928   -0.6102563      0.035003994   -0.49974616     0.0014117606 
    514000   0.049547735   -0.60922148     0.033838506   -0.50110932     0.0043396146 
    515000   0.051420834   -0.61189192     0.035841867   -0.49896856     0.0025357011 
    516000   0.048551132   -0.61275916     0.037065568   -0.50291388    -0.0029978357 
    517000   0.050027648   -0.61250259     0.036875228   -0.5006343      0.003935074  
    518000   0.048871474   -0.61279539     0.037130067   -0.5024054      0.0026884177 
    519000   0.05099934    -0.61272432     0.035365562   -0.50090911    -0.00091905532
    520000   0.05116466    -0.61500852     0.037816133   -0.50049491    -0.000884829  
    521000   0.053613857   -0.61775082     0.036624698   -0.50075722    -0.001560407  
    522000   0.051799596   -0.62042948     0.037297837   -0.50548238     0.0043009909 
    523000   0.049622383   -0.62160213     0.035324726   -0.51189185    -0.00065503446
    524000   0.048574584   -0.62230397     0.035728055   -0.51376104    -0.0020829549 
    525000   0.049633439   -0.62141233     0.035420192   -0.51159001     0.0018674955 
    526000   0.050946526   -0.62035047     0.035131487   -0.5088485      0.0062914274 
    527000   0.050401473   -0.62049718     0.034410116   -0.51053363     0.0015090791 
    528000   0.051388625   -0.62237433     0.033868844   -0.51147228    -0.0020792894 
    529000   0.05066813    -0.6218008      0.037780057   -0.50806758     0.0067974831 
    530000   0.050791053   -0.62118991     0.036220202   -0.50883228    -0.0024339583 
    531000   0.05318144    -0.62340434     0.036496317   -0.50718733     0.0036095784 
    532000   0.050265079   -0.62144039     0.035851984   -0.51023944     0.0010129972 
    533000   0.049694845   -0.62262526     0.035848235   -0.51228284     0.00066400548
    534000   0.051040958   -0.62300879     0.034353857   -0.51214289     0.0020772673 
    535000   0.050957899   -0.62277164     0.034423496   -0.51196061    -0.0031865649 
    536000   0.051055958   -0.62573589     0.037281449   -0.51191992     0.0011740788 
    537000   0.052377881   -0.626067       0.03522951    -0.51232136    -0.00018349567
    538000   0.051285952   -0.62430751     0.035421003   -0.51200721     0.0037007485 
    539000   0.050463011   -0.62730121     0.035166493   -0.51648903    -0.0046408615 
    540000   0.050214878   -0.62871223     0.035312944   -0.51812556     0.005508053  
    541000   0.052070469   -0.62850592     0.037109737   -0.51334087    -0.00313277   
    542000   0.050740504   -0.63271707     0.037417795   -0.51923763    -0.0018078026 
    543000   0.050645771   -0.63451137     0.036781928   -0.5218098      0.0017857344 
    544000   0.052269654   -0.63518921     0.036180558   -0.52065476    -0.00010061868
    545000   0.050979902   -0.63632339     0.035295222   -0.52460765    -0.0027950153 
    546000   0.050907664   -0.63589126     0.037701125   -0.5218779      0.0033338932 
    547000   0.050736901   -0.63807215     0.036498996   -0.5255169     -0.0048713071 
    548000   0.050322159   -0.63834005     0.033981095   -0.52892441    -0.00032812388
    549000   0.050633923   -0.63929273     0.035797876   -0.52759297     0.0042799217 
    550000   0.048698156   -0.63879437     0.037577006   -0.52821725     0.0052887103 
    551000   0.048315032   -0.63956153     0.03477537    -0.53236037    -0.00069486239
    552000   0.051433538   -0.6391396      0.034122688   -0.52791638    -0.0049265075 
    553000   0.050259095   -0.63797727     0.03515457    -0.52748269     0.0055466299 
    554000   0.051209357   -0.63777558     0.034758969   -0.52625213    -0.001261429  
    555000   0.049612991   -0.63806501     0.034586572   -0.52910696     0.0019781038 
    556000   0.05137669    -0.63818878     0.035861652   -0.52531181    -0.0044813557 
    557000   0.050461321   -0.63786013     0.036606921   -0.52561006     0.0025621532 
    558000   0.050511343   -0.63810714     0.037086215   -0.5253028      0.0035176556 
    559000   0.05008303    -0.63856427     0.034714545   -0.52877365     0.0055560467 
    560000   0.04957433    -0.63914924     0.034687103   -0.53014862     0.0036035045 
    561000   0.050577382   -0.63947626     0.035977444   -0.52768169    -0.00035847173
    562000   0.04842148    -0.6386033      0.035495455   -0.53052249    -0.00056720322
    563000   0.049757251   -0.6382873      0.036077269   -0.5276223      0.0019758718 
    564000   0.049841037   -0.64017505     0.035953613   -0.52950812    -0.0036354977 
    565000   0.050763988   -0.6387237      0.035649405   -0.52697744     0.0016041758 
    566000   0.049936193   -0.63938374     0.035908384   -0.5286194      0.0011198689 
    567000   0.050765342   -0.63995551     0.036167751   -0.52768887     0.00096901912
    568000   0.048703356   -0.63966572     0.035487988   -0.53116983     0.0012288305 
    569000   0.052610231   -0.64177796     0.035087736   -0.52782579    -0.00010793443
    570000   0.050299586   -0.64182833     0.036074651   -0.53035298     0.0020236484 
    571000   0.049820016   -0.64351152     0.035385967   -0.53344374    -0.0046718322 
    572000   0.050527385   -0.64289229     0.034472436   -0.53267768    -0.0013000985 
    573000   0.050768423   -0.64187762     0.034235805   -0.53153831     0.0039534001 
    574000   0.050572693   -0.6438188      0.036161758   -0.53184694    -0.00065892192
    575000   0.050776613   -0.64426249     0.036759768   -0.53138694     0.00014008398
    576000   0.050669777   -0.6441245      0.034632083   -0.53353679     0.0039288381 
    577000   0.049851655   -0.64651658     0.036463516   -0.53532382    -0.0017027114 
    578000   0.051373723   -0.64645521     0.034493005   -0.53495133    -0.0019851853 
    579000   0.049356818   -0.6460783      0.036087481   -0.53600336    -0.00064617476
    580000   0.049696995   -0.64562503     0.03642121    -0.53470642    -0.0017921346 
    581000   0.049575876   -0.64612083     0.033976942   -0.53782805    -0.0051719759 
    582000   0.048645243   -0.64613631     0.033412323   -0.5398032      0.0011234901 
    583000   0.049034011   -0.64706577     0.035792294   -0.53776991    -0.0041050086 
    584000   0.050847327   -0.64613253     0.036653343   -0.5332574      0.0002619386 
    585000   0.053571666   -0.64880435     0.037499576   -0.53099912    -0.0047358875 
    586000   0.051108696   -0.6478479      0.036267466   -0.53496685     0.0040839626 
    587000   0.051267208   -0.65051616     0.035895918   -0.53776904     0.0033279769 
    588000   0.050441211   -0.64983856     0.034132429   -0.54009313    -0.002951694  
    589000   0.050781028   -0.64933325     0.035134154   -0.5380767      0.002877537  
    590000   0.051015279   -0.64960823     0.036305589   -0.53682909     0.00081452744
    591000   0.049903963   -0.64944607     0.034914372   -0.53972405     0.005132298  
    592000   0.050527326   -0.65141666     0.034434395   -0.54124018    -0.0034235159 
    593000   0.05149041    -0.65223956     0.036517744   -0.53853603     0.0025532504 
    594000   0.052110254   -0.65372852     0.033056923   -0.54255665     0.00097686843
    595000   0.052143685   -0.65531383     0.037391268   -0.5397575     -0.004268039  
    596000   0.050703876   -0.65778654     0.036140955   -0.54563884     0.0038665856 
    597000   0.050771891   -0.65768155     0.035912625   -0.54566022     0.0032116178 
    598000   0.049097399   -0.65922831     0.036144151   -0.54948557     0.0054438165 
    599000   0.049862058   -0.65897375     0.035579121   -0.54864979    -0.0013584792 
    600000   0.05068349    -0.6597584      0.034347535   -0.54943468     0.0025929733 
    601000   0.050281908   -0.66032433     0.036651204   -0.54829892     0.00097838337
    602000   0.050468318   -0.66105877     0.037162393   -0.54824274     0.00092330584
    603000   0.051735725   -0.6623371      0.036250705   -0.54853288     0.0038473754 
    604000   0.04986332    -0.66239532     0.036038089   -0.5516105      0.0016646354 
    605000   0.049854545   -0.66078195     0.036247664   -0.54980071     0.0038550853 
    606000   0.051700346   -0.661026       0.034894514   -0.548631       0.0010420583 
    607000   0.050443786   -0.66302586     0.033147217   -0.55426178     0.0078795243 
    608000   0.049905587   -0.66332451     0.03542939    -0.55308504    -0.00088547624
    609000   0.050772989   -0.66131966     0.035236652   -0.54997266    -0.0077501436 
    610000   0.0509916     -0.6601134      0.032672439   -0.55100291     0.0073194151 
    611000   0.050661239   -0.66248433     0.035068402   -0.5514731      0.00061270591
    612000   0.050026974   -0.66249604     0.035149178   -0.55235482    -0.0043099431 
    613000   0.049118801   -0.66236106     0.033095684   -0.55563471     0.0054938199 
    614000   0.048831592   -0.66318588     0.033460921   -0.55652483     0.00047367563
    615000   0.049453605   -0.66469107     0.036135131   -0.55442339     0.002759907  
    616000   0.052204369   -0.66472225     0.035385887   -0.55108033    -0.0015300812 
    617000   0.050951945   -0.66538994     0.036000786   -0.55301055     0.0021896882 
    618000   0.049967479   -0.6647857      0.035913718   -0.55396912    -0.0033660386 
    619000   0.050766832   -0.66428159     0.035515391   -0.55266508     0.00040382294
    620000   0.049207084   -0.66491534     0.037093484   -0.55405884     0.0033731078 
    621000   0.049578178   -0.66462421     0.035625809   -0.55467911     0.0018819676 
    622000   0.050126563   -0.66676285     0.035408606   -0.55621291     0.0047646613 
    623000   0.048249857   -0.66713544     0.035755542   -0.5590518     -0.0074018259 
    624000   0.049410617   -0.66617295     0.035022953   -0.55708189     0.0036996403 
    625000   0.051430421   -0.66616659     0.035890307   -0.55318042     0.0079065091 
    626000   0.051498388   -0.66760826     0.036356395   -0.55405412    -0.0027653519 
    627000   0.051074543   -0.66776532     0.036981327   -0.5542216      0.002824244  
    628000   0.049541569   -0.66677849     0.037299364   -0.55521472    -0.0030635323 
    629000   0.051145163   -0.66842695     0.035229233   -0.55652947     0.0015495261 
    630000   0.04930715    -0.66796862     0.034571462   -0.55948415     0.003755381  
    631000   0.050356145   -0.66891516     0.035904625   -0.55752505     0.0069918688 
    632000   0.050926651   -0.66989272     0.036270604   -0.55728142    -0.0043694359 
    633000   0.050905685   -0.67147471     0.037960618   -0.55720483     0.0024442375 
    634000   0.049896472   -0.67132435     0.03693879    -0.55958913     2.4219533e-05
    635000   0.049679557   -0.67117617     0.034511375   -0.56219354    -0.0035312507 
    636000   0.049758934   -0.67134552     0.035578804   -0.56117647    -0.0042528699 
    637000   0.048737148   -0.67114683     0.035302698   -0.56278558    -0.00065489455
    638000   0.049266577   -0.67215273     0.035868018   -0.56243252     0.0024784362 
    639000   0.051611927   -0.6714265      0.03575356    -0.558305       0.0058584867 
    640000   0.051913445   -0.67116895     0.03460333    -0.5587457     -0.0031781873 
    641000   0.051119731   -0.67186208     0.035925379   -0.55930658    -0.0024338147 
    642000   0.048180466   -0.67019042     0.035694956   -0.56227139     0.00426329   
    643000   0.048656456   -0.67124312     0.035301649   -0.56300387    -0.00060636536
    644000   0.049062866   -0.67150538     0.036569188   -0.56138937    -0.0034103672 
    645000   0.048703848   -0.67142971     0.038854087   -0.55956699     0.0016579808 
    646000   0.051275428   -0.67146777     0.035643509   -0.55896074    -0.00069857677
    647000   0.050117789   -0.67094038     0.038932712   -0.55687949     6.7059313e-05
    648000   0.05082593    -0.6716047      0.035197873   -0.56021712     0.00014063299
    649000   0.049892877   -0.67220044     0.035343336   -0.56206608     0.0063530737 
    650000   0.050239672   -0.67237337     0.034874193   -0.56218829    -0.00050890289
    651000   0.049927342   -0.67041891     0.036823325   -0.55875288     0.0024214122 
    652000   0.049707488   -0.67159244     0.036536503   -0.56054281     0.0010947285 
    653000   0.051114199   -0.67133153     0.034403387   -0.56030631     0.0067423798 
    654000   0.050318463   -0.67107069     0.036900115   -0.55874158    -0.003094525  
    655000   0.048110739   -0.67216331     0.036562671   -0.56348109    -0.0055998083 
    656000   0.050883277   -0.67109461     0.037356175   -0.55746276     0.0021316355 
    657000   0.050424926   -0.67187486     0.035504664   -0.5607816      0.003259427  
    658000   0.050076755   -0.67136721     0.036573118   -0.55972742     0.0075316167 
    659000   0.050940556   -0.67374573     0.03801784    -0.55936635    -0.0019520889 
    660000   0.049925926   -0.67389738     0.035354506   -0.5637023     -0.0027879575 
    661000   0.05106924    -0.67394876     0.034894797   -0.56249953     0.0015160307 
    662000   0.050160076   -0.67398786     0.038627939   -0.56016835     0.0026383188 
    663000   0.051319271   -0.67610408     0.036890459   -0.56228438    -0.0036682059 
    664000   0.050887677   -0.67578985     0.036356256   -0.56315133     0.0018523898 
    665000   0.053055048   -0.67711734     0.036412956   -0.56117316    -0.0050113771 
    666000   0.048869067   -0.67510041     0.035441954   -0.56640215     0.0032566206 
    667000   0.050137165   -0.67725738     0.03608716    -0.56601299    -0.0081158296 
    668000   0.05001558    -0.67813867     0.036945247   -0.56621846     0.0022923931 
    669000   0.05085828    -0.67649361     0.037552001   -0.56270341     0.0080986855 
    670000   0.050927495   -0.67924552     0.037403872   -0.56549969    -0.0056002296 
    671000   0.049472846   -0.67904163     0.037127445   -0.56775279    -0.0051182078 
    672000   0.050168538   -0.6782282      0.035620375   -0.56740357     4.6195541e-05
    673000   0.051068941   -0.68079782     0.03414662    -0.57009721    -0.0017723978 
    674000   0.050379642   -0.68023705     0.034684861   -0.57003148     0.0049956048 
    675000   0.048730597   -0.68217412     0.035393961   -0.57373142    -0.0016474449 
    676000   0.048831866   -0.68225824     0.035894317   -0.57316338     0.0016238522 
    677000   0.04981896    -0.68283973     0.034924638   -0.57323486    -0.003654242  
    678000   0.050248815   -0.68355766     0.036372426   -0.57186064    -0.0052897694 
    679000   0.049208446   -0.68349437     0.035720234   -0.57400908     0.0058388656 
    680000   0.050719129   -0.68561346     0.035850332   -0.57373352     0.0057940972 
    681000   0.050227124   -0.68662089     0.037992342   -0.57333647    -0.011089023  
    682000   0.049426792   -0.68473086     0.036561805   -0.5740767     -9.5069546e-05
    683000   0.050328477   -0.68636676     0.034036914   -0.57688584     0.00081005055
    684000   0.048994847   -0.68522916     0.035388348   -0.57639595    -0.0012956587 
    685000   0.048338823   -0.68546091     0.03547008    -0.57752938     0.000844855  
    686000   0.049731125   -0.68460673     0.035102936   -0.57495523     0.0014939584 
    687000   0.052313208   -0.68770583     0.036308332   -0.57297831    -0.00040223336
    688000   0.050329038   -0.68544763     0.036487111   -0.57351567    -0.00068351404
    689000   0.050453928   -0.68689483     0.035159629   -0.57610313     0.003008702  
    690000   0.050197919   -0.68604835     0.036469291   -0.57433076    -0.00070117673
    691000   0.050417788   -0.68584204     0.03542311    -0.57484104     0.0058838024 
    692000   0.04848856    -0.68576392     0.035793664   -0.57728434     0.0020243424 
    693000   0.049393854   -0.68621218     0.03670887    -0.57546033     0.0005770791 
    694000   0.050750715   -0.68629102     0.036775399   -0.57343866    -0.0075883058 
    695000   0.05174309    -0.68790015     0.036257329   -0.57407826     0.0004786959 
    696000   0.049385324   -0.68733733     0.035692749   -0.57761439    -0.001040409  
    697000   0.049762059   -0.68677435     0.034955913   -0.5772235      0.00068286137
    698000   0.049951783   -0.68788        0.036081493   -0.57691917     0.0027278384 
    699000   0.047552244   -0.6895517      0.036954938   -0.58131441     0.0041568212 
    700000   0.050306633   -0.6939424      0.037978996   -0.58055213    -0.0054399743 
    701000   0.050704461   -0.69379543     0.036619867   -0.58116795     0.0016677439 
    702000   0.052204146   -0.69364074     0.039156054   -0.57622898     0.0079533156 
    703000   0.049816228   -0.69404286     0.037421631   -0.58194509    -0.0052809326 
    704000   0.051912733   -0.69618038     0.0378081     -0.58055342    -0.0059717196 
    705000   0.049799628   -0.69564194     0.037745528   -0.58324516     0.0022450571 
    706000   0.051799182   -0.69494534     0.036135537   -0.58116116     0.00064148842
    707000   0.049981266   -0.69585146     0.036454129   -0.5844738     -0.0017109403 
    708000   0.04897856    -0.69628796     0.035533374   -0.58733414    -0.0021455951 
    709000   0.052845978   -0.69702432     0.034871363   -0.58293513    -0.0024459535 
    710000   0.050504504   -0.69740505     0.037809813   -0.58388735    -0.0067513443 
    711000   0.052693324   -0.69613299     0.035043254   -0.58210074     0.0039486903 
    712000   0.049569986   -0.69812853     0.03772516    -0.58609636    -0.0017316696 
    713000   0.04876369    -0.69610065     0.035928094   -0.58707421     0.0044711319 
    714000   0.050414927   -0.69839711     0.036379862   -0.58644365    -0.0042257124 
    715000   0.049083491   -0.69734632     0.036765011   -0.58700358     0.0012176984 
    716000   0.050255681   -0.69805393     0.037107403   -0.58561164     0.0021109095 
    717000   0.050082149   -0.69813344     0.038401043   -0.58465764     0.0018793077 
    718000   0.050784378   -0.69861432     0.036331017   -0.58615588     0.0012248198 
    719000   0.050525168   -0.70091233     0.036371221   -0.58880225    -0.0036850471 
    720000   0.049128732   -0.70006087     0.035476699   -0.59093861     0.0043169793 
    721000   0.048928025   -0.70041845     0.037883971   -0.5891898     -0.00091721121
    722000   0.051704294   -0.70084811     0.036402719   -0.58693899     0.0030624438 
    723000   0.05098347    -0.70138512     0.036918076   -0.58804118     0.0028984113 
    724000   0.05063538    -0.70109702     0.036161358   -0.5890316      0.0031108845 
    725000   0.051936614   -0.70087866     0.034232886   -0.58879111    -0.0014307153 
    726000   0.049916139   -0.70209015     0.036357869   -0.59090638    -0.00021165899
    727000   0.050604482   -0.70382107     0.037288869   -0.59067445    -0.0012428032 
    728000   0.049576256   -0.70156392     0.036149919   -0.5910976      0.01043797   
    729000   0.050950971   -0.70338002     0.035646246   -0.59135663     0.0029075259 
    730000   0.050043336   -0.70401826     0.038043926   -0.59095776    -0.0035671617 
    731000   0.051341843   -0.70367573     0.036928725   -0.58978393    -0.0069047093 
    732000   0.051716895   -0.70512822     0.038091651   -0.58951127     0.0058689871 
    733000   0.050779392   -0.70350297     0.037820927   -0.5895621     -0.0015539307 
    734000   0.051483605   -0.7049465      0.035324839   -0.59244607    -0.0052321683 
    735000   0.050845553   -0.70549309     0.037859609   -0.59141436     0.0022440387 
    736000   0.050211145   -0.70639928     0.036039265   -0.59509189    -0.0028474041 
    737000   0.050166834   -0.70688298     0.033689789   -0.59799149     0.0011768141 
    738000   0.049934176   -0.70682979     0.036204832   -0.59577202    -0.0010089563 
    739000   0.049588447   -0.70892358     0.035136345   -0.59945255     0.001626989  
    740000   0.049800947   -0.709652       0.036569965   -0.59842881    -0.0089465667 
    741000   0.04936114    -0.70967168     0.036258818   -0.59941892    -0.0027557632 
    742000   0.051074525   -0.70902766     0.034308443   -0.59815686     0.0011999904 
    743000   0.049876511   -0.70937012     0.037355013   -0.59724861     0.0049708583 
    744000   0.047760511   -0.7086492      0.038157283   -0.59889737    -0.0032961983 
    745000   0.050226143   -0.70857793     0.037117275   -0.59617005     0.0058748166 
    746000   0.051479259   -0.71055197     0.037131529   -0.59625138     0.0013947279 
    747000   0.049936212   -0.71056532     0.037112114   -0.59859721     0.00025950855
    748000   0.048338579   -0.71074813     0.035912638   -0.6023744     -0.0003164892 
    749000   0.050450048   -0.70975385     0.03535911    -0.59876849    -0.003646015  
    750000   0.050036936   -0.71111455     0.036318284   -0.59978928    -0.0039933262 
    751000   0.04974331    -0.71175035     0.037580465   -0.59960306    -0.00059626092
    752000   0.049077872   -0.71242669     0.036159893   -0.60269748     0.00027474366
    753000   0.050136175   -0.71190157     0.038209631   -0.59853619    -0.0060041155 
    754000   0.050209907   -0.71224899     0.036755842   -0.60022688     0.0016725379 
    755000   0.048691021   -0.71163176     0.03723318    -0.60140917    -0.0017058226 
    756000   0.049312421   -0.71183607     0.035759376   -0.60215579     0.0023455735 
    757000   0.050161832   -0.71242041     0.034613253   -0.60261295     0.00076817451
    758000   0.050354865   -0.71384234     0.036592368   -0.60176641    -0.0020525432 
    759000   0.051101967   -0.71460603     0.035323348   -0.60267919    -0.0010939399 
    760000   0.049982748   -0.71373878     0.034974609   -0.60383842     0.0037938018 
    761000   0.049071435   -0.71279028     0.036782699   -0.60244792     0.0043465465 
    762000   0.049418003   -0.71305867     0.037104517   -0.60187497     0.0041937434 
    763000   0.050792271   -0.7136856      0.036180448   -0.6013659      0.0029578447 
    764000   0.052077026   -0.71295026     0.036170047   -0.59871507     0.0048611446 
    765000   0.050450231   -0.71435785     0.036665984   -0.60206534    -0.0069436984 
    766000   0.051528465   -0.71406898     0.038842513   -0.59798363    -0.004882854  
    767000   0.051869023   -0.71550669     0.039369426   -0.59838393    -0.0042901431 
    768000   0.052080414   -0.71704919     0.038905571   -0.60007339     0.00091501368
    769000   0.049657177   -0.71622692     0.037117977   -0.60467123     0.00072485472
    770000   0.051726441   -0.71549906     0.03608741    -0.60187204     0.0015644337 
    771000   0.049959015   -0.71624677     0.035989911   -0.60536668    -0.0012108379 
    772000   0.048188242   -0.71482784     0.035827983   -0.60676413     0.0071854896 
    773000   0.051514726   -0.71722902     0.035509119   -0.60449766     0.0060505627 
    774000   0.050100303   -0.71672375     0.035447426   -0.60617436    -0.00093519247
    775000   0.049783185   -0.7168362      0.034498974   -0.60771062    -0.0078445948 
    776000   0.051408722   -0.71784907     0.034867118   -0.60591862    -0.0044571249 
    777000   0.049700522   -0.71791065     0.036770958   -0.60663701     0.00085827217
    778000   0.049460424   -0.71892487     0.035977006   -0.60880509    -0.0055490034 
    779000   0.052172473   -0.71585444     0.034013147   -0.60363307     0.0044677221 
    780000   0.049173582   -0.71635903     0.036853541   -0.6057927      0.0051291156 
    781000   0.051454125   -0.71708769     0.036083788   -0.60387251     6.9426045e-05
    782000   0.051195311   -0.71897199     0.036912005   -0.60531656    -0.003978091  
    783000   0.05054038    -0.7200159      0.036019128   -0.60823512    -0.009134046  
    784000   0.050110844   -0.71910432     0.035170939   -0.60881561     0.006043661  
    785000   0.048371055   -0.71936559     0.037934365   -0.60892145    -0.0058538841 
    786000   0.049518938   -0.72008864     0.036572118   -0.60928604    -0.0018469399 
    787000   0.051648872   -0.7185187      0.036562319   -0.60453305     0.0021579284 
    788000   0.048935976   -0.7191731      0.037083593   -0.6087329      0.0018911217 
    789000   0.050752574   -0.71932642     0.035678275   -0.60756839     0.0075289597 
    790000   0.050553453   -0.72014499     0.035506104   -0.60885763    -0.0070236691 
    791000   0.051523837   -0.72197246     0.038193731   -0.60654284    -0.0070904723 
    792000   0.051948738   -0.72145717     0.036311602   -0.60727273     0.0057813302 
    793000   0.050866033   -0.72149688     0.037087544   -0.60815951     0.0011562234 
    794000   0.049574983   -0.72030595     0.036298072   -0.60969338    -0.0055586005 
    795000   0.050847318   -0.7210278      0.035931761   -0.60887427     0.0043381662 
    796000   0.049647518   -0.72212967     0.037194657   -0.61051178     0.0037338206 
    797000   0.049707843   -0.72051341     0.03800385    -0.6079959      0.0067080711 
    798000   0.051371603   -0.72166643     0.036914993   -0.60774375     0.0073961385 
    799000   0.051750525   -0.72404657     0.036718774   -0.60975209    -0.00012522332
    800000   0.050446225   -0.72405395     0.037742242   -0.61069119    -0.0018565544 
    801000   0.05061733    -0.72442618     0.037146786   -0.61140239    -0.0053762915 
    802000   0.050395022   -0.72513907     0.034966945   -0.61462836    -3.0549062e-05
    803000   0.051065632   -0.72408376     0.035894826   -0.6116399      0.0050382681 
    804000   0.05033917    -0.72517828     0.036090153   -0.61362809    -0.00030707967
    805000   0.051665367   -0.72579805     0.038194118   -0.61015588     0.00057119548
    806000   0.049656296   -0.72797632     0.03741606    -0.61612387    -0.0056701895 
    807000   0.050789869   -0.72839176     0.03772576    -0.61453035    -0.0018396621 
    808000   0.049267071   -0.72888493     0.03609616    -0.61893584    -0.0010576869 
    809000   0.049249167   -0.72858308     0.03661565    -0.61814134    -0.0028062179 
    810000   0.050835489   -0.72834245     0.036486999   -0.61565142    -0.00095122413
    811000   0.052107377   -0.72936208     0.035707373   -0.61554407    -0.0011578087 
    812000   0.052015732   -0.73098406     0.037528467   -0.61548233     0.0010713766 
    813000   0.049482508   -0.73001269     0.036291694   -0.61954512     0.0045652312 
    814000   0.04932527    -0.73042784     0.037285639   -0.61920203     0.0013783914 
    815000   0.051123967   -0.7318277      0.03492227    -0.62026895    -0.0007224739 
    816000   0.04976933    -0.73096501     0.034846941   -0.62151223     0.0025308486 
    817000   0.050599743   -0.73236246     0.03619643    -0.62031538     0.00065918361
    818000   0.051103145   -0.73093124     0.036096641   -0.61822933    -0.0031866393 
    819000   0.049655732   -0.73156611     0.037794118   -0.61933645    -0.0026933373 
    820000   0.051020388   -0.73106127     0.036808382   -0.61777168     0.0056438602 
    821000   0.051806342   -0.73340154     0.036764139   -0.61897802     0.0034587192 
    822000   0.049769649   -0.73250563     0.037624912   -0.62027441    -0.0028809395 
    823000   0.049766351   -0.73267553     0.035730432   -0.62234374    -0.00028725963
    824000   0.049812933   -0.73351313     0.037022087   -0.62181985     0.00027121214
    825000   0.048644556   -0.73372484     0.038668275   -0.62213681    -0.00048360328
    826000   0.05006979    -0.73318216     0.037593501   -0.62053243    -0.0046208335 
    827000   0.051037524   -0.73213646     0.037722675   -0.61790689     0.00037487054
    828000   0.050782806   -0.73289157     0.037320258   -0.61944625     0.0029468095 
    829000   0.051168014   -0.73343157     0.03688597    -0.6198431     -0.004499809  
    830000   0.049343343   -0.73504697     0.035825038   -0.62525467    -0.0021546778 
    831000   0.049619663   -0.7348294      0.037096469   -0.62335145    -0.00098195497
    832000   0.048698728   -0.73403314     0.03902998    -0.6220022     -0.00070400214
    833000   0.05054165    -0.73547293     0.035698308   -0.62401105     0.00015345515
    834000   0.051036517   -0.7340114      0.036619363   -0.62088665     0.0032970293 
    835000   0.051420771   -0.73443581     0.036103769   -0.62125065    -0.0066490827 
    836000   0.048065078   -0.73346156     0.035432889   -0.62597757     0.0015244887 
    837000   0.04941211    -0.73473454     0.038587567   -0.62207663     0.0022517116 
    838000   0.050148288   -0.73534859     0.037617752   -0.62255694    -0.0033160011 
    839000   0.04976504    -0.73549154     0.036613514   -0.62427862    -0.0027012105 
    840000   0.050968288   -0.73530824     0.035422488   -0.62348265    -0.0005845359 
    841000   0.049514333   -0.73498397     0.036136915   -0.62462348    -0.0054048985 
    842000   0.049438362   -0.73428831     0.038573565   -0.62160505    -0.0054964377 
    843000   0.049677217   -0.73337057     0.03682345    -0.62207937     0.0050610603 
    844000   0.051998494   -0.73440263     0.037230258   -0.61922495     0.0010355546 
    845000   0.049493468   -0.73392246     0.035618609   -0.62411155     0.002135466  
    846000   0.049883376   -0.73556372     0.037176279   -0.62361065     0.0019963945 
    847000   0.051087017   -0.73464522     0.034951557   -0.62311258    -0.00056932808
    848000   0.05274541    -0.73387345     0.038617583   -0.6161888      0.0060641658 
    849000   0.051750331   -0.73467852     0.03664735    -0.62045576     0.0013559702 
    850000   0.050563454   -0.73505444     0.037197797   -0.62206039    -0.0023217389 
    851000   0.048707834   -0.73664554     0.037150938   -0.62647999    -0.010548851  
    852000   0.051217018   -0.73689696     0.037605938   -0.62251506    -0.0042945504 
    853000   0.049810504   -0.73656599     0.037144853   -0.62475358    -0.0012132301 
    854000   0.048628942   -0.73624511     0.036284349   -0.62706441    -0.0096621966 
    855000   0.049076987   -0.73521148     0.035164176   -0.62647931     0.0073750957 
    856000   0.051797454   -0.73804398     0.037085315   -0.62331261     0.0028162295 
    857000   0.04863364    -0.7367424      0.037963567   -0.62587543    -0.00086598767
    858000   0.048938048   -0.73730168     0.035250396   -0.62869157     0.0012585986 
    859000   0.050968364   -0.7399252      0.03610056    -0.62742142     0.00035978123
    860000   0.049500046   -0.74025903     0.038086313   -0.62797055    -0.0059832663 
    861000   0.052370676   -0.7396408      0.036329609   -0.62480585     0.00043053326
    862000   0.051158905   -0.73880201     0.037031842   -0.62508132     0.0030238032 
    863000   0.051365363   -0.73986789     0.034369865   -0.62849968    -0.00038210615
    864000   0.051313478   -0.73919975     0.036184752   -0.62609444     0.0030135615 
    865000   0.051889413   -0.73729352     0.035525144   -0.62398448     0.00011990495
    866000   0.048681741   -0.73799659     0.037016739   -0.62800436     0.0019534521 
    867000   0.052469531   -0.73735257     0.036306305   -0.62239274     0.0046514101 
    868000   0.049659029   -0.73943816     0.039289094   -0.62570858     0.0027179374 
    869000   0.050309845   -0.73946132     0.038970109   -0.62507513    -0.002573528  
    870000   0.049814404   -0.73935656     0.037403591   -0.62727957    -0.0042385956 
    871000   0.050595866   -0.7387375      0.036181498   -0.62671116     0.00061356192
    872000   0.050769761   -0.74034053     0.036082135   -0.62815288    -0.0040218391 
    873000   0.049005879   -0.74096642     0.035576668   -0.63192836     0.0012154095 
    874000   0.050370492   -0.74023487     0.036965576   -0.62776231     0.0054851676 
    875000   0.050536407   -0.74029567     0.037060536   -0.62747943    -0.0098145924 
    876000   0.04912578    -0.73970822     0.035701785   -0.63036531    -0.0054237823 
    877000   0.051931232   -0.74039011     0.035716938   -0.62682658     0.0052026353 
    878000   0.050806532   -0.74016663     0.034902821   -0.62910318    -0.00080538237
    879000   0.049713297   -0.74079521     0.036120389   -0.63015298    -0.0042177528 
    880000   0.051028351   -0.74157518     0.03687055    -0.62821148    -0.00023615493
    881000   0.048746375   -0.74084874     0.037318915   -0.63045744    -0.0044334506 
    882000   0.050530821   -0.7392588      0.035319385   -0.62819208     0.0045251787 
    883000   0.049011652   -0.7394244      0.037832292   -0.62812207     0.0017024655 
    884000   0.049518385   -0.74080608     0.036844833   -0.62973159    -0.0037608971 
    885000   0.050439684   -0.74006145     0.037735559   -0.62671518    -0.0061888854 
    886000   0.050452019   -0.74170318     0.036796499   -0.62927748    -0.0046320595 
    887000   0.051542564   -0.74195612     0.036693291   -0.62799886     0.001395668  
    888000   0.049705031   -0.74298337     0.035938243   -0.63253568    -0.0034947014 
    889000   0.051735697   -0.74275503     0.03687724    -0.62832432    -0.0014038189 
    890000   0.04829631    -0.7418557      0.036069289   -0.63338869    -0.0021698184 
    891000   0.049548453   -0.74147832     0.035305159   -0.63189843     0.00035875437
    892000   0.05072697    -0.7435116      0.034642262   -0.63282797    -0.0056247399 
    893000   0.049998523   -0.74270913     0.036531069   -0.63122866     0.006724882  
    894000   0.051421089   -0.7431303      0.037028708   -0.62901972    -0.00070317216
    895000   0.049523162   -0.74282709     0.035503303   -0.63308697    -0.0022113065 
    896000   0.049904686   -0.74157862     0.034431072   -0.63233882     0.0031336132 
    897000   0.049316404   -0.74208267     0.034775797   -0.63337999    -0.002581242  
    898000   0.050486466   -0.74525932     0.035213338   -0.63436514    -0.0096382604 
    899000   0.04992617    -0.74354479     0.035690937   -0.63301292     0.00021587129
    900000   0.05056716    -0.74264097     0.035217005   -0.63162216     0.002364424  
    901000   0.05294793    -0.74356761     0.035923069   -0.62827388    -0.002765311  
    902000   0.049238567   -0.74650452     0.037637757   -0.63505657    -0.0015441291 
    903000   0.049127114   -0.7467201      0.036219494   -0.63685748     0.001685802  
    904000   0.049858669   -0.7472391      0.039063052   -0.6334363     -0.0043752479 
    905000   0.049042468   -0.74702826     0.035960439   -0.63755158    -0.00088258209
    906000   0.049892968   -0.74733396     0.035392877   -0.63714992    -0.0044951773 
    907000   0.049897228   -0.74855474     0.038180055   -0.63557713    -0.0077837421 
    908000   0.051214616   -0.74736716     0.036090257   -0.63450454    -0.0014555762 
    909000   0.049998524   -0.74837903     0.037090235   -0.6363394     -0.0046300846 
    910000   0.049602788   -0.74755875     0.03578114    -0.63742143    -0.00011111637
    911000   0.049364767   -0.74725613     0.034727802   -0.63852895    -0.001227919  
    912000   0.047097344   -0.74761102     0.0360595     -0.64095108    -0.0024670838 
    913000   0.047626656   -0.74756774     0.034208605   -0.64196524    -0.0026626862 
    914000   0.049308705   -0.7477242      0.03495583    -0.63885303     0.0010297864 
    915000   0.05120555    -0.7475762      0.035020905   -0.63579652    -0.0012278526 
    916000   0.05019629    -0.74776068     0.038426478   -0.63408835    -0.0032535552 
    917000   0.0524428     -0.74815732     0.035735067   -0.6338088     -0.0010333166 
    918000   0.050825926   -0.74768851     0.037255189   -0.63424362     0.0023932652 
    919000   0.049946259   -0.74763184     0.037113134   -0.63564766    -0.0053235718 
    920000   0.0509327     -0.74887492     0.036419775   -0.63610539    -0.00050422241
    921000   0.049444172   -0.7487533      0.036775257   -0.63785964     0.0022781237 
    922000   0.048507219   -0.74847473     0.036516112   -0.63924473     0.0024908013 
    923000   0.04909319    -0.74876525     0.036227774   -0.6389452      0.001737222  
    924000   0.049610658   -0.74868307     0.03439755    -0.63991755     0.0052225255 
    925000   0.050473303   -0.74845858     0.036686677   -0.63611079    -0.0047595907 
    926000   0.050200991   -0.74890475     0.036233973   -0.63741787     0.0036808425 
    927000   0.05187047    -0.74843536     0.036446546   -0.63423331    -0.0045421936 
    928000   0.049660585   -0.74797433     0.035849676   -0.63768184     0.0041794194 
    929000   0.049952367   -0.74841871     0.037017843   -0.63652065     0.0025568297 
    930000   0.051655738   -0.74881555     0.035034537   -0.63634739     0.0064830866 
    931000   0.050487489   -0.74902987     0.036518955   -0.63682854    -0.0017893398 
    932000   0.049957193   -0.74966267     0.037372907   -0.63740232     0.0058397019 
    933000   0.050510976   -0.74936405     0.037769862   -0.6358766      0.0011135971 
    934000   0.051048467   -0.75043088     0.036541591   -0.63736599     0.0014136766 
    935000   0.048070147   -0.75027019     0.037280959   -0.64093053    -0.0038353063 
    936000   0.050517892   -0.75049724     0.035829248   -0.63894005    -0.0076441551 
    937000   0.049166409   -0.74916956     0.036598481   -0.63886904    -0.0039042266 
    938000   0.050258761   -0.75009306     0.037298671   -0.63745489     0.0027937027 
    939000   0.052229389   -0.74952294     0.035610982   -0.63561842    -0.0025943258 
    940000   0.050202069   -0.74910822     0.035843628   -0.63801007     0.0008868632 
    941000   0.050859252   -0.75034227     0.036011654   -0.63809096    -0.0011559831 
    942000   0.048831515   -0.75143091     0.038939989   -0.6392909     -0.0026693238 
    943000   0.048483269   -0.74956162     0.037911166   -0.63897247    -0.0008413052 
    944000   0.050812495   -0.7513415      0.035840829   -0.6393311      0.0049286875 
    945000   0.04925294    -0.7517336      0.038617426   -0.63928443     0.0018466796 
    946000   0.050811061   -0.75280638     0.039021288   -0.63761767    -0.0059305444 
    947000   0.049907232   -0.75232665     0.036264486   -0.64124962    -0.00013760848
    948000   0.048985244   -0.75161142     0.036101747   -0.64207921     0.0056853515 
    949000   0.049212246   -0.7520658      0.036111928   -0.64218312    -0.001564563  
    950000   0.048478979   -0.75259084     0.036601302   -0.64331799     0.0028531981 
    951000   0.049930361   -0.75477453     0.035584643   -0.64434266    -0.0015791866 
    952000   0.050253936   -0.75475468     0.037987503   -0.6414349     -0.0039591126 
    953000   0.051219264   -0.75379554     0.035111804   -0.64190441     0.0033293154 
    954000   0.049587622   -0.75452897     0.037334815   -0.64286071    -0.00022507455
    955000   0.052237804   -0.75583017     0.036295319   -0.6412287      0.00037199964
    956000   0.051410228   -0.75214924     0.035971937   -0.63911171     0.0052711096 
    957000   0.051706702   -0.75558359     0.037904698   -0.64016887    -0.002548394  
    958000   0.050647897   -0.75417522     0.037262801   -0.64098958     0.0011519387 
    959000   0.04983827    -0.75379435     0.038860576   -0.6402246      0.003808583  
    960000   0.049218149   -0.75503297     0.038157212   -0.64309616    -0.0078407827 
    961000   0.049736544   -0.75598759     0.036951113   -0.64447979    -0.00018465803
    962000   0.049939897   -0.75621413     0.039513981   -0.64183863    -0.00099242739
    963000   0.051072057   -0.75625816     0.036007098   -0.6436924     -0.0041923297 
    964000   0.05040828    -0.75670094     0.037054999   -0.6440823      0.0030701089 
    965000   0.051155069   -0.75585374     0.039327509   -0.63984314    -0.0083186812 
    966000   0.051192501   -0.75408285     0.036875486   -0.64046815    -0.00094206925
    967000   0.049263557   -0.75552399     0.037945986   -0.64373035    -0.0024253887 
    968000   0.049469264   -0.75667739     0.034258524   -0.64826285    -0.0016352262 
    969000   0.049733726   -0.75579407     0.036175525   -0.64506609     0.0011515309 
    970000   0.049506946   -0.75708238     0.037044462   -0.64582541    -0.0076042739 
    971000   0.047556625   -0.75624333     0.03596651    -0.6489879      0.0046031017 
    972000   0.050633953   -0.75545557     0.03552148    -0.64403216    -0.0026268225 
    973000   0.049502233   -0.75553637     0.037130565   -0.64420036    -0.0034951743 
    974000   0.050702975   -0.75575388     0.036012387   -0.6437361      0.0029140473 
    975000   0.049652797   -0.75673367     0.037263084   -0.64503945    -0.0059196864 
    976000   0.049589895   -0.75707725     0.036287857   -0.64645254    -0.0062978355 
    977000   0.05014777    -0.75680871     0.035592757   -0.64604283     0.0024356147 
    978000   0.049357727   -0.75708885     0.037966575   -0.64513345    -0.0020686833 
    979000   0.051393156   -0.75626811     0.03708186    -0.64214625     0.0063319606 
    980000   0.051247081   -0.75708028     0.036492888   -0.64376636    -0.000978874  
    981000   0.050925236   -0.75664561     0.035609802   -0.64469724     0.0073199963 
    982000   0.048505167   -0.758292       0.037039384   -0.6485418     -0.0018410405 
    983000   0.051496168   -0.75833357     0.03624375    -0.6448954      0.0017436577 
    984000   0.049651616   -0.75724532     0.035959127   -0.64685681     0.0072887734 
    985000   0.050930187   -0.75817461     0.036155484   -0.64567314     0.00094744319
    986000   0.048893914   -0.76149836     0.036999486   -0.65120532    -0.0027031049 
    987000   0.051107721   -0.76053805     0.036775689   -0.64715024     0.00078604526
    988000   0.050008067   -0.76056012     0.037170157   -0.64842625    -0.0031791331 
    989000   0.051451089   -0.75973201     0.037570334   -0.64503484    -0.00044426429
    990000   0.052576235   -0.7587608      0.038300652   -0.64164668     0.0058838572 
    991000   0.049998506   -0.75947445     0.037881683   -0.6466434      0.0023295579 
    992000   0.050281456   -0.75886884     0.035103414   -0.6483919      0.00099469403
    993000   0.050874987   -0.7601238      0.035849454   -0.6480111      0.0012496779 
    994000   0.050273913   -0.76010355     0.036607757   -0.64813357     0.0013241467 
    995000   0.049706012   -0.76098672     0.037299753   -0.64917605    -0.0046161959 
    996000   0.048707535   -0.75955961     0.035465908   -0.65107954    -0.0028556911 
    997000   0.050348461   -0.76021333     0.038311429   -0.64642793    -0.0084764512 
    998000   0.048869363   -0.7588637      0.038979628   -0.64662732    -0.0022253876 
    999000   0.051534511   -0.76009512     0.036633735   -0.64620949    -0.003455762  
   1000000   0.048613462   -0.76080958     0.037569069   -0.65036737     0.0028484251 
   1001000   0.048040341   -0.75947053     0.037781401   -0.64967511    -0.0012117222 
   1002000   0.049293151   -0.75982186     0.036108234   -0.6498216     -0.0012226199 
   1003000   0.049316263   -0.75934267     0.036301421   -0.64911457    -0.005247443  
   1004000   0.049752606   -0.75956417     0.03823917    -0.64674424    -0.0017872544 
   1005000   0.050127658   -0.75940613     0.036911238   -0.64735191    -0.0041184075 
   1006000   0.049572903   -0.75950516     0.037150829   -0.64804295     0.0014314186 
   1007000   0.048416628   -0.7594537      0.037814103   -0.64906151    -0.0046606419 
   1008000   0.049238236   -0.75855899     0.036639508   -0.64810977     0.00096146076
   1009000   0.050073242   -0.75984721     0.036399994   -0.64838581    -0.00046787883
   1010000   0.050768197   -0.75913845     0.036684518   -0.64635076    -0.00037193848
   1011000   0.048881895   -0.75832867     0.035138759   -0.64991437     0.001242698  
   1012000   0.048982927   -0.75986329     0.036697288   -0.64973902    -0.0028845396 
   1013000   0.049225138   -0.76104294     0.039122951   -0.64812992    -0.0051092811 
   1014000   0.051808252   -0.76006182     0.036770571   -0.64562901    -0.006051529  
   1015000   0.050368039   -0.76106539     0.036936379   -0.6486257     -0.0056358087 
   1016000   0.051385579   -0.76212369     0.036691729   -0.64840332    -0.0028066483 
   1017000   0.051771968   -0.76213633     0.035789921   -0.64873856    -0.0011424368 
   1018000   0.048458644   -0.76209493     0.038758812   -0.65069505    -0.0069344205 
   1019000   0.049791346   -0.76222268     0.035640187   -0.65194366     6.1495554e-05
   1020000   0.048016364   -0.76315271     0.038394956   -0.65277968    -8.8824778e-05
   1021000   0.05083374    -0.76394054     0.035445367   -0.65229376    -0.00015487545
   1022000   0.05085539    -0.76409525     0.03919011    -0.64867127    -0.0021539004 
   1023000   0.051543319   -0.76274629     0.03755615    -0.64792504     0.00051450257
   1024000   0.050765427   -0.76332003     0.037365277   -0.64985574    -0.0027358156 
   1025000   0.050110327   -0.76256736     0.035931307   -0.65151905    -0.0003744017 
   1026000   0.048480334   -0.76294911     0.037770197   -0.65250532    -0.0022357043 
   1027000   0.049874001   -0.76350306     0.035566867   -0.65317345    -0.0026873602 
   1028000   0.050272331   -0.76446616     0.036966834   -0.65213948    -0.0081596572 
   1029000   0.050568571   -0.76485185     0.036484317   -0.65256361     0.0010509877 
   1030000   0.050791411   -0.7624679      0.034419655   -0.65191028     0.00439316   
   1031000   0.050010623   -0.76386844     0.035390231   -0.65351067    -0.0063503298 
   1032000   0.050260202   -0.76342703     0.037214469   -0.6508709      0.0050182567 
   1033000   0.049535614   -0.76475536     0.036022081   -0.6544778     -0.0035112978 
   1034000   0.051001431   -0.76337435     0.035764653   -0.6511569      0.0057314198 
   1035000   0.049695252   -0.76476963     0.035863447   -0.6544114     -0.011168594  
   1036000   0.05083962    -0.76455786     0.037912964   -0.65043466    -0.0024363903 
   1037000   0.049177952   -0.76513045     0.037590673   -0.65382044    -0.0078886076 
   1038000   0.05086488    -0.76652311     0.036262572   -0.65401244    -0.0089791316 
   1039000   0.049861033   -0.76481952     0.037747124   -0.6523291      0.002885945  
   1040000   0.049156225   -0.76579353     0.037716396   -0.65439037    -0.0033237368 
   1041000   0.050706612   -0.76570161     0.03706609    -0.65262467    -0.0029776608 
   1042000   0.05209993    -0.76442312     0.036723058   -0.64960058     0.01257629   
   1043000   0.049365408   -0.76505618     0.035442747   -0.65561309     0.0040060325 
   1044000   0.047761531   -0.76611145     0.037639357   -0.65687601    -0.0095775043 
   1045000   0.050553298   -0.765805       0.035787678   -0.65423629     0.0041672717 
   1046000   0.050729196   -0.76626351     0.037966087   -0.65225272    -0.0023628251 
   1047000   0.050748169   -0.76530955     0.037544515   -0.6516919      0.0033842512 
   1048000   0.049779409   -0.76499998     0.03692719    -0.65345186     0.0085200392 
   1049000   0.050931436   -0.76587544     0.035981117   -0.65354646    -0.001579052  
   1050000   0.049734422   -0.76604432     0.036840679   -0.65465014    -0.0053881191 
   1051000   0.050318591   -0.76550181     0.036647324   -0.6534253     -0.0079001462 
   1052000   0.050879691   -0.76509061     0.036519598   -0.65230072     0.0032426798 
   1053000   0.050316301   -0.76658486     0.036094841   -0.65506426    -0.0014200058 
   1054000   0.049214654   -0.76564284     0.037654663   -0.65421382     0.0034517068 
   1055000   0.049116806   -0.76647842     0.037110323   -0.65574042    -0.0064706544 
   1056000   0.050144146   -0.76604425     0.035018736   -0.65585782     0.00057695826
   1057000   0.051063594   -0.76620702     0.034333611   -0.65532744    -0.0023172986 
   1058000   0.048751944   -0.76607386     0.036323612   -0.65666951     0.00080185331
   1059000   0.050534573   -0.76528305     0.035435258   -0.65409484     0.0017426961 
   1060000   0.04938264    -0.76618502     0.036921895   -0.65523696     0.0011038353 
   1061000   0.051893904   -0.76644447     0.035456424   -0.65319741    -0.005872661  
   1062000   0.050160461   -0.76569317     0.035515362   -0.65498566    -0.0044804051 
   1063000   0.048597886   -0.76610404     0.037926099   -0.65532814     0.006482576  
   1064000   0.04993757    -0.76562282     0.036150195   -0.6546146     -0.0029320519 
   1065000   0.050449848   -0.76523112     0.03488734    -0.65471783     0.004717658  
   1066000   0.050128996   -0.76567919     0.035815595   -0.65471861     0.00067699178
   1067000   0.049812803   -0.76542044     0.035687492   -0.65506195    -0.001835248  
   1068000   0.049787758   -0.76567509     0.036660092   -0.65438154     0.0044187338 
   1069000   0.050063648   -0.76582041     0.038471061   -0.65230232     0.0033986965 
   1070000   0.04914041    -0.76533119     0.03841259    -0.65325553    -0.0027234516 
   1071000   0.051715795   -0.76637336     0.038727883   -0.65012184     0.0044563332 
   1072000   0.049333004   -0.76610162     0.036832439   -0.65531741    -0.00058758928
   1073000   0.049695003   -0.76553165     0.036448022   -0.65458921     0.0044877585 
   1074000   0.049285475   -0.7663134      0.038191732   -0.65424115    -0.0056619839 
   1075000   0.050410522   -0.76607403     0.038072294   -0.65243474    -0.00021787483
   1076000   0.049562147   -0.76615856     0.038333662   -0.65352964    -0.0058298842 
   1077000   0.051204065   -0.76609961     0.037078475   -0.65226458     0.0047381203 
   1078000   0.049422459   -0.76605466     0.03736508    -0.65460372     0.0020442206 
   1079000   0.049690744   -0.76617057     0.037558185   -0.65412436    -0.00090009271
   1080000   0.049841555   -0.76604584     0.035622649   -0.6557091     -0.00091112639
   1081000   0.050308481   -0.76572173     0.035019843   -0.65528785     0.0033351909 
   1082000   0.049992357   -0.76526905     0.036419286   -0.6539096     -0.0024541706 
   1083000   0.048624724   -0.76560795     0.036801522   -0.6559164     -0.0017566646 
   1084000   0.049025776   -0.76538472     0.037045186   -0.65484831     0.0039662381 
   1085000   0.050809525   -0.76611498     0.036230797   -0.65371906     0.0041848592 
   1086000   0.049421534   -0.76564783     0.036046314   -0.65551704    -0.00086926312
   1087000   0.048832266   -0.7645108      0.036274528   -0.65503513     0.0005609634 
   1088000   0.052037418   -0.76650465     0.035261813   -0.65323707     0.00074326277
   1089000   0.051896835   -0.76718248     0.037767753   -0.6516197     -0.0070158695 
   1090000   0.048686104   -0.76706847     0.036286707   -0.65779972    -0.004724205  
   1091000   0.049353127   -0.76626944     0.036050096   -0.65623742     0.0015107715 
   1092000   0.050472884   -0.76731561     0.036212816   -0.65544231    -0.0055395687 
   1093000   0.050109572   -0.7680945      0.03595256    -0.65702608     0.0023598798 
   1094000   0.050174141   -0.76768531     0.034648862   -0.65782379    -0.00068156548
   1095000   0.050099391   -0.76734441     0.036263107   -0.6559807      0.0026518176 
   1096000   0.049621932   -0.76739624     0.03558396    -0.6574274      0.003333763  
   1097000   0.049532777   -0.76851732     0.036599128   -0.65766696    -0.003886492  
   1098000   0.0500317     -0.76733695     0.036092656   -0.65624516     0.0086857948 
   1099000   0.0502921     -0.76750376     0.037834373   -0.6542799      0.0023512535 
   1100000   0.051089324   -0.76769794     0.037057399   -0.65405599     0.0015137202 
   1101000   0.050064688   -0.76878679     0.038705361   -0.65503285    -0.004347733  
   1102000   0.048945108   -0.76902968     0.037136012   -0.65852337    -0.0020511567 
   1103000   0.050944566   -0.76843068     0.037307556   -0.65475558     0.0012219858 
   1104000   0.050968203   -0.76739391     0.037163521   -0.65382741     0.0022411903 
   1105000   0.049206322   -0.7697757      0.03889093    -0.6571229      0.0043307616 
   1106000   0.050161883   -0.76997484     0.038130218   -0.65665034    -0.0018681692 
   1107000   0.04992407    -0.77042672     0.038476926   -0.657112       0.0010474121 
   1108000   0.050998808   -0.76940453     0.036418867   -0.65653681     0.0033723346 
   1109000   0.051140719   -0.77184398     0.035074328   -0.66010806    -0.0086606499 
   1110000   0.050728965   -0.77093002     0.036326604   -0.65855906     0.0051449636 
   1111000   0.051590475   -0.76957629     0.037562868   -0.65467764     0.012924352  
   1112000   0.050822249   -0.77085672     0.037709227   -0.65696331     0.002352725  
   1113000   0.049943095   -0.76977219     0.035920734   -0.65898515     0.0024401114 
   1114000   0.050341659   -0.76989139     0.037203793   -0.65722382     0.0013136248 
   1115000   0.050114629   -0.7716723      0.037551975   -0.65899688    -0.0012686283 
   1116000   0.049285548   -0.77149684     0.03881854    -0.65879767    -0.0017090451 
   1117000   0.049375234   -0.76933635     0.037239561   -0.65808172     0.006874413  
   1118000   0.049935498   -0.77151331     0.037060813   -0.65959757    -0.0052844447 
   1119000   0.050942398   -0.77069531     0.035535242   -0.65879577     0.0046157451 
   1120000   0.049572178   -0.77025158     0.0358762     -0.66006509    -0.0003467379 
   1121000   0.050674412   -0.77193508     0.034655612   -0.66131689    -0.0010031768 
   1122000   0.04954286    -0.77071006     0.036624954   -0.65981876     0.0082678492 
   1123000   0.051153552   -0.77236469     0.035056975   -0.66062689     3.8530223e-05
   1124000   0.049644584   -0.77206384     0.036164759   -0.66148025    -0.0026184128 
   1125000   0.050645637   -0.77082234     0.035953006   -0.65894989     0.0043517376 
   1126000   0.049272235   -0.77072374     0.03864678    -0.65821629    -0.0019435351 
   1127000   0.050172713   -0.77182694     0.038784807   -0.65783162    -0.0017189622 
   1128000   0.049508002   -0.77233136     0.03635646    -0.6617608     -0.0034166004 
   1129000   0.049816388   -0.77128624     0.037072507   -0.65953736     0.0067542966 
   1130000   0.049851632   -0.77203146     0.038463633   -0.65883863     0.00016050904
   1131000   0.05143974    -0.7723837      0.037810297   -0.65746358     0.0017689622 
   1132000   0.050063094   -0.77312956     0.035476569   -0.6626068     -0.0021043997 
   1133000   0.049693473   -0.7726379      0.03473609    -0.66340969     0.0068168005 
   1134000   0.049440855   -0.77289826     0.036447359   -0.66233746    -0.0044178276 
   1135000   0.051019332   -0.77274091     0.035989913   -0.66027137     0.0021622796 
   1136000   0.050471776   -0.77284953     0.037953623   -0.65923708     0.0079193238 
   1137000   0.050250103   -0.77220796     0.037272501   -0.65960893    -0.0032906684 
   1138000   0.050560693   -0.77373915     0.037496782   -0.66045026    -0.001222686  
   1139000   0.052866338   -0.77002205     0.036854716   -0.65391899     0.0038521961 
   1140000   0.050479287   -0.7707435      0.036923028   -0.65815039     0.001750838  
   1141000   0.049332387   -0.77094793     0.03924911    -0.65774798     0.0006453025 
   1142000   0.052849431   -0.77005723     0.037907945   -0.65292628     0.0040478617 
   1143000   0.050092229   -0.77086523     0.036065356   -0.65971001    -0.00040662319
   1144000   0.049481039   -0.77142465     0.037382214   -0.65986876    -0.0034115718 
   1145000   0.051515721   -0.76996996     0.03857794    -0.65416829     0.0027873922 
   1146000   0.051479939   -0.77108317     0.038201567   -0.65571152    -0.0038045715 
   1147000   0.050888969   -0.77193307     0.036866881   -0.65878198    -0.0035584582 
   1148000   0.049363574   -0.77040523     0.038456688   -0.65795095     0.0018023704 
   1149000   0.049678127   -0.76913374     0.037993128   -0.65667149     0.0048566436 
   1150000   0.050783486   -0.77027673     0.038060851   -0.6560898      0.0029839357 
   1151000   0.049341034   -0.77008343     0.037533155   -0.65858648     0.00086819899
   1152000   0.049902537   -0.77055562     0.037375904   -0.6583742     -0.0015610793 
   1153000   0.050744603   -0.77056675     0.035960545   -0.65853841    -0.0014357127 
   1154000   0.051649328   -0.7712981      0.037763591   -0.6561105      0.0022770709 
   1155000   0.048823289   -0.77089028     0.036944924   -0.66075767     0.0031568549 
   1156000   0.049563116   -0.77062737     0.037437608   -0.65889305     0.00056223458
   1157000   0.050009676   -0.77153848     0.036766649   -0.65980572     0.0072028639 
   1158000   0.049817693   -0.77155023     0.038158758   -0.65871315    -0.002719985  
   1159000   0.051123802   -0.77222962     0.038044503   -0.65754888    -0.0048341414 
   1160000   0.049998487   -0.77248056     0.037370326   -0.66016089    -0.00071332426
   1161000   0.051377563   -0.77341781     0.037214727   -0.65918646    -0.0018435712 
   1162000   0.049636463   -0.77337278     0.036040271   -0.66292585    -0.00070886071
   1163000   0.04991521    -0.77319861     0.034482599   -0.6638915     -0.0096394472 
   1164000   0.050458097   -0.77514131     0.038178156   -0.66132484    -0.0080664917 
   1165000   0.050636241   -0.77569121     0.0377687     -0.66201715    -0.0036791109 
   1166000   0.0506058     -0.77404364     0.037820043   -0.66036387     0.0023081226 
   1167000   0.049720016   -0.77457412     0.035872904   -0.6641693      0.0067903    
   1168000   0.049526702   -0.77481699     0.036937456   -0.66363741    -0.00068957147
   1169000   0.050858508   -0.77496635     0.035549137   -0.66317867     0.0025052426 
   1170000   0.049817401   -0.77531        0.038021256   -0.66261085    -0.0044853168 
   1171000   0.048740081   -0.77563353     0.036462546   -0.66610803     0.004015781  
   1172000   0.049290313   -0.77619494     0.038638383   -0.66366879    -0.0092502214 
   1173000   0.048309224   -0.7756028      0.03714265    -0.66604306    -0.0087316459 
   1174000   0.048626059   -0.77457983     0.035879894   -0.6658079     -0.00029730788
   1175000   0.049846964   -0.77472561     0.036894678   -0.66310872    -0.00095736052
   1176000   0.049149246   -0.77343437     0.037968839   -0.66178922     0.007909829  
   1177000   0.050023724   -0.7737683      0.036744363   -0.66203676    -0.003138645  
   1178000   0.049144018   -0.77314929     0.036054769   -0.66342606     0.0035015557 
   1179000   0.049786549   -0.77473186     0.037645866   -0.66245435     0.0035604462 
   1180000   0.049902022   -0.7754197      0.03749159    -0.66312337    -0.0016399877 
   1181000   0.049808195   -0.77522874     0.038959645   -0.661605      -0.0042552544 
   1182000   0.049537767   -0.77365704     0.038363018   -0.66103531     0.0047503756 
   1183000   0.04900045    -0.77471604     0.0368543     -0.66440849     0.0087012335 
   1184000   0.049952513   -0.77689662     0.038573166   -0.66344302    -0.0050654911 
   1185000   0.049431724   -0.77884414     0.038385609   -0.66635878    -0.0091843308 
   1186000   0.049892048   -0.77892687     0.038794083   -0.665343       0.006460341  
   1187000   0.051138771   -0.77800483     0.036266946   -0.66507922    -0.00087921647
   1188000   0.050454878   -0.77833804     0.03973018    -0.66297437     0.0020706231 
   1189000   0.052775808   -0.77712441     0.038547595   -0.65946418    -0.0017974947 
   1190000   0.051748088   -0.77693463     0.036967713   -0.66239486    -0.00082630557
   1191000   0.051440488   -0.77578615     0.039725617   -0.65894958     0.0003784856 
   1192000   0.051073899   -0.77574025     0.039270073   -0.65990875     0.0048666932 
   1193000   0.049793752   -0.77574191     0.036396138   -0.66470333     0.0026395157 
   1194000   0.049548075   -0.77593235     0.037640569   -0.66401762     0.002771789  
   1195000   0.051943607   -0.77718182     0.036757439   -0.66255924    -0.0010463315 
   1196000   0.049817424   -0.77881341     0.037933416   -0.66620207    -0.002954859  
   1197000   0.048770929   -0.77884856     0.039245243   -0.66649412    -0.00017044538
   1198000   0.047386349   -0.77682343     0.038591453   -0.66719831    -0.0056650693 
   1199000   0.049814257   -0.77818732     0.036294938   -0.66721921     0.0063451077 
   1200000   0.049611293   -0.77955101     0.039851026   -0.66533106    -0.009762021  
   1201000   0.050516352   -0.77836434     0.038157316   -0.66448138    -0.0029134132 
   1202000   0.050624557   -0.77855006     0.036693808   -0.6659684     -0.00085258877
   1203000   0.049574016   -0.77854359     0.037496961   -0.66673358     0.00052083585
   1204000   0.050443123   -0.7782544      0.039201375   -0.66343715    -0.0026715156 
   1205000   0.049067116   -0.77715648     0.036568731   -0.66703456    -4.5510612e-06
   1206000   0.050542574   -0.77685344     0.035706369   -0.66538212     0.0051767235 
   1207000   0.050483882   -0.77901345     0.037125089   -0.66621139    -0.0086065052 
   1208000   0.050581815   -0.7781949      0.038094209   -0.66427691     0.0017001548 
   1209000   0.052887673   -0.77874135     0.037397052   -0.66206397     0.0017960328 
   1210000   0.05112697    -0.77646712     0.036299149   -0.663527      -0.0012895378 
   1211000   0.05206137    -0.77751464     0.036867574   -0.66260539     0.0023459849 
   1212000   0.04974126    -0.77764704     0.036547303   -0.66653598    -0.0023687888 
   1213000   0.051283703   -0.77689257     0.038691357   -0.66132529     0.0016323664 
   1214000   0.048928587   -0.77868141     0.040434061   -0.66490181    -0.010540275  
   1215000   0.050404591   -0.77845151     0.037271383   -0.66562201    -0.0060550454 
   1216000   0.050106857   -0.77694034     0.03623103    -0.66559752     0.0054878307 
   1217000   0.051694983   -0.77755483     0.036674898   -0.66338748    -0.0017015213 
   1218000   0.051912897   -0.77655696     0.036245713   -0.66249214    -2.3893077e-05
   1219000   0.051407838   -0.77826331     0.037314439   -0.66388686    -0.004201394  
   1220000   0.050846454   -0.77765042     0.036850167   -0.66457978    -0.0023401625 
   1221000   0.050098126   -0.77799813     0.03808272    -0.6648167      0.00096312637
   1222000   0.049932013   -0.7774165      0.038283956   -0.66428284    -0.0035574074 
   1223000   0.051983791   -0.77667473     0.038392642   -0.66035671    -0.0043126678 
   1224000   0.049960017   -0.77703039     0.037685573   -0.66445314    -0.0024176046 
   1225000   0.049469912   -0.77759524     0.037593847   -0.66584439     0.0030150839 
   1226000   0.050089921   -0.77780411     0.038316483   -0.66440122    -0.00021547682
   1227000   0.050170384   -0.77718406     0.036551979   -0.66542506     0.0044003697 
   1228000   0.051370031   -0.77823618     0.037643239   -0.6635876      0.0013839879 
   1229000   0.050595752   -0.77816554     0.037090052   -0.66523083     0.0009635104 
   1230000   0.050727467   -0.77838911     0.040036373   -0.66231063    -0.0020534112 
   1231000   0.04974226    -0.77872349     0.038112967   -0.66604527     0.0084330718 
   1232000   0.049375991   -0.77860958     0.038814585   -0.66577879    -0.0037497006 
   1233000   0.04886742    -0.77770107     0.040053138   -0.6643941     -0.0024625035 
   1234000   0.050037762   -0.77849581     0.039594002   -0.66389358    -0.0012135813 
   1235000   0.048799133   -0.77720874     0.037386493   -0.66667078     0.00055367572
   1236000   0.050057693   -0.77845924     0.037216989   -0.66620415    -0.0023813387 
   1237000   0.049973298   -0.77846051     0.037899851   -0.66564907     0.0015005082 
   1238000   0.051015126   -0.77740606     0.038698      -0.66223474    -0.0023538666 
   1239000   0.05122899    -0.77618331     0.035209845   -0.66417956     0.01129146   
   1240000   0.049721158   -0.77772206     0.036235694   -0.66695274    -0.00069020142
   1241000   0.052073483   -0.77729913     0.036314635   -0.66292467     0.0016923102 
   1242000   0.05042367    -0.77863438     0.038861371   -0.6641863     -0.0025634309 
   1243000   0.050048831   -0.77718098     0.037751548   -0.66440462     0.00054287224
   1244000   0.05067092    -0.77909333     0.035911462   -0.66722453    -0.0022822338 
   1245000   0.048575085   -0.77825585     0.036698924   -0.66874131     0.0059845604 
   1246000   0.048889708   -0.77772134     0.036327451   -0.66810664    -0.0038471194 
   1247000   0.049767606   -0.77724182     0.036727311   -0.66591126    -0.0022955859 
   1248000   0.049283138   -0.77754266     0.037052721   -0.66661292     0.0038308527 
   1249000   0.050291395   -0.77904227     0.038643055   -0.66501079    -0.0030548271 
   1250000   0.052271503   -0.77768466     0.039014893   -0.6603131      0.00072255858
   1251000   0.05152337    -0.77724472     0.038011019   -0.6619985      0.0014359868 
   1252000   0.049712839   -0.77774334     0.038680466   -0.66454172    -0.004318926  
   1253000   0.049464483   -0.77934366     0.038757652   -0.66643715    -0.0036865607 
   1254000   0.051378408   -0.77774992     0.040046975   -0.66068505     0.0021388072 
   1255000   0.051111573   -0.77784224     0.037905274   -0.66331907     0.00053830111
   1256000   0.050227924   -0.77893082     0.039400641   -0.6642369     -0.0030657171 
   1257000   0.049513142   -0.77811986     0.037574639   -0.66632342    -0.0013568917 
   1258000   0.048559962   -0.77755875     0.035203501   -0.6695623      0.0036691794 
   1259000   0.049782034   -0.77738177     0.037709131   -0.66504776    -0.00050624149
   1260000   0.051390512   -0.77946424     0.03811611    -0.66431209    -0.0047521764 
   1261000   0.051183029   -0.77812369     0.03824228    -0.66315639     0.00013428677
   1262000   0.047812862   -0.77759419     0.037229998   -0.66869117    -0.0061053912 
   1263000   0.049004844   -0.7784618      0.037183565   -0.66781839    -0.0021792308 
   1264000   0.049626973   -0.77722868     0.036779196   -0.66605705    -0.0032582568 
   1265000   0.049412083   -0.77758925     0.036662824   -0.66685612     0.0027327059 
   1266000   0.049567832   -0.77762137     0.037968632   -0.66534896    -0.0020099331 
   1267000   0.050216127   -0.77756399     0.039039417   -0.66324898    -0.0048389668 
   1268000   0.049731958   -0.77801428     0.038697315   -0.66476716    -0.0045527499 
   1269000   0.04942707    -0.77800416     0.037584971   -0.66632642     0.00034069525
   1270000   0.049172699   -0.77835155     0.03611993    -0.66852016     0.0023469615 
   1271000   0.048534908   -0.77857411     0.039198781   -0.66661994    -0.0071527063 
   1272000   0.049704312   -0.7791014      0.035728574   -0.66886446    -0.0015011892 
   1273000   0.048724076   -0.77975722     0.036857214   -0.66986105     0.0026741298 
   1274000   0.052821713   -0.77924542     0.037829594   -0.66223438     0.0027348838 
   1275000   0.054124962   -0.78029121     0.038248648   -0.6609075      0.00078782195
   1276000   0.052481161   -0.77893064     0.040376292   -0.65988339     0.0069488804 
   1277000   0.052740347   -0.78087106     0.040184737   -0.66162684    -0.0041354763 
   1278000   0.051921667   -0.78034773     0.039090909   -0.66342457     0.010042881  
   1279000   0.05105504    -0.78012673     0.03781077    -0.66578281     0.0026236941 
   1280000   0.050934576   -0.78131207     0.036763238   -0.66819626     0.0001430904 
   1281000   0.051081935   -0.78150325     0.036382349   -0.66854744    -0.0025293701 
   1282000   0.051150686   -0.7803215      0.036448842   -0.66719613     0.0042895258 
   1283000   0.048467212   -0.78021889     0.036383701   -0.67118128     0.00061162097
   1284000   0.049399405   -0.78017948     0.035178803   -0.67094937     0.0052674158 
   1285000   0.050614306   -0.78114284     0.035059218   -0.67021115     0.0045593279 
   1286000   0.050737301   -0.78306162     0.036976689   -0.67002808    -0.008113822  
   1287000   0.050053543   -0.78229436     0.036612359   -0.67065012     0.0058367271 
   1288000   0.052480368   -0.78421177     0.037156979   -0.66838503    -0.0078130599 
   1289000   0.051103762   -0.78516308     0.035637916   -0.67291898    -0.0031976753 
   1290000   0.049008123   -0.78351258     0.036846651   -0.67320117     0.0016279661 
   1291000   0.0473632     -0.78291563     0.036211586   -0.67570508     0.0067622843 
   1292000   0.050721287   -0.78299335     0.036247486   -0.67071302     0.00025788116
   1293000   0.049786452   -0.78419434     0.034839999   -0.67472284    -0.0045410257 
   1294000   0.048890981   -0.7844107      0.036685479   -0.67443607    -0.0020225262 
   1295000   0.049523731   -0.78312784     0.036574847   -0.67231532     0.0032688722 
   1296000   0.049527079   -0.78407661     0.036854789   -0.67297914    -0.006447658  
   1297000   0.050678558   -0.78397572     0.037121317   -0.67088561     0.00373911   
   1298000   0.049980565   -0.78391385     0.037849328   -0.67114205     0.0014388273 
   1299000   0.049151424   -0.78503008     0.035113589   -0.67623692     0.001838129  
   1300000   0.049311114   -0.78484764     0.03731801    -0.67361068    -0.0045436904 
   1301000   0.049864424   -0.78436781     0.036518776   -0.67310066     0.00063752347
   1302000   0.051226765   -0.7844964      0.036003336   -0.67170249     0.0072849928 
   1303000   0.050184727   -0.78370502     0.038974976   -0.66950152     0.00036341589
   1304000   0.049952074   -0.78402327     0.039517662   -0.66962584    -0.0090912289 
   1305000   0.050392244   -0.7840977      0.036661652   -0.67189645    -0.0017383261 
   1306000   0.049732224   -0.7848062      0.038897212   -0.67135878    -0.0038299281 
   1307000   0.050353719   -0.78489047     0.039643817   -0.6697648     -0.0011032837 
   1308000   0.049594959   -0.78548523     0.037649234   -0.67349155     0.0035469307 
   1309000   0.050025762   -0.78767345     0.036896312   -0.67578691    -0.0079590721 
   1310000   0.049429398   -0.7867279      0.037811824   -0.67481981    -0.00021617008
   1311000   0.048759287   -0.78494315     0.038173039   -0.67367837    -0.00018944578
   1312000   0.049486941   -0.78529758     0.038118143   -0.67299691     0.003057594  
   1313000   0.050934354   -0.78525843     0.038212563   -0.67069362     0.002737728  
   1314000   0.050206424   -0.78549063     0.037476938   -0.67275264    -0.0019659628 
   1315000   0.049042832   -0.78576263     0.037239723   -0.67500613     0.002382959  
   1316000   0.050115835   -0.78632609     0.033884276   -0.67731656     0.0075105839 
   1317000   0.050802045   -0.78551589     0.036708817   -0.67265317     0.0034099137 
   1318000   0.049358349   -0.78569364     0.037879149   -0.67382474    -0.0079253024 
   1319000   0.050038312   -0.78589049     0.03893448    -0.67194696    -0.0017621654 
   1320000   0.049302117   -0.78588924     0.038426727   -0.67355705    -0.001594063  
   1321000   0.049785505   -0.78594293     0.036663615   -0.67464923     0.0011475375 
   1322000   0.051163109   -0.78656866     0.037809441   -0.67206407    -0.0038458665 
   1323000   0.049599598   -0.78554595     0.038380146   -0.6728144     -0.0038733513 
   1324000   0.049688361   -0.78576015     0.035904685   -0.67537101    -0.0018279596 
   1325000   0.049610338   -0.78615182     0.038174821   -0.6736095      0.0041947649 
   1326000   0.051073532   -0.78583917     0.037202473   -0.67207582     0.0071716831 
   1327000   0.049574989   -0.78565054     0.036808071   -0.67452797    -0.0066147787 
   1328000   0.049420489   -0.78565526     0.036685652   -0.67488671     0.0081228868 
   1329000   0.050714084   -0.78555752     0.038600456   -0.67093502    -0.0090951687 
   1330000   0.05135754    -0.78554302     0.039882956   -0.66867346     0.0036737354 
   1331000   0.050572824   -0.78604629     0.03805725    -0.67217874    -0.0034732783 
   1332000   0.050238501   -0.78538912     0.03870836    -0.67137163     0.0018954157 
   1333000   0.049693947   -0.78657548     0.03829916    -0.67378349     0.006113542  
   1334000   0.046908178   -0.7860531      0.038305096   -0.67743113    -0.0087181765 
   1335000   0.04901063    -0.78655534     0.037958378   -0.67512845     0.000163269  
   1336000   0.050168508   -0.78526284     0.037916912   -0.67214172    -9.1648482e-06
   1337000   0.050218493   -0.78649145     0.037670718   -0.67354159    -0.0041921817 
   1338000   0.049149354   -0.78427381     0.036185148   -0.67441219     0.00789977   
   1339000   0.049245422   -0.78603681     0.038336758   -0.67387958    -0.0013552227 
   1340000   0.050631239   -0.78549364     0.03588505    -0.67371073     0.00019893993
   1341000   0.050874542   -0.78593953     0.039893839   -0.66978311    -0.0087457473 
   1342000   0.051510962   -0.78630773     0.037487585   -0.67160355     0.0032776953 
   1343000   0.051319347   -0.78498682     0.035788355   -0.67226911     0.0036714429 
   1344000   0.049645492   -0.78578084     0.037202587   -0.67415806     0.0031892904 
   1345000   0.05021475    -0.78582407     0.037392652   -0.67315789    -0.0015456218 
   1346000   0.048500403   -0.78645063     0.038082922   -0.67566404    -0.0056956429 
   1347000   0.049666305   -0.78616554     0.038123595   -0.67359055     0.0028636264 
   1348000   0.050621755   -0.78686931     0.038238637   -0.67274703     0.0047120333 
   1349000   0.048728215   -0.78540498     0.037065863   -0.67529395     0.00044004043
   1350000   0.048976232   -0.78574093     0.035433869   -0.67689011    -0.00049622925
   1351000   0.049074731   -0.78619716     0.036147504   -0.67648505     0.0033503908 
   1352000   0.048003595   -0.78591818     0.036503255   -0.67745599    -0.0056172399 
   1353000   0.048936078   -0.78589271     0.039010774   -0.67352517    -0.0014734294 
   1354000   0.049514406   -0.78668571     0.038326844   -0.67413517    -0.0021133801 
   1355000   0.049599762   -0.78522101     0.036769768   -0.6740996     -0.0027792089 
   1356000   0.048083273   -0.78684982     0.036288941   -0.6784825      0.0015780901 
   1357000   0.047806132   -0.786288       0.035659784   -0.67896528    -0.0041654009 
   1358000   0.049619958   -0.78452333     0.037612783   -0.67252863    -0.0023717277 
   1359000   0.050657552   -0.78496165     0.037695283   -0.67132906     3.1666265e-05
   1360000   0.05077387    -0.78524936     0.037123275   -0.67201442     0.0047937548 
   1361000   0.050525878   -0.7848549      0.037019174   -0.6720958      0.0033023784 
   1362000   0.051412892   -0.7868953      0.039173065   -0.67065265     0.0021506543 
   1363000   0.051109276   -0.78740601     0.037617473   -0.67317408     0.0028952808 
   1364000   0.050011622   -0.78836156     0.037717086   -0.67567544    -0.0054510649 
   1365000   0.050220603   -0.78840404     0.03784909    -0.67527265    -0.00048788739
   1366000   0.050094681   -0.78673957     0.03963294    -0.67201309     0.003080367  
   1367000   0.050329424   -0.78767        0.037665914   -0.67455866    -0.0010669863 
   1368000   0.050549211   -0.78689363     0.037231392   -0.67388734     0.0010086304 
   1369000   0.048915229   -0.7875611      0.038140002   -0.6760956     -0.0033392993 
   1370000   0.048534402   -0.78694622     0.03718445    -0.67700714    -0.0058378713 
   1371000   0.048493113   -0.78808081     0.038795354   -0.67659271     0.0027867526 
   1372000   0.048899876   -0.78778644     0.038293038   -0.67619091    -0.0053435191 
   1373000   0.048635912   -0.78885011     0.039499753   -0.67644355    -0.0014433835 
   1374000   0.048944944   -0.78894557     0.037289112   -0.6782864      0.00013590164
   1375000   0.050955353   -0.78934468     0.039274826   -0.67368613    -0.0049415434 
   1376000   0.049042159   -0.78719433     0.035980726   -0.67769783     0.010568144  
   1377000   0.049503568   -0.78931181     0.03699019    -0.67811417     0.0054758988 
   1378000   0.051161768   -0.79137582     0.037806441   -0.67687624    -3.269516e-06 
   1379000   0.050228413   -0.79071927     0.035928279   -0.67949698     0.00071427272
   1380000   0.050809183   -0.78984372     0.037299085   -0.67638003     0.0076224764 
   1381000   0.050187372   -0.7904011      0.038498273   -0.67667034     0.005491735  
   1382000   0.050613882   -0.79130936     0.037089687   -0.67834784    -0.00043560057
   1383000   0.05074964    -0.79109249     0.036350587   -0.67866656     0.00043983001
   1384000   0.04917924    -0.79213538     0.037442339   -0.68097178    -0.0038413434 
   1385000   0.05033573    -0.79155811     0.038011696   -0.67809153     0.0037335927 
   1386000   0.048858832   -0.79227785     0.038696116   -0.68034077    -0.0028127865 
   1387000   0.052167961   -0.79265228     0.0365263     -0.67792453     0.0073099082 
   1388000   0.050968576   -0.79241019     0.03636784    -0.67963881     0.001542753  
   1389000   0.048876899   -0.79343826     0.03753013    -0.68264008    -0.0043971854 
   1390000   0.049581072   -0.79305242     0.037143124   -0.68158567     0.011820445  
   1391000   0.051251929   -0.79417142     0.038210875   -0.67913225    -0.0052930296 
   1392000   0.050937769   -0.79260168     0.040654908   -0.67558941     0.0043554623 
   1393000   0.050903734   -0.79625971     0.038347749   -0.68160562    -0.0051785654 
   1394000   0.051627741   -0.79551491     0.037941583   -0.68018168    -0.0023251062 
   1395000   0.050388262   -0.7952731      0.037639582   -0.68209989    -0.0030354378 
   1396000   0.049430995   -0.79423062     0.038981139   -0.68115082    -0.0013214682 
   1397000   0.050912304   -0.79461638     0.038233133   -0.68006406    -0.00040112891
   1398000   0.050518979   -0.79570535     0.036657196   -0.68331858    -0.00039108611
   1399000   0.051962832   -0.79462602     0.037261578   -0.67947048     0.0048321586 
   1400000   0.049373733   -0.79636202     0.039181813   -0.68316738     0.0035841979 
   1401000   0.049540688   -0.79774296     0.039407739   -0.68407213    -0.0073906049 
   1402000   0.049250343   -0.79666534     0.03921289    -0.6836246     -0.0017015952 
   1403000   0.051013697   -0.79669314     0.038553184   -0.68166878    -0.0061016526 
   1404000   0.049782291   -0.79722384     0.03848809    -0.68411049    -0.0069206797 
   1405000   0.050623418   -0.79557941     0.03703442    -0.68265886     0.0007961335 
   1406000   0.049151067   -0.79631694     0.036490714   -0.68614719     0.0033484086 
   1407000   0.049513741   -0.79595543     0.037294147   -0.68443859    -0.0012266819 
   1408000   0.050808336   -0.79725675     0.038543751   -0.68254967     0.0015634381 
   1409000   0.050057523   -0.79637457     0.036215965   -0.68512076     0.0044396819 
   1410000   0.050774408   -0.79753307     0.037727681   -0.68369291    -0.0069214335 
   1411000   0.051558557   -0.79662273     0.0367812     -0.68255359    -6.8869508e-06
   1412000   0.051976578   -0.7962646      0.036532459   -0.68181758    -0.00088806192
   1413000   0.050419097   -0.79756428     0.039231201   -0.68275323    -0.006517302  
   1414000   0.049338808   -0.79832208     0.037537507   -0.68682411     0.0022462612 
   1415000   0.049697603   -0.79821114     0.037187606   -0.68652523     0.00068890054
   1416000   0.049509801   -0.79757013     0.035710609   -0.68764274     0.00033074302
   1417000   0.051190197   -0.79837269     0.036730516   -0.68490642     0.00063214029
   1418000   0.049910339   -0.79757334     0.035939625   -0.6868165     -0.0043298888 
   1419000   0.049996779   -0.79840139     0.038623169   -0.68483144    -0.0042930092 
   1420000   0.051670882   -0.79838043     0.03913023    -0.68179388    -0.0040642534 
   1421000   0.050766996   -0.79712102     0.03730482    -0.68371484    -0.0040082051 
   1422000   0.050747595   -0.79894527     0.038160509   -0.68471248    -0.0054576438 
   1423000   0.049555455   -0.79773762     0.037198952   -0.68625345     0.0026705356 
   1424000   0.050794711   -0.79936149     0.038256124   -0.68496245    -0.0015111404 
   1425000   0.048551287   -0.79767399     0.039043353   -0.68585069    -0.0051453212 
   1426000   0.049724406   -0.79825761     0.038253233   -0.68546589     0.00070832817
   1427000   0.049936883   -0.79850885     0.039548482   -0.68410337     0.0020400397 
   1428000   0.049602148   -0.7990388      0.035881823   -0.68880175    -0.006472454  
   1429000   0.050803462   -0.79785717     0.03814596    -0.68355519    -0.00098859174
   1430000   0.049853105   -0.79769627     0.037536304   -0.68542856    -0.00029211404
   1431000   0.050702636   -0.79797624     0.037001502   -0.68496985    -0.0010574524 
   1432000   0.050810442   -0.79872877     0.037225817   -0.68533646     0.0008511108 
   1433000   0.050634517   -0.79807839     0.038024276   -0.68415134     0.00048830462
   1434000   0.050101205   -0.79720178     0.037792904   -0.68430555     0.006047665  
   1435000   0.049055468   -0.79854941     0.038457794   -0.68655588    -0.0017729981 
   1436000   0.050064382   -0.79810242     0.037770751   -0.68528355     0.0030673221 
   1437000   0.049447537   -0.79863399     0.036764003   -0.68774654    -0.0057722536 
   1438000   0.051447367   -0.79843628     0.038751734   -0.68256328     0.0034899457 
   1439000   0.052237877   -0.79820628     0.037280492   -0.68261952     0.0012213789 
   1440000   0.048693183   -0.7980597      0.038290695   -0.68677635     0.0023688378 
   1441000   0.049595672   -0.79863657     0.03893049    -0.68536057    -0.0011336908 
   1442000   0.048801147   -0.79854411     0.037325364   -0.68806425    -0.0066640211 
   1443000   0.052094197   -0.79920398     0.040099423   -0.68101367    -0.0010214539 
   1444000   0.050418431   -0.80079395     0.039416847   -0.68579825    -0.0021583697 
   1445000   0.052349011   -0.79976657     0.038421155   -0.68287256     0.010168463  
   1446000   0.051618102   -0.8013572      0.039487116   -0.68449288    -0.0030848685 
   1447000   0.048033964   -0.80038576     0.038790306   -0.68959099    -0.0099992487 
   1448000   0.050950933   -0.80037827     0.036363536   -0.68763764     0.0044129754 
   1449000   0.048948818   -0.79972524     0.039681943   -0.68666744     0.0024711809 
   1450000   0.05162956    -0.8008937      0.038597868   -0.68490146    -0.0069685616 
   1451000   0.053219133   -0.80076846     0.038143252   -0.68284801     0.0011411772 
   1452000   0.047637663   -0.80057264     0.037166234   -0.69199602    -0.0039356875 
   1453000   0.048492101   -0.80029346     0.038559827   -0.68904241     0.00045652621
   1454000   0.049569437   -0.80061585     0.037467523   -0.68884214     0.0041691909 
   1455000   0.05049453    -0.80205833     0.037112571   -0.68925283    -0.0011092147 
   1456000   0.050923485   -0.80235565     0.036458305   -0.6895614     -0.0056682252 
   1457000   0.050000999   -0.8016044      0.036751074   -0.68990022     0.0056929666 
   1458000   0.048533943   -0.80266111     0.037908618   -0.69199854     0.0017689914 
   1459000   0.050136347   -0.80270605     0.038273808   -0.68927624    -0.0012093269 
   1460000   0.050561288   -0.8018168      0.036103125   -0.68992067     0.0042761508 
   1461000   0.049148995   -0.80175964     0.038628109   -0.6894556     -0.00028153994
   1462000   0.050846807   -0.80282846     0.037554384   -0.68905307     0.0027566103 
   1463000   0.051198618   -0.80258359     0.040486673   -0.68534854    -0.0028990779 
   1464000   0.050231177   -0.80108911     0.037366248   -0.68842471     0.0063241174 
   1465000   0.05133746    -0.80306469     0.037806751   -0.68830143     0.0024450751 
   1466000   0.049558503   -0.80294294     0.035947564   -0.69270558    -0.0049695942 
   1467000   0.049975412   -0.80200265     0.037280627   -0.68980727     0.0021311472 
   1468000   0.049710009   -0.8023878      0.037317197   -0.6905537     -0.0062912867 
   1469000   0.050219138   -0.80291117     0.038816055   -0.688815      -0.0070023815 
   1470000   0.050062894   -0.80241862     0.035681755   -0.69169097     0.0023744803 
   1471000   0.048628535   -0.80283417     0.036001042   -0.69393738    -0.0063472077 
   1472000   0.048294013   -0.80354867     0.037209481   -0.69394491    -0.0055900663 
   1473000   0.049138291   -0.8015189      0.037901084   -0.68995793    -0.00087912036
   1474000   0.051678903   -0.80277296     0.036144855   -0.68915976     0.0091263179 
   1475000   0.052081296   -0.80284068     0.037559685   -0.68720946     0.00080507579
   1476000   0.049963932   -0.8024698      0.038172722   -0.68939953    -0.0017488356 
   1477000   0.050619971   -0.80237634     0.037758172   -0.6887372      0.0017233599 
   1478000   0.04913867    -0.80102105     0.03760949    -0.68975111     0.0081270282 
   1479000   0.049605265   -0.80256542     0.036786644   -0.69141888    -0.00026579745
   1480000   0.04977949    -0.80317717     0.037989502   -0.6905666     -0.0038433724 
   1481000   0.047632202   -0.80291892     0.037059168   -0.69445754     0.00060802206
   1482000   0.049996426   -0.80326804     0.038303537   -0.69001825     0.0003238387 
   1483000   0.050591527   -0.80507817     0.038172423   -0.69106741    -0.013989501  
   1484000   0.048629777   -0.80352927     0.036564768   -0.69406689     0.0012671392 
   1485000   0.049237314   -0.80276651     0.037820401   -0.69113779     0.0011776412 
   1486000   0.051466569   -0.80416869     0.039665093   -0.68735355    -0.0040772904 
   1487000   0.049896146   -0.80356469     0.038071012   -0.69069775    -0.0003466339 
   1488000   0.049389809   -0.80413323     0.036682789   -0.69341352    -0.0037076715 
   1489000   0.049855713   -0.80347514     0.036690956   -0.69204886    -0.0014861348 
   1490000   0.049121756   -0.80309265     0.037837201   -0.69162035     0.0017867727 
   1491000   0.049491276   -0.80306161     0.036000953   -0.69287164    -0.0014681723 
   1492000   0.048014193   -0.80373937     0.035091029   -0.69667352    -8.3436131e-05
   1493000   0.048701952   -0.80401685     0.038632425   -0.69237863     0.0037629846 
   1494000   0.049956467   -0.80374818     0.036027405   -0.69283442    -0.00024920843
   1495000   0.049333506   -0.8049549      0.038784729   -0.69221765    -0.0007055893 
   1496000   0.049661958   -0.80394        0.036676983   -0.69281814    -0.0044836025 
   1497000   0.049374371   -0.8035636      0.039618898   -0.68993093     0.00187932   
   1498000   0.050665817   -0.80347127     0.03916049    -0.68836109    -0.00054508094
   1499000   0.049946686   -0.80370036     0.038532957   -0.69029571    -0.0083926961 
   1500000   0.048957504   -0.80250757     0.036485597   -0.69263309    -0.00032285525
   1501000   0.048310345   -0.8026645      0.03522201    -0.69502372     0.0043299478 
   1502000   0.049793063   -0.80378983     0.033824374   -0.69532405     0.00035432401
   1503000   0.049977372   -0.80236295     0.036292984   -0.69115227    -0.0038102596 
   1504000   0.050533787   -0.80374254     0.039095142   -0.68889562    -0.00020771043
   1505000   0.049611671   -0.80283126     0.037788485   -0.69067328     0.0011713243 
   1506000   0.049908115   -0.80381744     0.038804878   -0.69019869    -0.0058829183 
   1507000   0.050190213   -0.80332206     0.038049454   -0.69003586    -0.0040777052 
   1508000   0.050254379   -0.80276271     0.039077089   -0.68835268    -0.00035474549
   1509000   0.05067791    -0.80279076     0.037936305   -0.68888664    -0.0022984233 
   1510000   0.050491516   -0.80304031     0.034053822   -0.69329808     0.003675981  
   1511000   0.049752495   -0.80308403     0.037467388   -0.69103605     0.0073962853 
   1512000   0.04977205    -0.80383721     0.038902894   -0.69032441    -0.0013878524 
   1513000   0.050792452   -0.80285295     0.037140282   -0.68957314    -0.0029610448 
   1514000   0.050962632   -0.80327804     0.037272633   -0.68961078    -0.0053665823 
   1515000   0.050479333   -0.80363876     0.037612826   -0.69035578    -0.0022999209 
   1516000   0.050466513   -0.80383821     0.037568856   -0.69061842    -0.0054747172 
   1517000   0.050638465   -0.80347764     0.037389444   -0.6901795     -0.0037309642 
   1518000   0.050745441   -0.80297778     0.037247397   -0.68966133    -0.002650859  
   1519000   0.049301777   -0.80196278     0.041572721   -0.6864851     -0.001130844  
   1520000   0.048668973   -0.80347893     0.038446596   -0.69207597    -0.013393198  
   1521000   0.048432279   -0.80354817     0.03817308    -0.69277354     0.0080783992 
   1522000   0.048762068   -0.80372099     0.036693911   -0.69393116     0.00048735292
   1523000   0.048787788   -0.80421463     0.038022351   -0.69305781    -0.0027203501 
   1524000   0.049685308   -0.8032819      0.037221156   -0.69158087    -0.00024289582
   1525000   0.050643719   -0.80518282     0.041538601   -0.68772765    -0.0018089381 
   1526000   0.049511071   -0.80567045     0.038935723   -0.69251604    -7.3828312e-05
   1527000   0.051572911   -0.80492308     0.037586406   -0.69002722    -0.0059326827 
   1528000   0.049631046   -0.80430703     0.037610353   -0.69229814     0.0035389251 
   1529000   0.050897124   -0.80440626     0.038583599   -0.68952623     0.0028911938 
   1530000   0.05339344    -0.80417013     0.03921662    -0.68491503    -0.0024674725 
   1531000   0.052609683   -0.80571074     0.038721385   -0.68812574    -0.0041293304 
   1532000   0.052060413   -0.80407003     0.037551766   -0.68847802     0.00384632   
   1533000   0.049882282   -0.80302534     0.038615962   -0.68963423     0.00038245356
   1534000   0.050615598   -0.80440647     0.038692617   -0.68983944    -0.0004699809 
   1535000   0.050327587   -0.80473763     0.038455944   -0.69083901    -0.0085570454 
   1536000   0.050928311   -0.80452884     0.037589191   -0.69059647     0.0028884437 
   1537000   0.052137744   -0.80598531     0.037821587   -0.69000757     0.011533335  
   1538000   0.049455147   -0.80515463     0.036792716   -0.69422706     0.0032225599 
   1539000   0.049300455   -0.80490486     0.036124234   -0.69487765    -0.002621372  
   1540000   0.050150735   -0.80501533     0.036884748   -0.69295301     0.0039599769 
   1541000   0.051825545   -0.80537343     0.038796143   -0.68888912     0.0075737288 
   1542000   0.049055064   -0.80567573     0.037527359   -0.69461325     0.0035071203 
   1543000   0.048509361   -0.80618346     0.037433605   -0.69603276     9.2691795e-05
   1544000   0.051005305   -0.80565445     0.035571403   -0.69362445     0.0025113726 
   1545000   0.048376705   -0.8060442      0.039847214   -0.69367874    -0.0011724976 
   1546000   0.049355922   -0.80529422     0.038884856   -0.69242324    -0.00012704195
   1547000   0.049838589   -0.80517362     0.038511952   -0.69195201     0.0065774479 
   1548000   0.048259954   -0.80524827     0.040035177   -0.69286987    -0.0011028339 
   1549000   0.048561157   -0.80421806     0.037183391   -0.69423992     0.0040620581 
   1550000   0.049299702   -0.80586231     0.037912833   -0.69404763    -0.0064331781 
   1551000   0.049769179   -0.805717       0.036320098   -0.69479129    -0.0018365234 
   1552000   0.049435558   -0.80623652     0.037886327   -0.6942447     -0.0024770385 
   1553000   0.050604707   -0.80530699     0.038205693   -0.69124321     0.0014652595 
   1554000   0.050839531   -0.8054744      0.039423573   -0.68984073    -0.0033905392 
   1555000   0.049880546   -0.80607053     0.039591804   -0.69170617     0.0015588941 
   1556000   0.050283882   -0.8059548      0.039235184   -0.69134246    -0.0021647075 
   1557000   0.051218721   -0.80438503     0.038427339   -0.68917918    -0.0050423918 
   1558000   0.051271736   -0.80443605     0.038048246   -0.68952982     0.0051123311 
   1559000   0.049629464   -0.80466812     0.037589506   -0.69268245     0.0023164118 
   1560000   0.048786433   -0.80364898     0.038474364   -0.69204218     0.0072159374 
   1561000   0.050042619   -0.80552744     0.039049742   -0.6914622      0.002642844  
   1562000   0.04981282    -0.80408039     0.038696484   -0.69071288     0.0023615841 
   1563000   0.051264037   -0.80530143     0.039578437   -0.68887654    -0.0058933547 
   1564000   0.04942014    -0.80561249     0.037666659   -0.69386345    -0.00038533967
   1565000   0.047895814   -0.80341001     0.038080907   -0.69353173     0.0079273352 
   1566000   0.049715413   -0.80631294     0.037883024   -0.69390491    -0.004572715  
   1567000   0.050185763   -0.80417311     0.037071791   -0.69187124     0.0011878898 
   1568000   0.050437161   -0.80363087     0.037774507   -0.69024943    -0.0042074403 
   1569000   0.051517795   -0.80457132     0.038405325   -0.68893916     0.0028879806 
   1570000   0.049978572   -0.80569557     0.037705996   -0.69307008    -0.0035148574 
   1571000   0.048234283   -0.80569076     0.039656349   -0.69372966    -0.00056655134
   1572000   0.048995834   -0.80461781     0.036814073   -0.6943574     -0.0062386361 
   1573000   0.049087949   -0.80523053     0.038111096   -0.69353502     0.00175911   
   1574000   0.047206376   -0.80437764     0.038003289   -0.69561047    -0.0051395497 
   1575000   0.048577188   -0.80425156     0.036595339   -0.69483745    -0.003369917  
   1576000   0.050174567   -0.80488941     0.040716144   -0.68895997     0.0018597241 
   1577000   0.050295409   -0.80543348     0.038418174   -0.69162087    -0.00086666519
   1578000   0.049229427   -0.80308476     0.038099204   -0.69118906     0.0028651583 
   1579000   0.051060058   -0.80338358     0.036722495   -0.69012041     0.010224084  
   1580000   0.048981507   -0.80335099     0.03898398    -0.69094215     0.0029684608 
   1581000   0.049114001   -0.80424069     0.03946785    -0.69114937    -9.8236372e-06
   1582000   0.050818264   -0.80312139     0.03808373    -0.68885945     0.00078384816
   1583000   0.051783211   -0.80330022     0.037477422   -0.6881981     -0.0029734141 
   1584000   0.050525829   -0.80436423     0.039329958   -0.68929442     0.0010923332 
   1585000   0.051032717   -0.80319496     0.040133993   -0.68656127    -0.00023457711
   1586000   0.0516759     -0.80501891     0.038678072   -0.68887699     0.0085377796 
   1587000   0.050875448   -0.80511606     0.037290903   -0.69156122    -0.00022778737
   1588000   0.050673035   -0.8050014      0.038206012   -0.69083488    -0.0035036635 
   1589000   0.050508456   -0.8051352      0.039698518   -0.68972288     0.002476645  
   1590000   0.049242114   -0.80288343     0.039063896   -0.69000402     0.0013461922 
   1591000   0.04982513    -0.80551506     0.039295513   -0.69153007     0.00096501494
   1592000   0.05139942    -0.80638687     0.039048966   -0.69028852     0.00068254717
   1593000   0.049593744   -0.8046425      0.039407396   -0.69089248    -0.0028247532 
   1594000   0.04976997    -0.80595114     0.03872615    -0.6926182     -0.00030906369
   1595000   0.049140926   -0.80660774     0.040932498   -0.69201141    -0.011058756  
   1596000   0.051288081   -0.80510296     0.036778443   -0.69144203     0.00077788942
   1597000   0.049450855   -0.80371832     0.038768401   -0.69082149     0.0077875953 
   1598000   0.049438804   -0.80419874     0.03888407    -0.69120431    -0.0019283753 
   1599000   0.049722507   -0.80573823     0.040574719   -0.69062787    -0.00046359362
   1600000   0.049742835   -0.80364696     0.038701166   -0.69037968     0.00060781113
   1601000   0.05288798    -0.80513147     0.038205702   -0.68764498     0.0022401071 
   1602000   0.052025998   -0.80532353     0.038501035   -0.68883384    -0.003683205  
   1603000   0.049880566   -0.80458646     0.039035078   -0.6907788     -0.0017669859 
   1604000   0.049499176   -0.80535141     0.037915384   -0.69323516     0.0019443    
   1605000   0.048769268   -0.80539441     0.040910534   -0.69137717     0.0019258214 
   1606000   0.05044681    -0.80398392     0.03937295    -0.68898957     0.007775132  
   1607000   0.050179628   -0.8050752      0.038744444   -0.69110987     0.0012741892 
   1608000   0.049428919   -0.80611904     0.038637536   -0.69338596    -0.0068919798 
   1609000   0.050586799   -0.80651656     0.039401284   -0.69128403     0.0011003046 
   1610000   0.049505      -0.80663399     0.03869389    -0.69373051    -0.0059231011 
   1611000   0.051422109   -0.80529227     0.036959612   -0.69124926    -0.0048056556 
   1612000   0.050904726   -0.80559218     0.039752864   -0.68953149    -0.006707634  
   1613000   0.050923369   -0.80550081     0.036725192   -0.69243985     0.0010140636 
   1614000   0.04941729    -0.80547051     0.038775587   -0.69261681     0.0061805855 
   1615000   0.049283081   -0.80560236     0.03990225    -0.69182318     0.0014158463 
   1616000   0.051873038   -0.80533547     0.039732682   -0.68784343     0.0014070575 
   1617000   0.051004081   -0.80504866     0.038354189   -0.69023771     0.0073343515 
   1618000   0.049655485   -0.80483854     0.038966059   -0.6914373     -0.0019923188 
   1619000   0.049396096   -0.80569809     0.03948358    -0.69216817    -0.0047493292 
   1620000   0.048453113   -0.80758864     0.038603107   -0.69635275    -0.0085830636 
   1621000   0.049338543   -0.80535276     0.035683412   -0.69570928     0.0012925692 
   1622000   0.050342921   -0.80655303     0.037762019   -0.69332535     0.0067605599 
   1623000   0.048137348   -0.80608906     0.038847095   -0.69508253     0.00093736065
   1624000   0.050955797   -0.80655838     0.038973081   -0.69120092     0.0078005478 
   1625000   0.050816574   -0.80629004     0.036437204   -0.69367715    -0.003421557  
   1626000   0.047849833   -0.80607011     0.037500295   -0.69684137    -0.0024371233 
   1627000   0.049381776   -0.80659936     0.036762129   -0.69581235     0.00063952494
   1628000   0.050708068   -0.80504247     0.040217614   -0.68881183     0.0022582459 
   1629000   0.048114767   -0.80777621     0.03945182    -0.6961988     -0.0090651652 
   1630000   0.048586363   -0.80632913     0.039752485   -0.69374412     0.0013265122 
   1631000   0.048575514   -0.80780579     0.037648877   -0.69734065    -0.0052309105 
   1632000   0.048829557   -0.80670297     0.038013576   -0.69549231    -0.0032338899 
   1633000   0.050921816   -0.8072638      0.041562434   -0.68936792    -0.0049700101 
   1634000   0.050697284   -0.80724632     0.040664651   -0.69058481    -0.0039798201 
   1635000   0.048547489   -0.80687936     0.039576743   -0.69452836    -0.002707336  
   1636000   0.05051619    -0.8057119      0.036145488   -0.69384101     0.0015712715 
   1637000   0.048870198   -0.8075079      0.040993949   -0.69325595    -0.0055731514 
   1638000   0.050500231   -0.80795337     0.038287935   -0.69396396    -0.0056913056 
   1639000   0.049223181   -0.80773612     0.038389053   -0.69555993    -0.0027328039 
   1640000   0.050552645   -0.80582051     0.038635417   -0.69140505    -0.0016372239 
   1641000   0.050665001   -0.80471268     0.040256222   -0.68850798     0.00014801275
   1642000   0.050774714   -0.80564045     0.038218726   -0.69130879     0.00060573029
   1643000   0.048915151   -0.80439701     0.037779462   -0.69329215     0.00048021869
   1644000   0.050132649   -0.80552272     0.039605957   -0.6907663     -0.0095335668 
   1645000   0.049708031   -0.80649118     0.038651118   -0.69332612    -0.0049948939 
   1646000   0.04915117    -0.80581045     0.039129634   -0.69300162     0.0066671022 
   1647000   0.05124692    -0.80694971     0.039852926   -0.69027599     0.0011246854 
   1648000   0.051085649   -0.80733777     0.039777003   -0.69098173    -0.0031800594 
   1649000   0.050572115   -0.80601454     0.039696555   -0.69050875     0.0021494495 
   1650000   0.049727809   -0.80719406     0.039845717   -0.69280475    -0.0032423125 
   1651000   0.050394378   -0.80765495     0.040159191   -0.69195296    -0.0056512644 
   1652000   0.049464644   -0.80748708     0.037812999   -0.69552498    -0.0014817495 
   1653000   0.050484492   -0.80664974     0.037937799   -0.69303406    -6.609551e-05 
   1654000   0.047637386   -0.80609837     0.038345496   -0.69634289     0.0029041926 
   1655000   0.049338261   -0.80667706     0.039396524   -0.69332089    -0.0070978268 
   1656000   0.048385857   -0.80726126     0.040611769   -0.69411753    -0.0046451482 
   1657000   0.04997806    -0.80771574     0.039096993   -0.69370002    -0.0022049828 
   1658000   0.049176563   -0.80638108     0.041365608   -0.69129822    -0.0053031823 
   1659000   0.049915215   -0.80636949     0.040324086   -0.69122089     0.0039267937 
   1660000   0.050430206   -0.80650172     0.036807138   -0.69409807     0.0015840148 
   1661000   0.050773684   -0.80695142     0.038001972   -0.69283806     0.0057051822 
   1662000   0.051520038   -0.80579542     0.037419897   -0.69114532     0.0087454632 
   1663000   0.048964198   -0.80584165     0.038819919   -0.69362282    -5.98617e-05  
   1664000   0.050404093   -0.80566681     0.036194278   -0.69391518    -0.0027935992 
   1665000   0.049363064   -0.80531037     0.037766884   -0.69354666     0.0019324771 
   1666000   0.050033938   -0.80624655     0.036891129   -0.69435293     8.2446466e-05
   1667000   0.049561838   -0.80701191     0.038580187   -0.69413693    -0.00097906133
   1668000   0.04910194    -0.80581957     0.040456145   -0.69175804    -0.0038209366 
   1669000   0.051347051   -0.80717055     0.038683102   -0.69151656    -0.0039517882 
   1670000   0.049140696   -0.80529986     0.039401098   -0.69223527     0.0034536878 
   1671000   0.05268953    -0.80658704     0.038471248   -0.68913249    -0.0018011395 
   1672000   0.050584701   -0.80708553     0.038633218   -0.69262421     0.0029346137 
   1673000   0.051550902   -0.80806595     0.037395136   -0.69339435    -0.002043966  
   1674000   0.049929949   -0.80812405     0.040699288   -0.69257816    -0.0021181981 
   1675000   0.048446181   -0.80858292     0.041515675   -0.69444485    -0.0026160317 
   1676000   0.049044258   -0.80741603     0.037442627   -0.69645448     0.0025878422 
   1677000   0.048971871   -0.80937547     0.038812798   -0.69715226    -0.0065348586 
   1678000   0.047699876   -0.80717087     0.040193135   -0.69547409    -0.0050113561 
   1679000   0.049182719   -0.80799982     0.038597548   -0.69567579    -0.0026578578 
   1680000   0.049782681   -0.80795355     0.03652446    -0.69680324    -0.0057851122 
   1681000   0.050464329   -0.807134       0.037653152   -0.69383319     0.0002287057 
   1682000   0.048597476   -0.80771574     0.038994087   -0.69587247    -0.0050390402 
   1683000   0.049079707   -0.80820152     0.036506471   -0.69812298     0.0029340109 
   1684000   0.051469529   -0.80819958     0.038938321   -0.69210678     0.0065203746 
   1685000   0.050430479   -0.80765116     0.038483168   -0.69357108     0.0022702243 
   1686000   0.049262019   -0.80664713     0.038441725   -0.69436005     0.0063550066 
   1687000   0.051982219   -0.8078322      0.039028644   -0.69088054    -0.0015518987 
   1688000   0.050708718   -0.80717385     0.039382997   -0.69177685    -0.0026427029 
   1689000   0.050064252   -0.80731824     0.039188165   -0.69308214     0.00063476873
   1690000   0.050773128   -0.80892223     0.038092385   -0.69471928     0.00075954579
   1691000   0.051409878   -0.80750208     0.040149801   -0.69028721     0.0016402012 
   1692000   0.050581425   -0.80682856     0.039751271   -0.6912541     -0.004442285  
   1693000   0.051850928   -0.80687564     0.038145322   -0.6910041     -0.0038964292 
   1694000   0.052236107   -0.8068165      0.041042221   -0.68747067     0.0072300381 
   1695000   0.050727902   -0.80848742     0.040009655   -0.692435      -0.0055157915 
   1696000   0.049779609   -0.80686728     0.036898986   -0.69534705     0.0039152527 
   1697000   0.049748165   -0.80705561     0.039425505   -0.69305601    -0.00043452132
   1698000   0.05096095    -0.80756349     0.037270429   -0.69390095    -0.0035584516 
   1699000   0.051196259   -0.80792386     0.039775318   -0.6914037     -0.0052726678 
   1700000   0.051168101   -0.80811496     0.038253552   -0.69315877     0.0091240788 
   1701000   0.049323647   -0.80964079     0.0398982     -0.69580485    -0.0065019704 
   1702000   0.051639209   -0.8083734      0.040349336   -0.69061523     0.0054022863 
   1703000   0.052389556   -0.80833646     0.040740925   -0.6890619     -0.00080661582
   1704000   0.049774608   -0.80998261     0.041126074   -0.69424279    -0.005271189  
   1705000   0.048941405   -0.80868478     0.041185537   -0.6941345     -0.0023811065 
   1706000   0.050486632   -0.80930892     0.038777523   -0.69485031     0.0011216241 
   1707000   0.049858211   -0.8091876      0.03808134    -0.6963672     -0.0091000577 
   1708000   0.049872063   -0.80751658     0.036400992   -0.69635575     0.0019403162 
   1709000   0.049860907   -0.80855204     0.03907958    -0.69472935     0.0073321921 
   1710000   0.050094822   -0.80870781     0.038656575   -0.69495748     0.0018512288 
   1711000   0.049865316   -0.80995677     0.038622315   -0.69658474    -0.00064222019
   1712000   0.048600065   -0.81081822     0.040620381   -0.69734478    -0.0053435121 
   1713000   0.048033509   -0.81164684     0.038887693   -0.70075537    -0.0033994253 
   1714000   0.049317765   -0.81007199     0.039196293   -0.69694678     0.0031367851 
   1715000   0.049111764   -0.81045267     0.039015213   -0.69781734    -0.0024340485 
   1716000   0.051429192   -0.81090893     0.039161563   -0.69465335    -0.0024772726 
   1717000   0.049918446   -0.80915825     0.0398662     -0.69446269     0.0065229232 
   1718000   0.049911239   -0.81073992     0.040647009   -0.69527435    -0.0025948482 
   1719000   0.049191943   -0.81047648     0.037609258   -0.69912691     0.0025350832 
   1720000   0.047976324   -0.8111766      0.038022089   -0.70123645    -0.00084285681
   1721000   0.048002846   -0.81004176     0.039968533   -0.69811541    -0.0051585269 
   1722000   0.050086176   -0.80922835     0.038930705   -0.69521685    -0.00021922431
   1723000   0.051690161   -0.81182147     0.039859831   -0.69447642    -0.0052475962 
   1724000   0.048984822   -0.80941157     0.038296781   -0.69768496     0.0028215707 
   1725000   0.050325883   -0.81101857     0.040248778   -0.69532967    -0.0035590885 
   1726000   0.050306284   -0.81043887     0.041235097   -0.69379304    -0.0010146695 
   1727000   0.049680074   -0.80955006     0.039287463   -0.69579056     0.0034730878 
   1728000   0.050053302   -0.81015293     0.038661567   -0.69645984    -0.0088799493 
   1729000   0.051929184   -0.81015007     0.037028757   -0.69527779     0.0019297836 
   1730000   0.050135118   -0.81001468     0.038702129   -0.6961584     -0.0047566529 
   1731000   0.049762951   -0.81081499     0.037399214   -0.69881951     0.0048892868 
   1732000   0.048226467   -0.80947494     0.039173949   -0.69800797    -0.00052244798
   1733000   0.050522664   -0.81030062     0.03937688    -0.69518864     0.0019727598 
   1734000   0.050463798   -0.81054156     0.039969125   -0.69492557     0.00019610457
   1735000   0.050052721   -0.81022385     0.04025117    -0.69494204    -0.0083330705 
   1736000   0.049976886   -0.80955346     0.03581305    -0.69882345    -0.00050788156
   1737000   0.050093739   -0.809148       0.036718739   -0.69733713    -0.0011098181 
   1738000   0.050620918   -0.81116612     0.037400374   -0.69788336    -0.0042971352 
   1739000   0.050810976   -0.81019935     0.03779228    -0.69623978    -0.00058840588
   1740000   0.050043973   -0.80995879     0.03745968    -0.69748158     0.0046966354 
   1741000   0.049345796   -0.80909948     0.038969797   -0.69615875     0.0026966552 
   1742000   0.046314496   -0.80947675     0.039574055   -0.70047577    -0.00025852146
   1743000   0.049445034   -0.80967553     0.037727597   -0.69782823     0.0028588265 
   1744000   0.050027467   -0.81273166     0.039806561   -0.69793231    -0.0016564054 
   1745000   0.04775127    -0.81068928     0.041019077   -0.69808951    -0.0038975661 
   1746000   0.051028432   -0.81214442     0.038617744   -0.69703341     0.0033945539 
   1747000   0.052092862   -0.81214432     0.038862635   -0.6951928     -0.0011665409 
   1748000   0.052363879   -0.81092217     0.039964984   -0.69246204     0.0002126091 
   1749000   0.049281129   -0.81144702     0.039346818   -0.6982262     -0.0030718624 
   1750000   0.050721683   -0.81085802     0.038838594   -0.69598598     0.00076148329
   1751000   0.050555173   -0.81257792     0.040096539   -0.69669755     0.0011011033 
   1752000   0.05140046    -0.81243869     0.037402064   -0.69798568     0.0027687028 
   1753000   0.052055464   -0.81204031     0.039369184   -0.6946383      0.0044272892 
   1754000   0.051399432   -0.81489872     0.038520811   -0.6993285      0.0061575878 
   1755000   0.050785988   -0.81371193     0.039534043   -0.69804805    -2.7762328e-05
   1756000   0.050644399   -0.8151362      0.038520096   -0.70069851     0.0095430433 
   1757000   0.049233707   -0.81596275     0.03952539    -0.70263444    -0.0053003434 
   1758000   0.050324465   -0.81520974     0.038084358   -0.70168739    -0.0017609078 
   1759000   0.050217974   -0.81645884     0.039302911   -0.70187757    -3.764187e-05 
   1760000   0.049190346   -0.81676256     0.038386194   -0.70463846     0.0012607372 
   1761000   0.047514852   -0.81709308     0.03779103    -0.70807575     0.001739915  
   1762000   0.048593806   -0.81630506     0.03803089    -0.70543049    -0.0027432892 
   1763000   0.047638364   -0.81645373     0.03973586    -0.70530642     7.9604219e-06
   1764000   0.050157435   -0.81689485     0.038607405   -0.70309983     0.00047148969
   1765000   0.04969434    -0.81596088     0.038494075   -0.70297338     0.0046286653 
   1766000   0.051014379   -0.81635407     0.03778888    -0.70209299     0.0080375334 
   1767000   0.050499736   -0.81651581     0.036615555   -0.70419953    -0.0061890931 
   1768000   0.049770973   -0.81616472     0.039911035   -0.70164539    -0.00090010934
   1769000   0.050549382   -0.81652731     0.038616177   -0.70213597    -0.00059723124
   1770000   0.050797164   -0.8178594      0.038654385   -0.70305843     0.0024569188 
   1771000   0.048380727   -0.81711306     0.037204176   -0.70738461     0.0032326547 
   1772000   0.049035971   -0.81859535     0.037764663   -0.70732418     0.0056826174 
   1773000   0.050473081   -0.81836732     0.038032451   -0.70467409     0.00042084975
   1774000   0.050632452   -0.8186939      0.037262976   -0.70553124    -0.00032311243
   1775000   0.050065714   -0.81663772     0.037152025   -0.70443557     0.0071511901 
   1776000   0.049541125   -0.81769        0.040198844   -0.70322741    -0.0025139847 
   1777000   0.050379374   -0.81847528     0.039201791   -0.70375318     0.0006161351 
   1778000   0.049151961   -0.81705297     0.03720459    -0.70616801     0.0061386702 
   1779000   0.050630872   -0.81995316     0.040087296   -0.70396856     0.00025545968
   1780000   0.049718844   -0.81828465     0.03974395    -0.70401055    -0.00229548   
   1781000   0.049499508   -0.81791777     0.038235865   -0.70548054    -0.0018216094 
   1782000   0.049145409   -0.81798456     0.037922713   -0.70639129     0.00095816326
   1783000   0.050404782   -0.81719234     0.040334796   -0.70129915    -0.0016663838 
   1784000   0.053078315   -0.81925926     0.039899314   -0.69979384     0.00041747508
   1785000   0.049345449   -0.81983264     0.040876322   -0.7049859     -0.002682312  
   1786000   0.048677717   -0.81917652     0.039458787   -0.70674827     0.0031053874 
   1787000   0.049439806   -0.81960884     0.038686151   -0.70681083    -0.006246516  
   1788000   0.049834231   -0.8201806      0.039617362   -0.70586012    -0.0073982531 
   1789000   0.050794966   -0.81882348     0.039252197   -0.70342799     0.0081983783 
   1790000   0.050887856   -0.82136399     0.040886869   -0.70419458    -0.0084207874 
   1791000   0.051389647   -0.82002173     0.041063142   -0.70192385    -0.012390569  
   1792000   0.051319323   -0.81947036     0.040421087   -0.70211995    -0.00043806184
   1793000   0.051465703   -0.82052096     0.03831905    -0.70505316    -0.0014013934 
   1794000   0.05223194    -0.82096304     0.038073133   -0.70459254    -0.0053448423 
   1795000   0.050569709   -0.82235271     0.038169197   -0.70837789    -0.0010761468 
   1796000   0.048946552   -0.82216363     0.037522432   -0.71126873    -0.0046847256 
   1797000   0.050738819   -0.82059225     0.0372823     -0.70725082     0.0048243923 
   1798000   0.051811764   -0.82088719     0.037724503   -0.70549518    -0.0038328421 
   1799000   0.052456866   -0.82100334     0.038135075   -0.70423373     0.0015203045 
   1800000   0.051028893   -0.82111642     0.039247265   -0.7053752      0.00066322133
   1801000   0.049496374   -0.82066613     0.039241872   -0.7072276      0.0041293644 
   1802000   0.050294549   -0.82175396     0.039464765   -0.70689604    -0.005427958  
   1803000   0.051967702   -0.8214796      0.039878464   -0.70369988     0.00024780734
   1804000   0.05006245    -0.82150697     0.038443981   -0.70801776    -0.0012639969 
   1805000   0.049521043   -0.8223353      0.039548191   -0.70855347    -0.007859127  
   1806000   0.050075301   -0.82142815     0.041040289   -0.70532337    -0.005130872  
   1807000   0.05175029    -0.82072431     0.039290723   -0.70385823    -0.0066497001 
   1808000   0.051759923   -0.82035761     0.039332558   -0.70343526     0.0038493397 
   1809000   0.052230402   -0.82264559     0.039771564   -0.70457897    -0.0036806202 
   1810000   0.051263356   -0.82199435     0.041095049   -0.70405388     0.010029504  
   1811000   0.051417817   -0.82155337     0.041704215   -0.70277218    -0.0039279921 
   1812000   0.051736088   -0.82314151     0.04017357    -0.70541388    -0.00076141057
   1813000   0.052537719   -0.82319662     0.039413284   -0.70502761    -0.0049747739 
   1814000   0.051557086   -0.82277029     0.040550958   -0.7049336     -0.0043839652 
   1815000   0.049701157   -0.82180321     0.04016235    -0.70713722    -0.0008642093 
   1816000   0.049156838   -0.82094686     0.040219571   -0.70703961     0.00076039697
   1817000   0.049294921   -0.82279537     0.041900583   -0.70700011    -0.0020939439 
   1818000   0.049389272   -0.82060891     0.039730689   -0.70684211    -0.0066076544 
   1819000   0.049579335   -0.82150845     0.039194769   -0.70799266     0.0081895224 
   1820000   0.049957253   -0.82237698     0.038867229   -0.70862222    -0.001099688  
   1821000   0.050316865   -0.8239153      0.038260097   -0.7102286     -0.00013963131
   1822000   0.049605445   -0.82341871     0.039612243   -0.70944631    -0.011832034  
   1823000   0.05104805    -0.82439847     0.039713799   -0.708162      -0.0046779378 
   1824000   0.049911317   -0.82372594     0.03790671    -0.71100055    -0.0020452424 
   1825000   0.049669268   -0.82388124     0.039203382   -0.71022203    -0.0027353979 
   1826000   0.049475691   -0.8247944      0.03855168    -0.71207707    -0.0030159146 
   1827000   0.050597184   -0.82332489     0.036873757   -0.71060433     0.0030367742 
   1828000   0.050549506   -0.8240864      0.039549958   -0.70876111    -0.00062517118
   1829000   0.049227299   -0.82375482     0.038904739   -0.71105677    -0.0045382473 
   1830000   0.049114203   -0.82425526     0.038247346   -0.71238414    -0.0044490066 
   1831000   0.050936334   -0.82349283     0.040081194   -0.70705642    -0.0020689622 
   1832000   0.051322054   -0.82350701     0.040008613   -0.70656499    -0.0031976023 
   1833000   0.04935747    -0.82271401     0.038888276   -0.70983729     0.008102721  
   1834000   0.050263957   -0.82339228     0.038568217   -0.70947677    -0.0004128458 
   1835000   0.049386939   -0.82419923     0.037453999   -0.71271261    -0.0012774464 
   1836000   0.049902793   -0.82235776     0.039188463   -0.7083634     -0.005719998  
   1837000   0.049681425   -0.82224628     0.039610848   -0.70816137    -0.00022081972
   1838000   0.048600944   -0.82417838     0.042164619   -0.70915937    -0.0024440285 
   1839000   0.048883351   -0.82281707     0.041915461   -0.70762389     0.0055744885 
   1840000   0.051489246   -0.82302663     0.039288761   -0.70655383    -0.0015735721 
   1841000   0.049360781   -0.82234056     0.040062942   -0.70828422     0.0010461202 
   1842000   0.049468177   -0.82399421     0.042607828   -0.70723199    -0.005331532  
   1843000   0.052103693   -0.82439701     0.040620454   -0.70567144    -0.0024050331 
   1844000   0.049923686   -0.82420698     0.040992674   -0.70837709    -0.0033001678 
   1845000   0.04935971    -0.82181603     0.040304174   -0.70752006    -0.00083454438
   1846000   0.049842376   -0.82405179     0.041086604   -0.70824986    -0.014039958  
   1847000   0.05051538    -0.82579135     0.038890826   -0.71117635    -0.016216435  
   1848000   0.048853272   -0.82258761     0.037039143   -0.71231584     0.0036968125 
   1849000   0.048250486   -0.82361915     0.039608588   -0.71168153    -0.0069485512 
   1850000   0.048618228   -0.82292341     0.037931773   -0.71211134    -0.0034069581 
   1851000   0.050774358   -0.82358234     0.037906989   -0.70956295    -0.00067112872
   1852000   0.049010719   -0.82274826     0.039568387   -0.70971122    -0.0035198704 
   1853000   0.049961806   -0.8232509      0.040203083   -0.70815346    -0.0098605634 
   1854000   0.050679714   -0.82291207     0.040888198   -0.70605334    -0.00039814373
   1855000   0.048804417   -0.82193935     0.040021182   -0.70875877     0.0015100887 
   1856000   0.050150472   -0.82336582     0.039287994   -0.70890065    -0.0044231206 
   1857000   0.05035617    -0.82363653     0.03915412    -0.70899688    -0.0076262776 
   1858000   0.051675589   -0.82226857     0.039572042   -0.70523316     0.0053929313 
   1859000   0.050197085   -0.82216326     0.041620727   -0.70529549    -0.0017740119 
   1860000   0.04983574    -0.82169415     0.040453493   -0.70653528     0.0083944636 
   1861000   0.050454381   -0.82352417     0.041404592   -0.70648683    -0.0044125085 
   1862000   0.049571048   -0.82374856     0.040475792   -0.70896417    -0.0038227624 
   1863000   0.050342092   -0.82257104     0.041416431   -0.70569019     0.0059341463 
   1864000   0.049907397   -0.82368331     0.039082808   -0.70978771    -0.0075317447 
   1865000   0.050301354   -0.82279281     0.039585557   -0.7078039     -0.0034775659 
   1866000   0.05099774    -0.82249235     0.038500802   -0.70754429     0.012465185  
   1867000   0.051396631   -0.82420354     0.038778336   -0.70837999    -0.0047646527 
   1868000   0.050227294   -0.82183156     0.039159986   -0.70737924     0.0068836593 
   1869000   0.047784228   -0.82351908     0.04038135    -0.71150763    -0.0025217511 
   1870000   0.050074529   -0.82299113     0.040120696   -0.7078071      0.0038365959 
   1871000   0.050428678   -0.82324211     0.041198075   -0.70644982    -0.0042429169 
   1872000   0.049773604   -0.82317328     0.043191172   -0.70536987     0.0030008678 
   1873000   0.049861972   -0.82383472     0.041801102   -0.70728891    -0.0052577446 
   1874000   0.049198617   -0.8228903      0.040756061   -0.70838393     0.0011422109 
   1875000   0.049913065   -0.82363661     0.038807582   -0.71000774    -0.0038365346 
   1876000   0.049060421   -0.82290492     0.040921244   -0.70844052     0.0014019227 
   1877000   0.049327025   -0.82324882     0.040748697   -0.70855732    -0.00089068913
   1878000   0.050502687   -0.82075203     0.040554317   -0.70449256     0.0010729037 
   1879000   0.04991861    -0.8223857      0.039648767   -0.70790733    -0.0027307878 
   1880000   0.049900345   -0.8227899      0.040403133   -0.70758454     0.001498382  
   1881000   0.050588953   -0.82303981     0.040270932   -0.7069344     -0.0047766296 
   1882000   0.051054025   -0.82227013     0.040480993   -0.70525751     0.0028554524 
   1883000   0.04930034    -0.82337964     0.042000774   -0.70747607    -0.0040150778 
   1884000   0.05020159    -0.82173438     0.039861438   -0.70661914    -0.0036106959 
   1885000   0.051244485   -0.82167701     0.041223352   -0.70363652     0.00085184373
   1886000   0.050529265   -0.82266521     0.040217694   -0.70670251    -0.0035558444 
   1887000   0.052944321   -0.82288907     0.039325613   -0.70419821     0.0037449286 
   1888000   0.051424197   -0.82330563     0.040358926   -0.70586018    -0.0005402745 
   1889000   0.049625853   -0.82226614     0.038017815   -0.70985757    -0.0016092025 
   1890000   0.049995949   -0.82305453     0.038764412   -0.70934457    -0.00032135337
   1891000   0.050761742   -0.82285633     0.03828298    -0.70847986    -0.0030971689 
   1892000   0.048363146   -0.82334896     0.040814855   -0.71003619     0.0025216241 
   1893000   0.049203299   -0.82149864     0.040107464   -0.70763385     0.0013371809 
   1894000   0.049474781   -0.82334984     0.039415443   -0.70977011    -0.0031112702 
   1895000   0.049596762   -0.82226502     0.040350869   -0.707567       0.0026627016 
   1896000   0.049905066   -0.82248976     0.039588715   -0.70809174    -0.0031440982 
   1897000   0.049987634   -0.82359906     0.039990375   -0.70867561    -0.0096616233 
   1898000   0.050319157   -0.82455971     0.039790113   -0.70933955     0.0018884719 
   1899000   0.048081708   -0.82358529     0.040770244   -0.71073902    -0.0035014667 
   1900000   0.050179651   -0.82374273     0.041105393   -0.70741642    -0.0078340315 
   1901000   0.050141589   -0.82305646     0.040146912   -0.70774569    -0.011636799  
   1902000   0.048070044   -0.82132521     0.040295057   -0.70897161    -0.0032022001 
   1903000   0.049799117   -0.82295176     0.039057327   -0.70924395    -0.0076561089 
   1904000   0.050958667   -0.821451       0.038563338   -0.70649897     0.0058898187 
   1905000   0.050460156   -0.82439743     0.042602462   -0.70615357    -0.006225224  
   1906000   0.048693454   -0.82242839     0.041048633   -0.7083867      0.0032429503 
   1907000   0.04837452    -0.82335162     0.041342472   -0.70949418    -0.0018202237 
   1908000   0.05066981    -0.82167051     0.041166315   -0.70454851     0.0057505032 
   1909000   0.050309904   -0.82248218     0.040886135   -0.70617988     8.1990693e-05
   1910000   0.051828769   -0.82239809     0.041308984   -0.70339611     0.00066135919
   1911000   0.050525135   -0.8224302      0.041094182   -0.70559721    -0.0011938824 
   1912000   0.050829733   -0.82363176     0.040551792   -0.70688456    -0.010983773  
   1913000   0.048361595   -0.82330934     0.038989012   -0.71182473     0.00091454353
   1914000   0.047951143   -0.82259722     0.040789859   -0.70992705    -0.0083089815 
   1915000   0.04706173    -0.82356929     0.03905659    -0.71396565    -0.001154672  
   1916000   0.050899843   -0.82193009     0.039253876   -0.70637571    -0.0035284087 
   1917000   0.049003351   -0.82206168     0.040268056   -0.70833602     0.0011968058 
   1918000   0.050013919   -0.82333115     0.040118694   -0.70823998    -0.0030402815 
   1919000   0.049610096   -0.82222378     0.040940868   -0.70691578    -0.0011413001 
   1920000   0.050576439   -0.82212198     0.040101332   -0.70620494     0.006309622  
   1921000   0.048800322   -0.82309105     0.040086465   -0.70985133    -0.014524215  
   1922000   0.05000305    -0.82311701     0.038331545   -0.70982928    -0.00036208092
   1923000   0.050114257   -0.82127471     0.041237828   -0.704914       0.0018641455 
   1924000   0.049291091   -0.8230787      0.040743266   -0.70844649    -0.00069066098
   1925000   0.05159088    -0.82164329     0.039645838   -0.70466106    -0.0042243718 
   1926000   0.051741104   -0.82249205     0.038177906   -0.70675256    -0.0040192649 
   1927000   0.050259563   -0.82226136     0.039502507   -0.70741814     0.0017628386 
   1928000   0.051119888   -0.8221967      0.042254878   -0.70331146     0.0013036592 
   1929000   0.050052786   -0.82211237     0.041569936   -0.70551169    -0.0011975428 
   1930000   0.049170966   -0.82214165     0.040767066   -0.70766572    -0.0033484185 
   1931000   0.050711277   -0.82083515     0.039957529   -0.70485978     0.0073903195 
   1932000   0.049465657   -0.8233462      0.039151904   -0.71004368    -0.0066782685 
   1933000   0.049434782   -0.82255603     0.037508352   -0.71094335     0.00019378832
   1934000   0.04816903    -0.8212984      0.037954184   -0.71113729     0.0073438246 
   1935000   0.04790533    -0.82323822     0.039713268   -0.71171332    -0.0083120347 
   1936000   0.048363527   -0.82057438     0.039377242   -0.70869865     0.0095791138 
   1937000   0.050281222   -0.82243416     0.04025318    -0.7068078     -0.0014051065 
   1938000   0.047605636   -0.82220997     0.041653005   -0.70919458     8.9879679e-05
   1939000   0.047464136   -0.82247858     0.04012151    -0.71120679    -0.00065634288
   1940000   0.049481392   -0.82194819     0.039357181   -0.7084168      0.0012351946 
   1941000   0.051121769   -0.82298454     0.039723992   -0.70662737    -0.0076977148 
   1942000   0.050059794   -0.82264647     0.039661814   -0.70794341     0.0033912577 
   1943000   0.049184773   -0.82261241     0.043152333   -0.70573051    -0.0020693764 
   1944000   0.051040778   -0.82284476     0.041661182   -0.7046718      0.001839868  
   1945000   0.051525403   -0.8230573      0.040310917   -0.70550814     0.0042559107 
   1946000   0.049838968   -0.82099632     0.040559692   -0.70572641     0.0033678262 
   1947000   0.048596225   -0.82250288     0.040442547   -0.70921303     0.0022494223 
   1948000   0.051592092   -0.82300051     0.039332196   -0.7063301     -0.0039815593 
   1949000   0.049303527   -0.82350331     0.041712768   -0.70788297    -0.0095942585 
   1950000   0.049542077   -0.82275719     0.039939002   -0.70855302    -0.0048508431 
   1951000   0.048470432   -0.82392419     0.040620535   -0.71064491     0.0016708484 
   1952000   0.048333149   -0.82292189     0.040735317   -0.70973363    -0.0064220839 
   1953000   0.049030155   -0.82218555     0.040541804   -0.70814596     0.0012440849 
   1954000   0.04953003    -0.82399689     0.040681933   -0.70906784     0.002349498  
   1955000   0.048368593   -0.82181423     0.039513429   -0.70979472    -0.00051859275
   1956000   0.049113517   -0.82110512     0.040742775   -0.7067396      0.0014432561 
   1957000   0.049374957   -0.82324528     0.039498368   -0.70973226    -0.0044245653 
   1958000   0.049548666   -0.82233911     0.038578853   -0.70948521     0.0041644389 
   1959000   0.049148584   -0.82174786     0.039453754   -0.7086188      0.010929415  
   1960000   0.04968108    -0.82285502     0.039922205   -0.70845928    -0.005383332  
   1961000   0.049968217   -0.82271849     0.038783185   -0.70903134     0.00084748348
   1962000   0.049258026   -0.82335825     0.04062767    -0.70889121    -0.0036201704 
   1963000   0.049370807   -0.82371802     0.039080865   -0.71062872    -0.0047277832 
   1964000   0.049675632   -0.82182772     0.038088531   -0.70927382     0.0027549278 
   1965000   0.049262566   -0.82291652     0.038328366   -0.71074198    -0.0018413615 
   1966000   0.047990203   -0.82308601     0.039065223   -0.71208193     0.0011481226 
   1967000   0.049968867   -0.82285723     0.039331209   -0.70862108     0.0043294162 
   1968000   0.050054911   -0.82184688     0.042144957   -0.704668      -0.0023696293 
   1969000   0.049926579   -0.82365035     0.040715987   -0.70809282    -0.0066293842 
   1970000   0.049961207   -0.82303716     0.040761033   -0.70738267    -0.0048228122 
   1971000   0.051174458   -0.82185377     0.038446446   -0.70669516    -4.068138e-05 
   1972000   0.049764996   -0.8238243      0.040921528   -0.70830344    -0.0082615609 
   1973000   0.051038583   -0.82174505     0.04173993    -0.70349664     0.0072945159 
   1974000   0.049513117   -0.82359566     0.040824603   -0.7085493     -0.010318786  
   1975000   0.04761029    -0.8229481      0.040462379   -0.71111636     0.0022284389 
   1976000   0.05059772    -0.82267923     0.039605557   -0.70722605     0.0049013659 
   1977000   0.050707376   -0.82352497     0.041225189   -0.70628779    -0.0047563808 
   1978000   0.048946933   -0.82251629     0.040061581   -0.70908168     0.0030294743 
   1979000   0.050686358   -0.82277122     0.0391499     -0.70764083    -0.0011503215 
   1980000   0.051263089   -0.82296909     0.041128806   -0.70499526     0.0050219613 
   1981000   0.049995941   -0.82475697     0.040260009   -0.70955143    -0.0071837516 
   1982000   0.047318584   -0.82203061     0.039641862   -0.71145667     0.0085815274 
   1983000   0.048707261   -0.82196732     0.040251395   -0.70870217     0.0029256321 
   1984000   0.051190382   -0.82138582     0.041238254   -0.70341154     0.0034329462 
   1985000   0.049937458   -0.82244066     0.040784568   -0.70679824    -0.0048676018 
   1986000   0.051583199   -0.82187811     0.038233139   -0.70632009     0.0079086516 
   1987000   0.048136302   -0.82220454     0.039429423   -0.71061725     0.00068476198
   1988000   0.050028582   -0.82284949     0.039003363   -0.70885167    -0.0015638622 
   1989000   0.049355631   -0.82247712     0.039558109   -0.70893333     0.0040319388 
   1990000   0.050585585   -0.8238321      0.038097283   -0.7099054     -0.0017208948 
   1991000   0.050323241   -0.82082726     0.039981467   -0.70540963    -0.00054903176
   1992000   0.051429789   -0.82165295     0.038134864   -0.70642317     0.0060027591 
   1993000   0.051520784   -0.82313616     0.040713912   -0.70519093     0.0020240669 
   1994000   0.050506444   -0.82273551     0.040459806   -0.70656491    -0.0054786533 
   1995000   0.050962223   -0.82174937     0.040590415   -0.70476494    -0.0063723474 
   1996000   0.050280853   -0.82139599     0.042240079   -0.70378329    -0.0065347518 
   1997000   0.051333491   -0.82172647     0.040244838   -0.70453108    -0.0015171274 
   1998000   0.049619885   -0.82305011     0.041551569   -0.70711673    -0.00051553411
   1999000   0.050711205   -0.82384995     0.040539596   -0.70729262    -0.0048043606 
   2000000   0.050622997   -0.82287967     0.03936484    -0.70762932    -0.0048153924 
   2001000   0.051010362   -0.82206173     0.04148857    -0.70410698    -0.0027842968 
   2002000   0.050884758   -0.82247552     0.041923231   -0.7042744     -0.0054323131 
   2003000   0.050800992   -0.82228755     0.043214291   -0.70292093    -0.0018055309 
   2004000   0.04907519    -0.82320799     0.041781143   -0.70786155    -0.00098930878
   2005000   0.051631276   -0.82225277     0.040042376   -0.70481344    -0.00058647927
   2006000   0.049926114   -0.8226783      0.040826364   -0.70701108    -0.00049047306
   2007000   0.050543517   -0.82325671     0.039599989   -0.70789036     0.00075069416
   2008000   0.050280886   -0.82274512     0.041030873   -0.70634157    -0.0015088249 
   2009000   0.050324063   -0.82309233     0.039544574   -0.70811036     0.00079354025
   2010000   0.049445308   -0.82148295     0.039328404   -0.70803444    -0.0012091023 
   2011000   0.049795346   -0.82302027     0.039874019   -0.70850142     0.00096436961
   2012000   0.049752215   -0.82341748     0.039348461   -0.70948884     0.0015261074 
   2013000   0.048734629   -0.82383683     0.039686354   -0.7110957     -0.0040760425 
   2014000   0.049195844   -0.82297297     0.038455726   -0.71077108    -0.008223841  
   2015000   0.049832175   -0.8227152      0.040956443   -0.70705872    -0.0034206753 
   2016000   0.050156831   -0.82270921     0.039771688   -0.70775081     0.0072851044 
   2017000   0.048832413   -0.82306871     0.039600415   -0.71026693    -0.0026675021 
   2018000   0.050696786   -0.82221567     0.037079596   -0.70913995     0.00939705   
   2019000   0.050690341   -0.82316193     0.040031499   -0.70714397     0.0019986698 
   2020000   0.048639701   -0.82229854     0.040601563   -0.70878449     0.0025115709 
   2021000   0.048450669   -0.82160262     0.04055724    -0.70841627     0.0039025863 
   2022000   0.048879961   -0.82348534     0.041164067   -0.70904864    -0.0041964976 
   2023000   0.049550295   -0.82309736     0.04099108    -0.70782879    -0.0043999367 
   2024000   0.050312284   -0.82275324     0.042165262   -0.70516824     0.0021244905 
   2025000   0.05217106    -0.82138343     0.040967548   -0.70220978    -0.00024006492
   2026000   0.052229094   -0.82342029     0.041362175   -0.70376502    -0.0065239079 
   2027000   0.052617213   -0.82187161     0.041614511   -0.7013822     -0.00062123666
   2028000   0.049455875   -0.82274033     0.040510155   -0.70809422    -0.0062662131 
   2029000   0.050530325   -0.82355944     0.041549115   -0.70626374     0.0020611766 
   2030000   0.047432378   -0.82217959     0.041891836   -0.70918509    -0.0018355527 
   2031000   0.052288022   -0.82061132     0.038132895   -0.70409699     0.0047207303 
   2032000   0.050148951   -0.82167295     0.044029787   -0.70246827    -0.0023488218 
   2033000   0.050189954   -0.82205453     0.041093862   -0.70572431    -0.0061573865 
   2034000   0.050877998   -0.82045046     0.040801464   -0.70338124    -0.0043536398 
   2035000   0.050780921   -0.82122688     0.041392258   -0.70371238    -0.0059407107 
   2036000   0.049456762   -0.82265704     0.043467106   -0.70505265     0.0020304295 
   2037000   0.050416906   -0.82175433     0.04166232    -0.70451544     0.00027733725
   2038000   0.048386996   -0.82284428     0.041240408   -0.70907021    -0.0032683953 
   2039000   0.050727274   -0.820708       0.039816819   -0.70484936     0.0028666136 
   2040000   0.052000912   -0.82183645     0.040911827   -0.70297358     0.0054177229 
   2041000   0.050275525   -0.82166555     0.041450679   -0.70485024    -0.0072983579 
   2042000   0.050799161   -0.82074091     0.041420391   -0.70317094     0.0055984193 
   2043000   0.050676566   -0.82157376     0.041482189   -0.70412576    -0.0030386445 
   2044000   0.049046641   -0.82113236     0.039804493   -0.70780537     0.0039277904 
   2045000   0.049059107   -0.82200186     0.039328949   -0.70913173    -0.0050060331 
   2046000   0.049920784   -0.82065367     0.039385812   -0.70643499    -0.0018163618 
   2047000   0.04981734    -0.82142294     0.040890041   -0.7058551     -0.0022972627 
   2048000   0.049235324   -0.8222517      0.041818527   -0.70662784    -0.0027802614 
   2049000   0.050990058   -0.82067426     0.038935836   -0.70530268    -0.0028158021 
   2050000   0.049895145   -0.82061388     0.040762946   -0.7050565      0.0023493825 
   2051000   0.051125872   -0.82278923     0.040631299   -0.7055186     -0.0038593855 
   2052000   0.050603531   -0.82259573     0.039586439   -0.70715296     0.0019360083 
   2053000   0.049808329   -0.82179769     0.038326253   -0.70880715     0.0037643569 
   2054000   0.048963395   -0.82140408     0.042040152   -0.70596622    -0.0037866631 
   2055000   0.050598848   -0.82215902     0.039569853   -0.70673986     0.00026347017
   2056000   0.050231196   -0.82298688     0.041478405   -0.70621029     0.001252014  
   2057000   0.05243728    -0.82280488     0.041498342   -0.70270136     0.00052392809
   2058000   0.049652436   -0.82130584     0.039843321   -0.70703191    -0.0014391172 
   2059000   0.050714556   -0.82239611     0.040993869   -0.70537949    -0.0060975427 
   2060000   0.048797169   -0.8221898      0.042776318   -0.70626495    -0.0036034037 
   2061000   0.048716939   -0.82234856     0.040238633   -0.70908166     0.0052313738 
   2062000   0.050713221   -0.82251717     0.040245652   -0.70625076     0.0010751277 
   2063000   0.050333228   -0.82423801     0.038750188   -0.71003669    -0.0018153599 
   2064000   0.049190712   -0.82480976     0.038626867   -0.71244443    -0.0070298572 
   2065000   0.050882288   -0.82304011     0.038933674   -0.70783225    -0.0035626956 
   2066000   0.05195216    -0.82359922     0.039188558   -0.7065327     -0.0078970346 
   2067000   0.048380328   -0.82336921     0.041344561   -0.70950098    -0.0025425901 
   2068000   0.050945985   -0.82164088     0.03945378    -0.70581743    -0.00076649711
   2069000   0.051236617   -0.82268473     0.041088382   -0.70479101     0.0020425685 
   2070000   0.048677889   -0.82406171     0.042157595   -0.70893438     0.001719173  
   2071000   0.050684351   -0.82366832     0.040293555   -0.70739728    -0.0014969765 
   2072000   0.050841603   -0.82252075     0.040343369   -0.70596418    -0.0096567725 
   2073000   0.04882537    -0.82291847     0.040921191   -0.70880647     0.0010826374 
   2074000   0.047885614   -0.82320573     0.041791513   -0.70963214    -0.0085718874 
   2075000   0.049802778   -0.8226454      0.039692074   -0.70829736     0.00040758288
   2076000   0.047681764   -0.82201226     0.03839736    -0.7121384      0.005263659  
   2077000   0.049561816   -0.82197136     0.039175879   -0.70850072     0.0024876237 
   2078000   0.04988423    -0.82280414     0.041574578   -0.70645149     0.00022867149
   2079000   0.051660017   -0.8222225      0.041184579   -0.70359789     0.00494627   
   2080000   0.049499765   -0.82461547     0.04123427    -0.70917945    -0.0056223289 
   2081000   0.049156871   -0.82358841     0.039961655   -0.70993902    -0.0016409353 
   2082000   0.050655552   -0.82307776     0.041737089   -0.70540637    -0.0057444673 
   2083000   0.050079715   -0.82367014     0.042400506   -0.70619853     0.00010186339
   2084000   0.050035539   -0.82366602     0.040243257   -0.70841787     0.0050896731 
   2085000   0.051403917   -0.82389307     0.04085375    -0.70598319    -2.0504864e-05
   2086000   0.049599417   -0.82456434     0.040606417   -0.7096068     -0.0013524314 
   2087000   0.048392509   -0.82413147     0.040713214   -0.71087633     0.0064806843 
   2088000   0.050369895   -0.8233171      0.040000501   -0.7078105      0.0077485071 
   2089000   0.050242685   -0.82472779     0.040329224   -0.70908317    -0.0042910385 
   2090000   0.04944747    -0.82426405     0.038426046   -0.71171465    -0.0067780208 
   2091000   0.04971433    -0.82354231     0.040120784   -0.70889814     0.0025388259 
   2092000   0.050360932   -0.82502447     0.038195601   -0.7113362     -0.0037913442 
   2093000   0.048570082   -0.82359304     0.039330465   -0.71145446     0.0010195083 
   2094000   0.049095145   -0.82548329     0.040262673   -0.71162541     0.0013915745 
   2095000   0.048573472   -0.82449709     0.041021668   -0.71066222    -0.0010037686 
   2096000   0.048385858   -0.82461595     0.039088716   -0.71299527    -0.0018705901 
   2097000   0.049187921   -0.8243662      0.039582671   -0.71104925    -0.002966045  
   2098000   0.049421621   -0.82520315     0.04265229    -0.70846625    -0.0037982718 
   2099000   0.048940899   -0.82457272     0.042127433   -0.7090813     -0.0050603599 
   2100000   0.047715184   -0.82186033     0.039848135   -0.71048559     0.012647878  
   2101000   0.049674304   -0.82405708     0.040563492   -0.70903021    -0.00792421   
   2102000   0.050752638   -0.82294987     0.040306604   -0.70656343    -0.0024674429 
   2103000   0.052177836   -0.82443725     0.041600656   -0.70462034    -0.0077868553 
   2104000   0.050143061   -0.82392865     0.040360819   -0.70840177    -0.0042942639 
   2105000   0.052083838   -0.82361274     0.038203976   -0.70733341     0.0012537741 
   2106000   0.04853602    -0.82530683     0.040193404   -0.71235637    -0.0019463404 
   2107000   0.049407547   -0.82272719     0.038522479   -0.7101412      0.0023057421 
   2108000   0.049672262   -0.82556894     0.03996434    -0.71114428    -0.0070607384 
   2109000   0.049786364   -0.82380711     0.04081412    -0.70836163     0.001267956  
   2110000   0.050281716   -0.82570484     0.042727914   -0.70760301    -0.0083140473 
   2111000   0.049967249   -0.82532394     0.039243839   -0.71117758    -0.0065410681 
   2112000   0.050056364   -0.82457822     0.040988951   -0.70855316    -0.0018970056 
   2113000   0.050968199   -0.8250795      0.040494499   -0.70818203     0.0021074622 
   2114000   0.050750657   -0.82411232     0.039911224   -0.70812422     0.0013310171 
   2115000   0.05136863    -0.8249764      0.040219353   -0.70775381    -0.0018611066 
   2116000   0.051495918   -0.82329414     0.040866816   -0.70523328     0.0013745385 
   2117000   0.049189791   -0.82337747     0.041671278   -0.70796911    -0.004632622  
   2118000   0.050987186   -0.82338915     0.038794214   -0.70816349    -0.00011250162
   2119000   0.049652455   -0.82411344     0.040629509   -0.7090533      0.0023225438 
   2120000   0.051046879   -0.82524383     0.041084785   -0.70763813    -0.00474412   
   2121000   0.050669806   -0.8233737      0.042027515   -0.70539051    -0.00041626315
   2122000   0.050649697   -0.82460874     0.042426533   -0.70625667    -0.0011508786 
   2123000   0.049418397   -0.82497957     0.041105046   -0.70979476    -0.0087595096 
   2124000   0.050485425   -0.82597334     0.040698793   -0.70959526    -0.0037421499 
   2125000   0.051554965   -0.82451898     0.039715215   -0.7075212      0.0015247129 
   2126000   0.049707675   -0.82499858     0.038776443   -0.71170873    -0.0055630586 
   2127000   0.050357046   -0.82422739     0.038021529   -0.71071903     0.00058904506
   2128000   0.049896915   -0.8239912      0.039092013   -0.71010211    -0.004474981  
   2129000   0.051060385   -0.8244912      0.040583336   -0.7073667     -0.0014661752 
   2130000   0.049959497   -0.82231018     0.041587462   -0.70583182    -0.0016225616 
   2131000   0.049410933   -0.82502089     0.042192146   -0.70876016    -0.003835802  
   2132000   0.050959618   -0.82416918     0.040229153   -0.70754991    -0.005886216  
   2133000   0.050532435   -0.82307766     0.038409149   -0.70891876    -0.0035194764 
   2134000   0.049500679   -0.82349349     0.04067167    -0.7086187      0.0054068341 
   2135000   0.050977583   -0.82218441     0.039204995   -0.70656237     0.0050448843 
   2136000   0.050124855   -0.82438703     0.039762531   -0.70948572     0.0030006122 
   2137000   0.050813302   -0.82439791     0.040315045   -0.70791209    -0.0031328032 
   2138000   0.050594731   -0.82491169     0.041024633   -0.70804393     0.00084877879
   2139000   0.048573686   -0.82463481     0.040000192   -0.71182109    -0.0041311685 
   2140000   0.048565307   -0.82388373     0.040679196   -0.71040358    -0.0014084342 
   2141000   0.051538277   -0.82554896     0.040238181   -0.70805324    -0.0024937363 
   2142000   0.049067266   -0.82460232     0.039150336   -0.71189857    -4.9713803e-05
   2143000   0.048588906   -0.82466392     0.036554034   -0.71527354    -0.005058132  
   2144000   0.049126343   -0.82409622     0.03831775    -0.71213649    -0.00058352294
   2145000   0.048858679   -0.82239243     0.041259663   -0.70789203     0.0027722335 
   2146000   0.049637312   -0.8253409      0.040272294   -0.71066067    -0.0053866685 
   2147000   0.050607391   -0.82520506     0.04029617    -0.70904678    -0.00028722753
   2148000   0.050850711   -0.8267118      0.040088891   -0.71039605    -0.004946692  
   2149000   0.051771568   -0.82728257     0.040881132   -0.70879419    -0.00079274575
   2150000   0.05027674    -0.82589558     0.039821901   -0.71070722     0.0029119549 
   2151000   0.048701155   -0.8268703      0.039388918   -0.71447678    -0.0054607555 
   2152000   0.048102243   -0.8261736      0.040726172   -0.71334061     0.0080341952 
   2153000   0.048943359   -0.82611448     0.04073431    -0.7120125     -0.0029511194 
   2154000   0.049916781   -0.82646187     0.04040603    -0.71122898     0.00086990044
   2155000   0.051138975   -0.82493954     0.041496746   -0.70678382     0.0023062197 
   2156000   0.051270794   -0.8264744      0.041041692   -0.70857614    -0.0027907715 
   2157000   0.050533913   -0.82558297     0.039590985   -0.71024002     0.0052680747 
   2158000   0.048261436   -0.8252809      0.040301215   -0.71263424     0.00151673   
   2159000   0.051178222   -0.82627144     0.039272004   -0.71028163    -0.00018854848
   2160000   0.049657067   -0.82557096     0.040992168   -0.71014125    -0.0038419775 
   2161000   0.048817323   -0.82520272     0.040525068   -0.71149891     0.00080021894
   2162000   0.049380901   -0.82488154     0.039427636   -0.71143034     1.5812819e-05
   2163000   0.048959926   -0.82601607     0.040440026   -0.71218354    -0.00083024301
   2164000   0.049729471   -0.8262661      0.040473827   -0.7112462      0.00067122187
   2165000   0.049522799   -0.82550063     0.038801418   -0.71246294     0.0022947113 
   2166000   0.048241077   -0.82513863     0.04093185    -0.71189185    -0.00059477356
   2167000   0.050477678   -0.82501646     0.040093075   -0.70925572    -0.00089315882
   2168000   0.049522442   -0.82488122     0.038386694   -0.71225879    -0.0022714634 
   2169000   0.050895941   -0.82601237     0.039655073   -0.71006264     0.0044421139 
   2170000   0.049408577   -0.82557913     0.040681406   -0.71083267    -0.0068856273 
   2171000   0.051515878   -0.82444553     0.0397607     -0.70746086     0.0057640212 
   2172000   0.049948314   -0.82575881     0.039976815   -0.71090786    -0.0052106855 
   2173000   0.050357717   -0.82496952     0.041000866   -0.70848081     0.0044244782 
   2174000   0.050035538   -0.82523529     0.03937514    -0.71085526     0.01008117   
   2175000   0.047534624   -0.82620704     0.041220381   -0.71373072    -0.00096924139
   2176000   0.050177965   -0.82458576     0.03748907    -0.71187831    -0.003289915  
   2177000   0.050991429   -0.82452444     0.040741813   -0.70734483     0.0097731026 
   2178000   0.049999464   -0.82634658     0.041431377   -0.70996439    -0.0038237964 
   2179000   0.049913886   -0.82582425     0.040811224   -0.7101905     -0.0082989774 
   2180000   0.048053952   -0.82713772     0.040687157   -0.71441614    -0.0086869009 
   2181000   0.051004547   -0.82493549     0.039948121   -0.70852991    -0.0041292474 
   2182000   0.050921178   -0.82454879     0.039059943   -0.70915635    -6.5721602e-05
   2183000   0.051373322   -0.82474716     0.042775277   -0.70496162     0.001642116  
   2184000   0.050290988   -0.82267231     0.040222553   -0.70706194     0.0046624368 
   2185000   0.051397238   -0.82480149     0.042051737   -0.70570363    -0.00095809569
   2186000   0.050572889   -0.82505904     0.040198494   -0.70905015    -0.0010535283 
   2187000   0.051982464   -0.82574402     0.040250232   -0.7075704     -0.0030650856 
   2188000   0.049568265   -0.82550358     0.040154801   -0.71104435     0.00078780549
   2189000   0.050100042   -0.82419607     0.039398423   -0.70969607     0.0015403239 
   2190000   0.048065657   -0.82595506     0.042222967   -0.71168012    -0.003382346  
   2191000   0.049762326   -0.82712778     0.038742433   -0.71379002    -0.0028094442 
   2192000   0.049474441   -0.82526469     0.041274743   -0.70982616    -0.0043629365 
   2193000   0.051560845   -0.82585456     0.041472393   -0.70709079    -0.0030349961 
   2194000   0.050724461   -0.82453032     0.037966523   -0.71052619    -4.541814e-05 
   2195000   0.049109485   -0.82627109     0.041327811   -0.71132658     0.0034455771 
   2196000   0.05129642    -0.82437806     0.040277766   -0.70720531     0.010307605  
   2197000   0.051590227   -0.82542603     0.041209685   -0.70688093    -0.00092550832
   2198000   0.050234497   -0.82546691     0.040719804   -0.70944397     0.0016467194 
   2199000   0.049769804   -0.82668288     0.040467869   -0.71160846     0.0041161269 
   2200000   0.048530466   -0.8256259      0.038739157   -0.71413801    -0.001953283  
   2201000   0.050660526   -0.82424281     0.038606427   -0.70969462     0.0058500729 
   2202000   0.050224772   -0.82430038     0.04034494    -0.70866689    -0.0019334389 
   2203000   0.050608757   -0.82580297     0.040378716   -0.70956009    -0.002298992  
   2204000   0.050717182   -0.82478991     0.038859797   -0.70990342    -0.0010101702 
   2205000   0.051370369   -0.82581249     0.040451258   -0.70835539    -0.0066407888 
   2206000   0.049099278   -0.82563414     0.040041499   -0.71199124    -0.0040453996 
   2207000   0.04908475    -0.82749454     0.040931454   -0.71298346    -0.0072932503 
   2208000   0.049787726   -0.82539264     0.040253355   -0.71050588     0.0042672128 
   2209000   0.050706848   -0.82485378     0.040412226   -0.70843036     0.00120918   
   2210000   0.051263717   -0.82483931     0.039435989   -0.70855736     0.0014872422 
   2211000   0.05010688    -0.82353226     0.038617149   -0.70980328    -0.0005659678 
   2212000   0.049981929   -0.82539611     0.039773101   -0.71069848    -0.0043494309 
   2213000   0.048992158   -0.82562911     0.041099442   -0.71108884     0.0016970256 
   2214000   0.051548455   -0.82555738     0.040903793   -0.70738079    -0.0004032846 
   2215000   0.050048143   -0.82446733     0.038695179   -0.71074837    -0.00068165189
   2216000   0.051842187   -0.82701907     0.041152732   -0.70815323    -0.0020145065 
   2217000   0.049636218   -0.82467645     0.041023952   -0.70924621     0.0051675066 
   2218000   0.049799507   -0.82535575     0.040504963   -0.71019972    -0.0020217077 
   2219000   0.050524571   -0.82605125     0.041811568   -0.70850172    -0.0051580484 
   2220000   0.049633051   -0.82528417     0.041329676   -0.70955295     0.00073909289
   2221000   0.049645732   -0.82691119     0.039789567   -0.71270107    -0.014316895  
   2222000   0.051083703   -0.82589187     0.039925611   -0.70939014    -0.0059484044 
   2223000   0.052882936   -0.82586967     0.040090217   -0.70650623    -0.0045613321 
   2224000   0.050890878   -0.82607105     0.043020527   -0.70676346    -0.0036354873 
   2225000   0.050201376   -0.82517276     0.041689093   -0.70823019    -0.0056388581 
   2226000   0.049722921   -0.82637651     0.041155148   -0.7106851      0.0052733948 
   2227000   0.049244899   -0.82618101     0.040605021   -0.7117563     -0.0036725902 
   2228000   0.050609411   -0.82708699     0.039084227   -0.71213762    -0.0026261521 
   2229000   0.050008089   -0.82709336     0.041336065   -0.71079355    -5.911748e-05 
   2230000   0.048970292   -0.82627248     0.041949361   -0.71091507    -0.0084093764 
   2231000   0.051203808   -0.82635287     0.041118089   -0.70847862     0.00075652086
   2232000   0.050207582   -0.82568799     0.039995935   -0.71042927     0.00084928906
   2233000   0.048888034   -0.82647066     0.040235046   -0.71295088    -0.0051767335 
   2234000   0.048177848   -0.82665171     0.042268908   -0.71216265    -0.0041856475 
   2235000   0.050553645   -0.82684449     0.04154588    -0.70951707    -0.0039352978 
   2236000   0.051040703   -0.82745913     0.042044696   -0.70890277    -0.0034396398 
   2237000   0.049625518   -0.82743089     0.041939658   -0.71110098    -0.004275237  
   2238000   0.050712818   -0.82661702     0.040245245   -0.71035163    -0.0032221531 
   2239000   0.049087748   -0.82669393     0.041254148   -0.71185566    -0.0015669469 
   2240000   0.050880479   -0.82695976     0.040695626   -0.70999266     0.004621844  
   2241000   0.051740402   -0.8254939      0.041446753   -0.70648662    -0.0025218905 
   2242000   0.052074343   -0.82700386     0.042076878   -0.70686587    -0.0036733911 
   2243000   0.050017723   -0.82484476     0.04161478    -0.7082518      0.011961257  
   2244000   0.048484132   -0.82668285     0.041985772   -0.7120178     -0.0010137866 
   2245000   0.050980949   -0.82588073     0.039594308   -0.70986434     0.0023032217 
   2246000   0.049791401   -0.82535256     0.039848398   -0.71086524     0.0090519483 
   2247000   0.050742034   -0.82609583     0.043276568   -0.70675531     0.0019599906 
   2248000   0.050992633   -0.82707713     0.041857672   -0.70877986    -0.0036784763 
   2249000   0.052494431   -0.82684535     0.038929722   -0.70922478     0.0023288269 
   2250000   0.050081257   -0.82615135     0.040690536   -0.71038739    -0.0016610831 
   2251000   0.050787197   -0.82722279     0.041640301   -0.70945084    -0.0031846678 
   2252000   0.048921649   -0.82613487     0.041988456   -0.71081129     0.0042308405 
   2253000   0.049498757   -0.82466844     0.04245622    -0.70801198    -0.00022607844
   2254000   0.049999565   -0.82657524     0.042273057   -0.70935122    -0.005180205  
   2255000   0.0492633     -0.82683675     0.04060105    -0.71238842    -0.00084679083
   2256000   0.050783671   -0.82697512     0.039942517   -0.71090624    -0.0037793701 
   2257000   0.050565936   -0.82702308     0.04030639    -0.71091673    -0.0025957098 
   2258000   0.048094771   -0.8260931      0.042124382   -0.7118731     -0.0014749616 
   2259000   0.051419595   -0.82666637     0.04051035    -0.70907639     0.00095727733
   2260000   0.050184947   -0.82615727     0.041275478   -0.70965294    -0.0012907707 
   2261000   0.049863006   -0.82580288     0.040419955   -0.71063667    -0.0021849345 
   2262000   0.04959953    -0.82683042     0.041304302   -0.71117483    -0.00099327287
   2263000   0.049564601   -0.82701458     0.039128766   -0.71358688     0.0045179727 
   2264000   0.048508568   -0.82762424     0.03983942    -0.71506891    -0.0076555379 
   2265000   0.049693136   -0.82742522     0.037461016   -0.71547259    -0.0011843606 
   2266000   0.046411016   -0.82672302     0.039302695   -0.71784872    -0.0037114807 
   2267000   0.049577233   -0.82767961     0.037427745   -0.71593399     0.0013905894 
   2268000   0.047717526   -0.82654301     0.041746817   -0.71326608     0.0012632875 
   2269000   0.049245685   -0.82711238     0.038882499   -0.71440901     0.0077073205 
   2270000   0.050973864   -0.82552133     0.039534873   -0.70957499     0.0013660605 
   2271000   0.048059603   -0.82683035     0.044253268   -0.71053418    -0.0064383824 
   2272000   0.049970585   -0.82631521     0.040089181   -0.71131851    -0.0034757113 
   2273000   0.050499641   -0.82622061     0.041765285   -0.70875474     0.0020298382 
   2274000   0.050010057   -0.82780283     0.042796445   -0.7100397     -0.0046888072 
   2275000   0.048885432   -0.82627106     0.041891065   -0.71109915     0.0013282462 
   2276000   0.049755761   -0.82688122     0.040145192   -0.71215054    -0.0031710358 
   2277000   0.049399563   -0.82642702     0.039864912   -0.71251057    -0.006098249  
   2278000   0.049831281   -0.82757032     0.039866609   -0.71300501    -0.0013392652 
   2279000   0.050070472   -0.82825976     0.042207703   -0.71099481    -0.0048052219 
   2280000   0.050438047   -0.82683062     0.041512756   -0.7097096     -0.0018040624 
   2281000   0.049178508   -0.82828595     0.041503909   -0.71306187    -0.0064682093 
   2282000   0.047405361   -0.82744808     0.041310417   -0.7150755     -0.0014024011 
   2283000   0.049001128   -0.82810073     0.0411174     -0.71352906    -0.00090398994
   2284000   0.050031417   -0.826297       0.039452372   -0.71184592     0.0064408717 
   2285000   0.050728226   -0.82733488     0.04050944    -0.71078219    -0.010201485  
   2286000   0.049610856   -0.82620585     0.039705628   -0.71213195     0.00016809484
   2287000   0.049374773   -0.82682449     0.040459551   -0.71235056    -0.0027677104 
   2288000   0.050107603   -0.82746288     0.040493975   -0.71185599    -0.009770418  
   2289000   0.05018406    -0.82741811     0.040088212   -0.71210237     0.0003878094 
   2290000   0.048663416   -0.82614023     0.040242464   -0.71294973    -0.0043698987 
   2291000   0.048862945   -0.82564        0.040266847   -0.71212602    -0.0014882583 
   2292000   0.049784341   -0.82627777     0.04126098    -0.71038846    -0.0046712081 
   2293000   0.048611092   -0.82721825     0.043519092   -0.71082956    -0.0059094587 
   2294000   0.047761621   -0.82630637     0.038431512   -0.71627865    -0.0027694643 
   2295000   0.049437181   -0.82674703     0.038719612   -0.71391949    -0.0015512889 
   2296000   0.047985872   -0.8273014      0.042025656   -0.71334338    -0.0056147807 
   2297000   0.049233322   -0.82715997     0.037933177   -0.71542445     0.0030760512 
   2298000   0.050111364   -0.82612086     0.040839407   -0.7101629      0.0051740197 
   2299000   0.048884314   -0.82605081     0.039239137   -0.71353251    -0.0021158557 
   2300000   0.049017274   -0.82709414     0.040148799   -0.71346687    -0.0014243202 
   2301000   0.051013827   -0.82689491     0.038999271   -0.71142426    -0.00012638336
   2302000   0.051030056   -0.82820315     0.040192258   -0.71151519     0.0036005724 
   2303000   0.050396474   -0.82573027     0.040455449   -0.70972888     0.0054135526 
   2304000   0.049950425   -0.8261912      0.038967314   -0.71234658     0.012472446  
   2305000   0.049739338   -0.82544284     0.039601787   -0.71128018    -0.0032598113 
   2306000   0.050714071   -0.82610659     0.042253605   -0.70783095     0.0059913406 
   2307000   0.050432429   -0.82506488     0.039568854   -0.70989619     0.0053102306 
   2308000   0.049005952   -0.82784142     0.041524663   -0.71285526    -0.0042864913 
   2309000   0.050176073   -0.82550398     0.039666255   -0.71062217     0.0033496479 
   2310000   0.050610315   -0.82664163     0.039347282   -0.71142785    -0.0010383813 
   2311000   0.049080657   -0.82708682     0.039613701   -0.71389963     0.0056373761 
   2312000   0.049199886   -0.82684931     0.039317132   -0.71377997    -0.0070580387 
   2313000   0.049155656   -0.82641367     0.040549428   -0.71217832     0.00092663404
   2314000   0.050063622   -0.82638117     0.04174497    -0.70958921    -0.0023532819 
   2315000   0.050332861   -0.82722341     0.039117419   -0.7126554      0.00031644313
   2316000   0.048302329   -0.8273557      0.039671639   -0.71527732    -0.00039985667
   2317000   0.051183628   -0.82770209     0.040789101   -0.71018708    -0.00658952   
   2318000   0.049054273   -0.82793415     0.040640578   -0.71375963    -0.0017083408 
   2319000   0.050056006   -0.82779581     0.041014794   -0.71174545     0.0014696875 
   2320000   0.049395977   -0.82933716     0.040091349   -0.71519965    -0.0063339976 
   2321000   0.049574935   -0.82716883     0.041522424   -0.71133198    -0.0012193415 
   2322000   0.050772492   -0.82669171     0.040619433   -0.70996268     0.0024338401 
   2323000   0.051349759   -0.82775031     0.040830025   -0.70994534     0.00049841056
   2324000   0.04986778    -0.82726065     0.038333985   -0.71417326     0.00046586082
   2325000   0.050769937   -0.82753231     0.040613827   -0.71081271     0.0040034885 
   2326000   0.04886864    -0.82783531     0.042006182   -0.71257346     0.0045713752 
   2327000   0.049194762   -0.82681806     0.039274408   -0.71379911     0.0049751113 
   2328000   0.048755703   -0.82834611     0.040139454   -0.71512028    -0.0045314558 
   2329000   0.047656969   -0.82797451     0.041422928   -0.71511225    -0.003128349  
   2330000   0.049139501   -0.82635592     0.040182062   -0.71251217     0.0030916849 
   2331000   0.049201621   -0.82699632     0.040198082   -0.71304342     0.00040736002
   2332000   0.048671832   -0.8284402      0.04028202    -0.71519753    -0.0075292026 
   2333000   0.051091586   -0.82758506     0.038771209   -0.71222591     0.0046601293 
   2334000   0.048898007   -0.82813421     0.041349437   -0.71348508    -0.0018725089 
   2335000   0.050853721   -0.82802626     0.041194544   -0.71060035    -0.00018855764
   2336000   0.050422308   -0.82884267     0.040443587   -0.71281442    -0.010556298  
   2337000   0.049548311   -0.82742334     0.041885239   -0.71126359    -0.0014130883 
   2338000   0.050843457   -0.82935947     0.041493526   -0.71164996    -0.013899502  
   2339000   0.050207951   -0.82820969     0.040529407   -0.71241694    -0.0022579081 
   2340000   0.050285834   -0.82863981     0.041050725   -0.712209      -0.00037523268
   2341000   0.051114504   -0.82786684     0.039955865   -0.71128868    -0.0015998695 
   2342000   0.049447167   -0.82720265     0.041581881   -0.71149787     0.0044122918 
   2343000   0.050041954   -0.82795158     0.040379036   -0.71255804     0.0013634518 
   2344000   0.050683166   -0.82743622     0.038671756   -0.71278876    -0.0008168538 
   2345000   0.050017377   -0.82834085     0.040626091   -0.7127371     -0.0016468135 
   2346000   0.052492074   -0.82748925     0.041171962   -0.70762998     0.0056071287 
   2347000   0.051097437   -0.82578266     0.03808383    -0.71110212     0.0040777002 
   2348000   0.05023578    -0.82748688     0.040575718   -0.71160611     0.00037289649
   2349000   0.049482493   -0.82858908     0.041770999   -0.71264222    -0.01040369   
   2350000   0.04953289    -0.82763703     0.041851863   -0.71153377    -0.0027632667 
   2351000   0.050847639   -0.82616661     0.041602399   -0.70834196     0.0018686122 
   2352000   0.04939481    -0.82605032     0.040387023   -0.71161889     0.0024708227 
   2353000   0.050870625   -0.82795943     0.041108106   -0.71059461    -0.0091969999 
   2354000   0.052076586   -0.82759517     0.042071474   -0.70745922    -0.0097909244 
   2355000   0.051384713   -0.82714784     0.042191211   -0.70792928    -0.0031639731 
   2356000   0.050140968   -0.82649059     0.037716088   -0.71361158     0.00070170798
   2357000   0.050549257   -0.82761319     0.040027793   -0.71181043    -0.0010686726 
   2358000   0.051197661   -0.82776927     0.041012873   -0.71000946    -0.0069490099 
   2359000   0.050166507   -0.82641765     0.040539761   -0.71067668    -0.00018171231
   2360000   0.050533699   -0.82519232     0.039122505   -0.71031817    -0.0019846154 
   2361000   0.0506483     -0.82604846     0.041422381   -0.70870265     0.0046538217 
   2362000   0.049806577   -0.82648179     0.042741514   -0.70907861     0.0036467213 
   2363000   0.049270028   -0.82788876     0.041926929   -0.71210448    -0.00020192137
   2364000   0.049174349   -0.82692152     0.040213169   -0.71299441     0.0074686681 
   2365000   0.049068233   -0.82762889     0.038696836   -0.71537719    -0.004705804  
   2366000   0.048068473   -0.8273072      0.038996835   -0.71625417     0.00068808045
   2367000   0.049547779   -0.82673606     0.040230548   -0.71223179     0.0076675066 
   2368000   0.050338497   -0.82534456     0.039523436   -0.71036209     0.00038048417
   2369000   0.050297287   -0.82778947     0.040726792   -0.71166542     0.0021802893 
   2370000   0.049719011   -0.82568959     0.0407056     -0.71045359     0.0010725121 
   2371000   0.049329981   -0.82691849     0.040902712   -0.71206855    -0.0040153429 
   2372000   0.049769057   -0.8282176      0.041630659   -0.71198152    -0.0028153615 
   2373000   0.049303982   -0.82653457     0.041277063   -0.71134925    -0.0044422687 
   2374000   0.049831702   -0.82654814     0.041312832   -0.71053598     0.00067771224
   2375000   0.049421653   -0.82620339     0.041262501   -0.71085624     0.0015881162 
   2376000   0.049300541   -0.82883079     0.039116882   -0.71581081    -0.0021903187 
   2377000   0.04839099    -0.8272271      0.039315021   -0.71537242     0.0011413157 
   2378000   0.048729043   -0.82664137     0.040700152   -0.71289481    -0.00051796735
   2379000   0.051040243   -0.82795578     0.041977385   -0.70946743    -0.0031074422 
   2380000   0.048961719   -0.82574815     0.04161589    -0.71073706    -0.0036645266 
   2381000   0.050792147   -0.82695891     0.039934331   -0.71088551     0.0023397228 
   2382000   0.048201417   -0.82596403     0.040385646   -0.7133229      0.0088142716 
   2383000   0.051896951   -0.82688768     0.038989703   -0.71010277    -0.0024316036 
   2384000   0.049692329   -0.82652265     0.041561971   -0.71047028     0.001969893  
   2385000   0.047580396   -0.82670551     0.039884284   -0.71549668     0.0030592032 
   2386000   0.050525866   -0.82720541     0.040710891   -0.71075461     0.0009847041 
   2387000   0.051197398   -0.82649493     0.039935358   -0.70981303     0.0059269693 
   2388000   0.051254016   -0.82729341     0.039463911   -0.71099807     0.00049841398
   2389000   0.051462367   -0.8272974      0.040028427   -0.71012522    -0.0014121628 
   2390000   0.049608364   -0.82659516     0.040413579   -0.71181704     0.00068056725
   2391000   0.049157175   -0.82614174     0.040609547   -0.711844       0.00021098219
   2392000   0.048051758   -0.82712692     0.039939832   -0.71515595    -0.0055693329 
   2393000   0.050833992   -0.82701987     0.04071745    -0.71010062     0.01107733   
   2394000   0.049806214   -0.82656775     0.042045504   -0.70986112    -0.00062234912
   2395000   0.050956248   -0.82785127     0.041003696   -0.71046251     3.5342281e-05
   2396000   0.049651426   -0.82707274     0.040755045   -0.71188861     0.0028241173 
   2397000   0.051208991   -0.82773348     0.040827605   -0.71014195    -0.0043281271 
   2398000   0.051329658   -0.8264837      0.040079659   -0.70945923     0.007442818  
   2399000   0.050326805   -0.82664867     0.040316087   -0.71089108    -0.0036166936 
   2400000   0.049277174   -0.82744773     0.0415945     -0.71198516    -0.00033256062
   2401000   0.050626368   -0.82820458     0.040147515   -0.7121665     -0.0012953353 
   2402000   0.050183161   -0.82783345     0.041018944   -0.71158833    -0.010818272  
   2403000   0.048695494   -0.82669574     0.041114142   -0.71258548    -0.0016977884 
   2404000   0.048390023   -0.82823293     0.039674302   -0.71602042     0.0036163832 
   2405000   0.047883209   -0.826511       0.038856919   -0.7158756     -0.004437029  
   2406000   0.050603908   -0.82562593     0.039718375   -0.71005066     0.0032679181 
   2407000   0.049968588   -0.82653428     0.041400318   -0.71022944    -0.005266088  
   2408000   0.05106999    -0.82593779     0.043695959   -0.70568627    -0.00031840925
   2409000   0.050706128   -0.82621669     0.043950562   -0.706256      -0.0032836066 
   2410000   0.050459001   -0.82635535     0.041586209   -0.70912947     0.0014194216 
   2411000   0.049727226   -0.82537844     0.040957115   -0.70987861    -0.00018144167
   2412000   0.048964006   -0.82418992     0.039961599   -0.71082969     0.006057929  
   2413000   0.048714239   -0.82645981     0.040071228   -0.71336436    -0.0072675273 
   2414000   0.050853575   -0.82728939     0.039347022   -0.71171122    -0.0045243917 
   2415000   0.050237895   -0.82670054     0.041375186   -0.71001712    -0.0038520507 
   2416000   0.05080323    -0.82533942     0.042119266   -0.70706448     0.0013281799 
   2417000   0.050504645   -0.82596398     0.041655882   -0.7086        -0.0068782723 
   2418000   0.049443256   -0.82454882     0.041724069   -0.70870772     0.00092382278
   2419000   0.050501257   -0.82657129     0.041146849   -0.70972142     0.0019662206 
   2420000   0.050294693   -0.82585112     0.040102893   -0.71035486    -0.0050893811 
   2421000   0.049717362   -0.8266499      0.041086938   -0.71103503    -0.0037889398 
   2422000   0.050818881   -0.82652902     0.040779093   -0.70957079    -0.00083831939
   2423000   0.04955746    -0.8254002      0.041810319   -0.70930165     0.0056187598 
   2424000   0.048411171   -0.82659176     0.041690557   -0.7123313     -0.0064179783 
   2425000   0.048341604   -0.82543155     0.039828958   -0.71313697    -0.003767079  
   2426000   0.049211      -0.82593187     0.0384301     -0.71373289    -0.0019532487 
   2427000   0.051157248   -0.82652867     0.039898575   -0.70994373     0.0075668265 
   2428000   0.049100931   -0.82585268     0.042051942   -0.71019686    -0.0036251299 
   2429000   0.049317994   -0.8256277      0.039928901   -0.71176954    -0.0047331602 
   2430000   0.049650233   -0.82553665     0.042228713   -0.70888063     0.0025577465 
   2431000   0.050606232   -0.82593837     0.040983539   -0.70909445     0.00069961436
   2432000   0.05029198    -0.82636733     0.041403676   -0.70957435    -0.003462338  
   2433000   0.050347386   -0.82660233     0.040672619   -0.71045735     0.0041016509 
   2434000   0.050644468   -0.82677806     0.040940128   -0.70992024    -0.0073257998 
   2435000   0.050021818   -0.82443295     0.043097799   -0.70635083     0.0056694636 
   2436000   0.051095965   -0.82503156     0.041206471   -0.70723059     0.00022846241
   2437000   0.050787499   -0.82525017     0.041086699   -0.70803138    -0.004379637  
   2438000   0.050252405   -0.82600513     0.039549529   -0.71112562     0.0007872996 
   2439000   0.048982886   -0.82437435     0.039470278   -0.71147714    -0.0029887157 
   2440000   0.049598501   -0.82690115     0.038902372   -0.71364903    -0.00138721   
   2441000   0.048541115   -0.82486152     0.039228416   -0.71286841    -0.0099288955 
   2442000   0.049499352   -0.82637075     0.043173691   -0.70899593    -0.0085695733 
   2443000   0.05075694    -0.82542468     0.041470112   -0.70786827     0.0019466444 
   2444000   0.05001214    -0.82343262     0.040451605   -0.7080112      0.0058383991 
   2445000   0.049038129   -0.82558606     0.04597753    -0.70609879    -0.003159879  
   2446000   0.051473349   -0.82592913     0.043248469   -0.70552045    -0.0079285358 
   2447000   0.052497008   -0.8271492      0.041785698   -0.70666879    -0.0045997352 
   2448000   0.051812405   -0.82471904     0.041485684   -0.70556489    -0.0020579887 
   2449000   0.050914747   -0.8251272      0.038362656   -0.7104417     -0.0036829449 
   2450000   0.051902396   -0.82332142     0.044303621   -0.70121443    -0.0072184647 
   2451000   0.051617821   -0.82320686     0.042609336   -0.70322075     0.0054056826 
   2452000   0.04922129    -0.82270051     0.0407219     -0.70819431     0.0091318771 
   2453000   0.050007983   -0.82328994     0.040552971   -0.70777339     0.0024722493 
   2454000   0.049984106   -0.82258281     0.041882904   -0.70577212     0.00086067526
   2455000   0.050394001   -0.8225067      0.041850716   -0.70511375    -0.0017204882 
   2456000   0.052045574   -0.82262563     0.042303716   -0.70230392     0.0020907099 
   2457000   0.049280811   -0.82241165     0.043775043   -0.70476308     0.0016330922 
   2458000   0.050484717   -0.82214551     0.040451002   -0.70601629     0.0066544773 
   2459000   0.049061809   -0.822391       0.040200813   -0.70864495     0.00026857509
   2460000   0.050320984   -0.8232444      0.040471861   -0.70733976    -0.0068665991 
   2461000   0.051630591   -0.82337751     0.04282454    -0.70315705     0.0042765525 
   2462000   0.051554092   -0.823483       0.044938978   -0.70126277    -3.9497778e-05
   2463000   0.04970845    -0.8232734      0.041700549   -0.70705828     0.0032987796 
   2464000   0.048575642   -0.82284594     0.041700277   -0.70832921    -5.2550499e-05
   2465000   0.04969715    -0.82298291     0.040361727   -0.70812355     0.0010359375 
   2466000   0.050224361   -0.8230677      0.043093445   -0.70468632     0.0034051065 
   2467000   0.04976942    -0.82283963     0.04096348    -0.70727019    -0.0040136487 
   2468000   0.050842939   -0.82267815     0.042217682   -0.70424526     0.0014862302 
   2469000   0.050269441   -0.82286123     0.042952264   -0.70455345    -0.0061324443 
   2470000   0.049818572   -0.8223966      0.040588042   -0.70712891     0.0022661141 
   2471000   0.04974039    -0.82233954     0.041022797   -0.70675429     0.0025081115 
   2472000   0.049317439   -0.8224682      0.040642058   -0.70789771     0.0031182673 
   2473000   0.049570227   -0.82198539     0.041607886   -0.70607014     0.0057995956 
   2474000   0.050345881   -0.82224579     0.039883115   -0.70689258     0.00057952605
   2475000   0.049717007   -0.8231812      0.040396149   -0.70825765     0.00065174314
   2476000   0.049760093   -0.82417829     0.0410585     -0.70852781     0.0020689564 
   2477000   0.048418079   -0.82391035     0.041886628   -0.70944346    -0.0062448799 
   2478000   0.04988129    -0.82362284     0.042047405   -0.70680177     0.0013231136 
   2479000   0.050706733   -0.82333391     0.043093348   -0.70422953     0.0036378244 
   2480000   0.048590508   -0.82417346     0.043076347   -0.70825838    -0.0012186932 
   2481000   0.049258009   -0.8240508      0.040547907   -0.70966355     0.0022823824 
   2482000   0.050153076   -0.82385272     0.042152831   -0.70651881     0.00057428968
   2483000   0.047446618   -0.82272342     0.043863208   -0.7077362      0.0009572909 
   2484000   0.051561019   -0.82368121     0.042491912   -0.70389767    -0.0056133285 
   2485000   0.050890153   -0.82224615     0.042468022   -0.70349215    -0.0046114528 
   2486000   0.050086636   -0.82315331     0.041433472   -0.70663835     0.00220079   
   2487000   0.049234718   -0.82226359     0.041204813   -0.70725434    -0.0023343451 
   2488000   0.049372699   -0.8228857      0.043082905   -0.70579153    -0.003569354  
   2489000   0.049051181   -0.82249402     0.0400507     -0.70891401     0.005307438  
   2490000   0.049172167   -0.82329934     0.041090856   -0.70849782    -0.00044275316
   2491000   0.049739841   -0.82256236     0.043040328   -0.70496041    -0.00052349157
   2492000   0.049322643   -0.82114423     0.040099193   -0.70710881    -0.00049540884
   2493000   0.050410496   -0.821185       0.039619815   -0.70599822    -0.00069588956
   2494000   0.050296547   -0.82241675     0.040113639   -0.70690697     0.0096544736 
   2495000   0.049597928   -0.82216107     0.041260095   -0.70655208     0.006319492  
   2496000   0.050652033   -0.82375376     0.041781544   -0.70604318    -0.0048187959 
   2497000   0.051897605   -0.82432952     0.040706029   -0.7058273     -0.002390463  
   2498000   0.048997558   -0.8214833      0.041118468   -0.70691591     0.0048502065 
   2499000   0.050751726   -0.82228961     0.041074937   -0.7051362      0.0017176743 
   2500000   0.049843439   -0.8238723      0.040969382   -0.70818599    -0.0033701121 
   2501000   0.049416776   -0.82134592     0.04014538    -0.7071232     -0.0067591996 
   2502000   0.04939817    -0.82382676     0.041775474   -0.70800184    -0.00047095886
   2503000   0.047902603   -0.82340725     0.039279967   -0.71231973    -0.0039630735 
   2504000   0.04747685    -0.8228397      0.039813899   -0.71185648     0.0014098296 
   2505000   0.048656468   -0.8236533      0.039842872   -0.71087282    -0.0033632919 
   2506000   0.050971313   -0.82328274     0.04000999    -0.70686511    -0.005307234  
   2507000   0.049129947   -0.82337719     0.041558504   -0.70817131     0.0019216402 
   2508000   0.051607147   -0.82520684     0.042420608   -0.70542545    -0.010567414  
   2509000   0.051754456   -0.82270652     0.043897534   -0.70122739    -0.0062024488 
   2510000   0.051466616   -0.82292767     0.041123775   -0.70465377     0.0053720737 
   2511000   0.050411683   -0.8244869      0.042061751   -0.70685641     0.0033835974 
   2512000   0.050878919   -0.82437153     0.041504326   -0.70659806    -0.0042623995 
   2513000   0.049093441   -0.82348346     0.041861806   -0.708029      -0.0060085209 
   2514000   0.049993863   -0.823345       0.042989174   -0.70541341    -0.0054895821 
   2515000   0.049619851   -0.82235114     0.041703994   -0.70626539     0.0057705135 
   2516000   0.050708495   -0.82426355     0.040863717   -0.70738616    -0.0013621126 
   2517000   0.051094823   -0.82456059     0.040756351   -0.70721145    -0.0023748755 
   2518000   0.048919107   -0.82338961     0.040061631   -0.70999666    -0.0018389501 
   2519000   0.049929845   -0.82315675     0.042362702   -0.7059476      0.0015285479 
   2520000   0.049820707   -0.82392194     0.042278918   -0.70696017     0.0018374581 
   2521000   0.051795131   -0.82403803     0.041595909   -0.70479955     0.0015281196 
   2522000   0.050970208   -0.82263982     0.041608995   -0.70462484     0.0021737925 
   2523000   0.049905432   -0.82395196     0.040920541   -0.70822157     0.0048780663 
   2524000   0.049716855   -0.82424704     0.041374979   -0.70834489    -0.0035460532 
   2525000   0.049652284   -0.82418178     0.041442404   -0.708309      -0.0051452709 
   2526000   0.050924337   -0.82332284     0.041762576   -0.70522304    -0.0035485481 
   2527000   0.050226546   -0.82473847     0.041575664   -0.70787159    -0.0025708554 
   2528000   0.04921479    -0.82466682     0.040573061   -0.7103192     -0.00010695056
   2529000   0.048393765   -0.82370641     0.042405018   -0.70875758     0.0028471927 
   2530000   0.050401162   -0.82415657     0.041676783   -0.70692682    -0.0015174813 
   2531000   0.050171908   -0.82341588     0.041292525   -0.70691405    -0.0015912601 
   2532000   0.052096735   -0.82346071     0.041736111   -0.70362991     0.0060953073 
   2533000   0.051677898   -0.82426841     0.042741154   -0.70406042    -0.0020926283 
   2534000   0.048852609   -0.82418226     0.043411188   -0.70753943     0.0037164198 
   2535000   0.050346135   -0.8238027      0.040871876   -0.70746034     0.004189462  
   2536000   0.048476035   -0.82232763     0.041030924   -0.70862957    -0.0012755475 
   2537000   0.04814164    -0.82378816     0.042223908   -0.70939838    -0.0024343158 
   2538000   0.049746339   -0.82404924     0.042167119   -0.70731076     0.0070301943 
   2539000   0.048826094   -0.82282978     0.042076372   -0.70756152     0.00060361636
   2540000   0.050333137   -0.82487209     0.043514349   -0.70590675    -0.005718044  
   2541000   0.051527683   -0.82222415     0.041876083   -0.70310641     0.0039772376 
   2542000   0.050662313   -0.82419989     0.042261591   -0.70599386    -0.0059429334 
   2543000   0.05082286    -0.82474676     0.044211596   -0.70435006    -0.00560172   
   2544000   0.052101778   -0.82476881     0.04204978    -0.70461678    -0.0059083446 
   2545000   0.048279122   -0.82302434     0.043560893   -0.70709149     0.0025788452 
   2546000   0.051319232   -0.82299031     0.042393312   -0.70366782    -0.0046619536 
   2547000   0.048220495   -0.82325377     0.043667281   -0.70730241    -0.0050709141 
   2548000   0.04949117    -0.82206642     0.041843387   -0.70603417     0.0047028742 
   2549000   0.049450182   -0.82289101     0.04458355    -0.70418004    -0.0059824414 
   2550000   0.050012042   -0.82419743     0.04521763    -0.70401014     0.0024655213 
   2551000   0.050126209   -0.82300597     0.041994135   -0.70587103    -0.0052752863 
   2552000   0.049133539   -0.82188306     0.041279432   -0.70695087     0.008327001  
   2553000   0.050107478   -0.82363792     0.041439044   -0.70708615    -0.0026983591 
   2554000   0.050236818   -0.82301974     0.04247084    -0.70524229     0.0007038795 
   2555000   0.050039486   -0.8229881      0.042111042   -0.70586626    -0.0015504683 
   2556000   0.050591541   -0.82412089     0.043724111   -0.70455843    -0.0075117163 
   2557000   0.049876764   -0.82404616     0.04245052    -0.70682876    -0.0044513777 
   2558000   0.048745629   -0.82510812     0.042220015   -0.70981684    -0.0051525283 
   2559000   0.050346516   -0.82332022     0.041639811   -0.70620936     0.0053602782 
   2560000   0.050948348   -0.8245942      0.041800801   -0.70642018     0.00037350158
   2561000   0.049556184   -0.82505359     0.043795366   -0.70697191    -0.0079495858 
   2562000   0.050638886   -0.82349262     0.044285106   -0.70329819    -0.0028366509 
   2563000   0.049269895   -0.82098983     0.042161522   -0.70497114     0.0032718866 
   2564000   0.053761513   -0.82414539     0.041158898   -0.70239625    -0.0038755799 
   2565000   0.050329959   -0.82361455     0.042965595   -0.70520272    -0.0019706547 
   2566000   0.049133282   -0.82344893     0.041908467   -0.70788808     0.0064556051 
   2567000   0.048825181   -0.8254605      0.042737724   -0.70953225    -0.01136461   
   2568000   0.049177426   -0.82232384     0.042188914   -0.70641638     0.000162228  
   2569000   0.050308298   -0.82291435     0.04265437    -0.70484621    -0.00031805206
   2570000   0.050371565   -0.82226278     0.042297531   -0.70445665     0.0033441573 
   2571000   0.04977237    -0.8230547      0.043684178   -0.70476014     0.0056637252 
   2572000   0.051000616   -0.82218021     0.042795227   -0.70293341     0.0039738738 
   2573000   0.052912477   -0.82352104     0.040804546   -0.70339898     0.0016788639 
   2574000   0.050226662   -0.82235054     0.044241319   -0.70281783    -0.003172066  
   2575000   0.049667285   -0.82285605     0.043590769   -0.70481241     0.0020195523 
   2576000   0.049809817   -0.82411291     0.041955949   -0.70749044    -0.00020954013
   2577000   0.051179235   -0.82156901     0.040624002   -0.70422568     0.0069414519 
   2578000   0.049114246   -0.82285098     0.042049911   -0.70717723     0.0003848925 
   2579000   0.05123225    -0.82448966     0.041421964   -0.7062689     -0.0041089077 
   2580000   0.049653927   -0.8251656      0.044666048   -0.70606671    -0.011962617  
   2581000   0.049103252   -0.82309691     0.041034769   -0.70845478    -0.0024134954 
   2582000   0.049950428   -0.82325153     0.040550335   -0.7078239      0.0015524824 
   2583000   0.051280978   -0.82340596     0.042324987   -0.70420913     0.0014562177 
   2584000   0.049908836   -0.82454228     0.042558424   -0.7071689     -0.0077566578 
   2585000   0.05160418    -0.82411559     0.042826509   -0.70393275    -0.0079906974 
   2586000   0.05176512    -0.82376251     0.043614984   -0.70254995    -0.0091656026 
   2587000   0.050857976   -0.82314656     0.043980799   -0.70292801    -0.00054230471
   2588000   0.050735758   -0.82342573     0.042664572   -0.70470662     0.0010095679 
   2589000   0.051098547   -0.82422896     0.042640188   -0.7049904     -0.0052211739 
   2590000   0.048702093   -0.82258709     0.043011378   -0.70656971    -0.0034283539 
   2591000   0.05003646    -0.82377917     0.040552895   -0.70822001    -0.0044420988 
   2592000   0.049758198   -0.82311319     0.041509391   -0.70701465     0.0027790565 
   2593000   0.048589181   -0.8230745      0.043129133   -0.70710862     0.0017146242 
   2594000   0.050242888   -0.82417419     0.042625484   -0.706233      -0.0028397884 
   2595000   0.051311813   -0.82377461     0.042626414   -0.70423014    -0.0046657232 
   2596000   0.051028548   -0.82340366     0.042699628   -0.70421059     0.0053767628 
   2597000   0.049946978   -0.82391275     0.043906951   -0.70513366     0.00066660639
   2598000   0.05096832    -0.82333973     0.042996575   -0.70394        0.0019790602 
   2599000   0.049019      -0.82302534     0.042949275   -0.70659501     6.349417e-05 
   2600000   0.049684882   -0.82399676     0.043540831   -0.70597669    -0.0034177345 
   2601000   0.050483185   -0.82275566     0.042875953   -0.70420379     0.0029557538 
   2602000   0.05144011    -0.82277862     0.040135764   -0.70553247     0.0014444454 
   2603000   0.049427196   -0.82316353     0.041777014   -0.70729356     0.0033658316 
   2604000   0.052580802   -0.82191029     0.041773252   -0.70131672    -0.00068044695
   2605000   0.051962145   -0.82114732     0.042042247   -0.70121214     0.0049169155 
   2606000   0.050861875   -0.82321538     0.043049865   -0.70392193    -0.0023725617 
   2607000   0.048871286   -0.82282795     0.042521363   -0.70704695     0.0019860626 
   2608000   0.048913556   -0.82215926     0.044733076   -0.70410318     0.006948695  
   2609000   0.052001013   -0.82334471     0.043801232   -0.70159228    -0.0060622608 
   2610000   0.0492091     -0.82168251     0.04233569    -0.70558079     0.0038285834 
   2611000   0.051057287   -0.824071       0.041290423   -0.70624406    -0.0081516533 
   2612000   0.049793895   -0.82458487     0.042601653   -0.70734056    -0.004185102  
   2613000   0.049975896   -0.82194312     0.043742549   -0.70328509    -0.0033236212 
   2614000   0.051961752   -0.82305713     0.04298318    -0.70218161    -0.0041665668 
   2615000   0.052293972   -0.82378092     0.042432879   -0.70295769     0.0019101325 
   2616000   0.050945487   -0.82374357     0.043484502   -0.70389014    -0.0091070749 
   2617000   0.050820799   -0.82377093     0.044348784   -0.70324012    -0.0076957415 
   2618000   0.048778524   -0.82346313     0.043124629   -0.70721793    -0.0034382006 
   2619000   0.050884864   -0.82465402     0.042614986   -0.70576098    -0.0088447333 
   2620000   0.04966679    -0.8232526      0.041383675   -0.70741681     0.0024158379 
   2621000   0.049676119   -0.82263793     0.040386985   -0.70778484    -0.0066907001 
   2622000   0.050958695   -0.82212851     0.040648872   -0.70509091     0.0010750977 
   2623000   0.050412181   -0.82303635     0.042580982   -0.70488588    -0.0011349018 
   2624000   0.048903039   -0.82455838     0.042577246   -0.7086739     -0.010732746  
   2625000   0.049134065   -0.82289454     0.042181884   -0.70705911    -0.00063949376
   2626000   0.051205131   -0.82394921     0.042239643   -0.70495142    -0.0028479896 
   2627000   0.049002033   -0.82466993     0.043398569   -0.70781573    -0.0059955091 
   2628000   0.048338552   -0.82242732     0.043952932   -0.70601334     0.0018190179 
   2629000   0.051516073   -0.82322293     0.042787536   -0.70321113    -0.0056626468 
   2630000   0.049505855   -0.82300658     0.042081194   -0.70671451    -0.003553491  
   2631000   0.048145337   -0.82205225     0.041770246   -0.70811059    -0.0042980516 
   2632000   0.049702051   -0.8222842      0.042826295   -0.70495293     0.0063890259 
   2633000   0.05150316    -0.82307201     0.043538592   -0.70232852     0.0030247565 
   2634000   0.050365126   -0.82490899     0.04216353    -0.70724651    -0.0028560925 
   2635000   0.048444653   -0.82083676     0.042360552   -0.70585611    -0.00050662267
   2636000   0.049313062   -0.82280343     0.043136389   -0.70574517    -0.0088154969 
   2637000   0.050295339   -0.82198077     0.041473499   -0.70511294     0.0043481525 
   2638000   0.04859351    -0.82320721     0.043555855   -0.70680811    -0.004897374  
   2639000   0.051557198   -0.82246991     0.043935566   -0.70124845     0.0013559227 
   2640000   0.049915143   -0.82210978     0.043771913   -0.70351346     0.0059239683 
   2641000   0.050377389   -0.82295243     0.042783611   -0.70465149    -0.0047848793 
   2642000   0.051675471   -0.82277462     0.043475466   -0.70183595    -0.0057538396 
   2643000   0.052080524   -0.82301378     0.045907518   -0.69903588    -0.0039630541 
   2644000   0.051090168   -0.82377721     0.043003554   -0.70418785    -0.00070315151
   2645000   0.048814501   -0.82238858     0.043715646   -0.70549842     0.0013031711 
   2646000   0.050398678   -0.8210277      0.043374423   -0.70210404    -0.0078757895 
   2647000   0.048618227   -0.82227783     0.042031919   -0.70736562     0.0068208503 
   2648000   0.049370551   -0.82155021     0.041971343   -0.70557082     0.004148169  
   2649000   0.048700785   -0.82255518     0.040919286   -0.70863185    -0.0017612861 
   2650000   0.050238986   -0.82280959     0.042834015   -0.70466572     0.006111305  
   2651000   0.049833834   -0.82384724     0.044052493   -0.70509222    -0.0098556742 
   2652000   0.049471748   -0.82371172     0.043220803   -0.70633117    -0.0097862234 
   2653000   0.048626455   -0.82353909     0.043375876   -0.70727059    -0.0031712247 
   2654000   0.049890725   -0.82277849     0.04124319    -0.7067475      0.0057285863 
   2655000   0.050185459   -0.82371956     0.041887557   -0.70660239     0.0021196769 
   2656000   0.049664559   -0.82342377     0.043124623   -0.70585037    -0.0057160246 
   2657000   0.049084517   -0.82434719     0.043730928   -0.70703699     0.00065940852
   2658000   0.050960011   -0.82578818     0.043082911   -0.70631457    -0.011471928  
   2659000   0.050926658   -0.82201615     0.042435124   -0.70324032     0.0066139735 
   2660000   0.049453807   -0.82363888     0.044459316   -0.70504671    -0.0045602535 
   2661000   0.050561104   -0.82413467     0.041581851   -0.70676009    -0.0049626374 
   2662000   0.049167205   -0.82205135     0.044375795   -0.70397233    -0.0034000146 
   2663000   0.05186905    -0.82432141     0.042488378   -0.70407966    -0.0016618822 
   2664000   0.0493811     -0.82280954     0.04391011    -0.70487557     0.0016658595 
   2665000   0.050992294   -0.82442013     0.04125503    -0.706726      -0.0013730085 
   2666000   0.047938925   -0.82357786     0.042340313   -0.70937555     0.0019681777 
   2667000   0.048013985   -0.82523957     0.043038704   -0.71022635    -0.0040779728 
   2668000   0.050855847   -0.82345278     0.042995969   -0.70422226     0.0034643962 
   2669000   0.050382261   -0.82479094     0.043367477   -0.70589882    -0.0025293097 
   2670000   0.049552339   -0.82328793     0.043529517   -0.70547786     0.002129502  
   2671000   0.049493007   -0.82528395     0.043394077   -0.70769826    -0.010072129  
   2672000   0.051038319   -0.82450249     0.043713985   -0.70428042    -0.00041685031
   2673000   0.049869352   -0.82473913     0.043028094   -0.70695527    -0.0049016379 
   2674000   0.050895463   -0.82533886     0.044288169   -0.70475675     0.002672488  
   2675000   0.049524711   -0.82363433     0.044488941   -0.70490625     0.0066378636 
   2676000   0.048423224   -0.82436444     0.043036368   -0.7087401      0.00082817047
   2677000   0.050254731   -0.82443818     0.042306344   -0.70679837     0.0024174476 
   2678000   0.050330503   -0.82525454     0.043655697   -0.70615179     0.0022938576 
   2679000   0.049119511   -0.82583839     0.043083225   -0.70912344    -0.0042062511 
   2680000   0.04780074    -0.82549952     0.043347585   -0.71049708    -0.00032855334
   2681000   0.049488099   -0.82475319     0.04165785    -0.70891108    -0.0022317232 
   2682000   0.050059543   -0.82320432     0.042485419   -0.70567803     0.010174645  
   2683000   0.048945677   -0.82559344     0.043724925   -0.70849736    -0.0068151956 
   2684000   0.049654181   -0.82510152     0.043666905   -0.7070014     -0.0087001101 
   2685000   0.050553383   -0.82602604     0.042024996   -0.70821989    -0.0057127061 
   2686000   0.048466216   -0.82710414     0.043819101   -0.71063262    -0.0053425706 
   2687000   0.050808114   -0.82638623     0.042444954   -0.70777827    -0.0014464624 
   2688000   0.050058853   -0.82628457     0.042520523   -0.70872422     0.0050090519 
   2689000   0.050071817   -0.82499049     0.045090881   -0.70484034    -0.00026535922
   2690000   0.051559285   -0.82421108     0.044018158   -0.70290389     0.010348594  
   2691000   0.05108162    -0.82565286     0.043441501   -0.70563836    -0.0011195825 
   2692000   0.050972565   -0.82570983     0.045401126   -0.70389919     0.0021537195 
   2693000   0.049998895   -0.82624315     0.043294783   -0.70799841    -0.0060552161 
   2694000   0.049655705   -0.82677422     0.042105574   -0.71023314    -0.005735406  
   2695000   0.048798821   -0.82633093     0.043500707   -0.70967922     0.0016527444 
   2696000   0.052523721   -0.82611031     0.044479884   -0.70289567    -2.9893615e-05
   2697000   0.051007675   -0.82565358     0.04437154    -0.70481989    -0.0037526601 
   2698000   0.051240886   -0.82563355     0.045629055   -0.70319276     0.0034513545 
   2699000   0.050806321   -0.82480937     0.04254231    -0.70610675     0.0010304848 
   2700000   0.049707204   -0.82543635     0.042102705   -0.70882094     0.0052334347 
   2701000   0.051831043   -0.8248973      0.042385444   -0.70481545    -0.0011846789 
   2702000   0.051013329   -0.82504619     0.044983916   -0.70359164    -0.00091152585
   2703000   0.05189082    -0.82627121     0.045862962   -0.70262224    -0.0025462446 
   2704000   0.050973737   -0.82628885     0.042611545   -0.70726603    -0.0018693427 
   2705000   0.051139868   -0.82667338     0.043223765   -0.7067893     -0.0069885485 
   2706000   0.05047216    -0.82635573     0.044718241   -0.7059781     -0.0050780468 
   2707000   0.050724698   -0.82518088     0.043459268   -0.70568365    -0.0032184886 
   2708000   0.050334383   -0.82590584     0.043132228   -0.70732074    -0.0041732048 
   2709000   0.04973726    -0.82607122     0.04460877    -0.70690469    -0.0033537748 
   2710000   0.048931668   -0.82698989     0.044461358   -0.70917838    -0.0021897885 
   2711000   0.050665675   -0.82662061     0.044898644   -0.70577248    -0.0077660174 
   2712000   0.050452822   -0.8269008      0.044422048   -0.70684834     0.0013560324 
   2713000   0.049302696   -0.82502542     0.04292637    -0.70819272     0.0079805397 
   2714000   0.049461542   -0.82620208     0.043539988   -0.70851764     0.0049130376 
   2715000   0.051689122   -0.82541575     0.042517982   -0.70541411    -0.0070067893 
   2716000   0.049576547   -0.82481428     0.042700666   -0.70779677    -0.0065818669 
   2717000   0.04854843    -0.82534281     0.043764507   -0.70880265     0.004339475  
   2718000   0.050593455   -0.82652271     0.042839368   -0.70784212    -0.0084926925 
   2719000   0.049634226   -0.82484856     0.042978579   -0.70746667     0.0022051929 
   2720000   0.051004392   -0.82732111     0.043098311   -0.70776557    -0.0058685967 
   2721000   0.049799621   -0.82592061     0.042044921   -0.70922445    -0.005278064  
   2722000   0.04927669    -0.82492739     0.044478301   -0.70658174    -0.0026675924 
   2723000   0.049617883   -0.8265435      0.04629868    -0.70586601    -0.009863945  
   2724000   0.050784315   -0.82727704     0.045074814   -0.7060749     -0.0012764158 
   2725000   0.05109632    -0.82573744     0.043553696   -0.70558871    -0.00023529664
   2726000   0.05052783    -0.82525537     0.042990929   -0.70652159     0.0048029339 
   2727000   0.051887047   -0.82546823     0.043016327   -0.70467154    -0.0020865263 
   2728000   0.051683941   -0.82426833     0.040287702   -0.70650473     0.0093771815 
   2729000   0.049991771   -0.8258186      0.045422752   -0.70545657    -0.0061598039 
   2730000   0.051535534   -0.82335849     0.043233749   -0.70287131     0.0057477866 
   2731000   0.051596501   -0.82435527     0.045610552   -0.7013999     -0.0037591436 
   2732000   0.050980298   -0.82612585     0.043559347   -0.70614539    -0.0045101798 
   2733000   0.050646482   -0.82449353     0.043517169   -0.70505565     0.002144264  
   2734000   0.05093332    -0.82613594     0.046751432   -0.70303382    -0.0018993305 
   2735000   0.049153549   -0.82600723     0.04504797    -0.70727651     0.00088189276
   2736000   0.049668566   -0.82570933     0.042129287   -0.70912526     0.0045619345 
   2737000   0.048845653   -0.82502242     0.043423874   -0.70837733     0.0033746154 
   2738000   0.050198975   -0.82543668     0.043632626   -0.70655417    -8.7981762e-05
   2739000   0.050751962   -0.82565828     0.04441153    -0.70516792    -0.0072776011 
   2740000   0.050447101   -0.82478798     0.044530016   -0.70463614    -0.001482231  
   2741000   0.052572391   -0.82727389     0.044354115   -0.70411206    -0.0073361082 
   2742000   0.050239448   -0.8272256      0.047226713   -0.70468834    -0.013364078  
   2743000   0.051228985   -0.82515933     0.043868101   -0.70449732    -0.0038164121 
   2744000   0.05031017    -0.82604415     0.043365733   -0.70726185    -0.00010121163
   2745000   0.047992416   -0.82581655     0.042593696   -0.71128068     0.00091953862
   2746000   0.049332088   -0.82702331     0.04597779    -0.70709513    -0.0051867709 
   2747000   0.049947403   -0.82533212     0.043527048   -0.7069323     -0.0028013358 
   2748000   0.049800823   -0.82598079     0.044955082   -0.70637267    -0.0031384407 
   2749000   0.048571374   -0.82596094     0.044585652   -0.70856523    -0.0028400846 
   2750000   0.050543606   -0.8267136      0.046565042   -0.70438206    -0.0062844644 
   2751000   0.051903306   -0.82439268     0.043180654   -0.7034073      0.0084795738 
   2752000   0.051015795   -0.82690784     0.044804212   -0.7056293     -0.0092453553 
   2753000   0.051203186   -0.82476664     0.042288796   -0.70572262     0.0035068491 
   2754000   0.051384421   -0.8266313      0.045470724   -0.70413367    -0.0067037486 
   2755000   0.050652284   -0.82661426     0.043858421   -0.70682643    -0.0070508846 
   2756000   0.05021297    -0.825871       0.043551999   -0.70704814    -0.0098967991 
   2757000   0.049171094   -0.82707624     0.041496365   -0.71187082    -0.0075550689 
   2758000   0.050484829   -0.82556328     0.039884276   -0.71000062     0.0064518812 
   2759000   0.049522229   -0.82608752     0.043256968   -0.70859514    -0.0064609388 
   2760000   0.050290527   -0.82526605     0.043130099   -0.70674883     0.0047977914 
   2761000   0.051407817   -0.82546799     0.041147345   -0.70725867     0.00010908052
   2762000   0.050257255   -0.82562573     0.042186467   -0.70810202    -0.0027066411 
   2763000   0.050826142   -0.82615629     0.044084838   -0.70588143    -0.0011052254 
   2764000   0.050528077   -0.82639689     0.044047023   -0.70660665    -0.0032807931 
   2765000   0.049255572   -0.82614031     0.043333797   -0.70897082    -0.0015258833 
   2766000   0.048613165   -0.82579462     0.043478727   -0.70944319    -0.003489349  
   2767000   0.050848391   -0.82595072     0.046568447   -0.7031589     -0.00044520576
   2768000   0.0520541     -0.82564966     0.044467492   -0.7031514      0.0046906657 
   2769000   0.049790193   -0.82619774     0.045477296   -0.70608334    -0.0072737943 
   2770000   0.049035886   -0.82593213     0.04376536    -0.7086604     -0.00083922261
   2771000   0.050605642   -0.82707771     0.043147332   -0.70807089    -0.0062392736 
   2772000   0.049284902   -0.82421378     0.043098276   -0.70723585    -0.00062098219
   2773000   0.050128548   -0.82552906     0.044286639   -0.70609811     0.00034380879
   2774000   0.052025051   -0.82458345     0.04408752    -0.7025087      0.0038179113 
   2775000   0.051222485   -0.82411654     0.044304788   -0.7030276     -0.00081916639
   2776000   0.050607611   -0.82599182     0.041376733   -0.70875264    -0.0037452736 
   2777000   0.048285824   -0.82483133     0.04252564    -0.70992369     0.0012740377 
   2778000   0.048662438   -0.82478675     0.045556714   -0.70628347    -0.0069681386 
   2779000   0.052399399   -0.82605555     0.045117786   -0.70238938     0.00037216867
   2780000   0.050623189   -0.82436675     0.044385166   -0.70409579    -0.001922397  
   2781000   0.051802884   -0.82507501     0.044375701   -0.70304511    -0.0035457337 
   2782000   0.048790142   -0.82408985     0.043944222   -0.70700763    -0.00014811834
   2783000   0.049967149   -0.82335448     0.044630308   -0.7038218      0.0052390913 
   2784000   0.051838625   -0.82405038     0.045820023   -0.70052258    -0.0019125162 
   2785000   0.049204949   -0.82502753     0.045478071   -0.70578965     0.003917892  
   2786000   0.050293091   -0.82446453     0.045284369   -0.70378919     0.0053908799 
   2787000   0.050424908   -0.82333771     0.044738251   -0.70301089     0.005135391  
   2788000   0.051367779   -0.82396609     0.042444927   -0.7045192      0.0018508751 
   2789000   0.052178013   -0.82454904     0.045116249   -0.70121627     0.00082279926
   2790000   0.050969797   -0.82571959     0.044487348   -0.70482687    -0.0082092234 
   2791000   0.05034582    -0.82535333     0.044091627   -0.70579169    -0.0081066544 
   2792000   0.05083492    -0.82454415     0.04517688    -0.70316408    -0.0071495111 
   2793000   0.051463991   -0.82406234     0.043230071   -0.70368609    -0.0017577552 
   2794000   0.051788937   -0.82572325     0.045888857   -0.7022011     -0.0081458849 
   2795000   0.051458393   -0.82510821     0.04418952    -0.70378089     0.0057657679 
   2796000   0.049686877   -0.82550951     0.043722406   -0.70730487    -0.0016154428 
   2797000   0.048739301   -0.82639857     0.044824126   -0.70851266    -0.0039835992 
   2798000   0.05074059    -0.82418241     0.047635482   -0.70048515     0.0047960033 
   2799000   0.052448352   -0.82405871     0.046293909   -0.69914303    -0.00076540011
   2800000   0.049087414   -0.82418708     0.04431259    -0.70629087    -0.0016034251 
   2801000   0.051337481   -0.82550635     0.045726105   -0.7028237      0.0044688528 
   2802000   0.050071638   -0.82469958     0.044638649   -0.70500193    -0.0019462252 
   2803000   0.050850072   -0.82638988     0.044843771   -0.70532021    -0.0099021549 
   2804000   0.050509564   -0.82532412     0.045178227   -0.70443042    -0.004613503  
   2805000   0.050537984   -0.82422031     0.045574484   -0.70288776     0.0090928326 
   2806000   0.049124066   -0.82470878     0.044449791   -0.70662042    -0.0029499663 
   2807000   0.050332525   -0.82530241     0.045599253   -0.70425308    -0.0018671827 
   2808000   0.048512293   -0.82640191     0.044630472   -0.70904995    -0.0014598524 
   2809000   0.04903862    -0.82493038     0.044062158   -0.70735774     0.0046057523 
   2810000   0.050311544   -0.82518126     0.043394965   -0.70636767    -0.0041417405 
   2811000   0.050963795   -0.82508754     0.044011999   -0.70467917    -0.0025756188 
   2812000   0.050345127   -0.82522525     0.044170827   -0.70558546    -0.0042461236 
   2813000   0.048795276   -0.82641867     0.044874339   -0.70839864    -0.0043719915 
   2814000   0.048926148   -0.82533248     0.045216551   -0.70677406    -0.0015913768 
   2815000   0.051198266   -0.82463187     0.044953771   -0.70293025     0.00018045199
   2816000   0.050975535   -0.82598813     0.044615476   -0.70495868    -0.0050273062 
   2817000   0.049586039   -0.82467642     0.042791149   -0.7075542      0.0031570333 
   2818000   0.050522831   -0.82508728     0.043804604   -0.70554732    -0.00036634968
   2819000   0.049501082   -0.82517517     0.044530307   -0.70644115    -0.0019280855 
   2820000   0.050532499   -0.82518289     0.046061749   -0.70337129    -0.00050376076
   2821000   0.05113913    -0.82413763     0.044379744   -0.70309868     0.0058549232 
   2822000   0.051313357   -0.82434125     0.044641518   -0.70277936    -0.0044988072 
   2823000   0.049787465   -0.82577654     0.044846686   -0.70629683    -0.0033732369 
   2824000   0.049082968   -0.8237198      0.044128422   -0.70601443    -0.0027616281 
   2825000   0.050598052   -0.82707063     0.044051302   -0.70717121    -0.0078730121 
   2826000   0.050441776   -0.82688487     0.044148335   -0.70712269    -0.0077110457 
   2827000   0.047395568   -0.82294793     0.0441311     -0.70776934     0.0024082686 
   2828000   0.049816566   -0.8263618      0.045230076   -0.70645508    -0.0013563944 
   2829000   0.051897318   -0.82610949     0.043259444   -0.7050543     -0.00017828239
   2830000   0.050640454   -0.82442673     0.04706673    -0.70144833     0.0042644479 
   2831000   0.048909403   -0.82531653     0.045251312   -0.70674845    -0.0039606986 
   2832000   0.050736256   -0.82692655     0.046001677   -0.70486959     0.00063189114
   2833000   0.048481761   -0.82428399     0.044992057   -0.70661621    -6.2505727e-05
   2834000   0.051153615   -0.82540685     0.042504156   -0.70622178    -0.0027013939 
   2835000   0.049822825   -0.82564908     0.041340352   -0.70962271     0.001240054  
   2836000   0.051080377   -0.8256113      0.045273857   -0.70376631     0.0084051829 
   2837000   0.051655875   -0.82512055     0.044098257   -0.70358847     0.0110515    
   2838000   0.051271613   -0.82586653     0.044181811   -0.70482691    -0.0046716334 
   2839000   0.052754473   -0.82549968     0.044734832   -0.7016842     -0.0037424717 
   2840000   0.051499629   -0.82600156     0.043870718   -0.70493123     0.003202871  
   2841000   0.050037316   -0.82501726     0.042974289   -0.70703542    -0.0022202417 
   2842000   0.050902965   -0.82603372     0.043808872   -0.70591966    -0.0015308645 
   2843000   0.050107845   -0.82522013     0.043503992   -0.70660286    -0.0049403163 
   2844000   0.049958726   -0.82429545     0.044140883   -0.70526483    -0.00038591979
   2845000   0.048150253   -0.82522456     0.045860428   -0.70718535     0.003091281  
   2846000   0.049144905   -0.82459908     0.043056189   -0.70787309     0.0035422206 
   2847000   0.048379234   -0.82445972     0.044493147   -0.70744454    -0.0012906329 
   2848000   0.050260812   -0.82567348     0.04528737    -0.70504353    -0.0020783583 
   2849000   0.050024414   -0.82579116     0.044907872   -0.70589507    -0.0019070043 
   2850000   0.05083755    -0.82610464     0.042640136   -0.70725738    -0.0008627847 
   2851000   0.050282571   -0.82564336     0.044859231   -0.70540893    -0.0046149986 
   2852000   0.049558363   -0.82497077     0.043189398   -0.70749179     0.00067885025
   2853000   0.052354372   -0.82406887     0.043999256   -0.70158872    -0.010337241  
   2854000   0.052247779   -0.82373139     0.04487566    -0.70053463     0.0011531155 
   2855000   0.050259242   -0.82597136     0.042718009   -0.70791312     0.00069198275
   2856000   0.049591058   -0.82534913     0.043108877   -0.70790166     0.0094463644 
   2857000   0.049803115   -0.82613575     0.043752155   -0.70772711    -0.0039361078 
   2858000   0.051411103   -0.82591377     0.041808206   -0.70703867    -0.0002570551 
   2859000   0.048333106   -0.82605004     0.044761188   -0.70883597     0.0025884836 
   2860000   0.048271096   -0.82427962     0.044252902   -0.70766679    -0.0045308117 
   2861000   0.048876166   -0.82310522     0.043566568   -0.7062717      0.0052351501 
   2862000   0.051832495   -0.82401104     0.045570871   -0.70074158    -0.0013029903 
   2863000   0.051904328   -0.82618188     0.044676449   -0.70369917    -0.00062680652
   2864000   0.049076941   -0.82439378     0.043498756   -0.7073271      0.0040328633 
   2865000   0.049532343   -0.82613043     0.043854244   -0.7080256     -0.011249332  
   2866000   0.050110337   -0.82504954     0.044553145   -0.70537938    -0.0031735615 
   2867000   0.049725504   -0.82675261     0.043091454   -0.70912102     0.0027098001 
   2868000   0.049765165   -0.82508727     0.04593147    -0.70455621    -0.0042880412 
   2869000   0.049475434   -0.82554332     0.047044503   -0.70433355    -0.0092974317 
   2870000   0.04956553    -0.82580686     0.043961606   -0.70754493    -0.0030287112 
   2871000   0.047931542   -0.82498349     0.04506563    -0.70806693    -0.0018001404 
   2872000   0.049569573   -0.82396215     0.04424556    -0.70541021     0.0061713549 
   2873000   0.050918817   -0.82509319     0.043484403   -0.70527984    -0.0012972092 
   2874000   0.051770405   -0.82422684     0.045217566   -0.70140377     0.002740697  
   2875000   0.050437335   -0.82396855     0.046046061   -0.7023153      0.0036274711 
   2876000   0.050237056   -0.82673454     0.045475096   -0.70595247    -0.00043240719
   2877000   0.049924374   -0.82465538     0.044592465   -0.70522467     0.004941255  
   2878000   0.049571007   -0.82590913     0.042776087   -0.70882451    -0.0030933686 
   2879000   0.050447159   -0.82552056     0.043816391   -0.70608225     0.00027634263
   2880000   0.050098015   -0.8224506      0.044097481   -0.70325458    -0.00028626916
   2881000   0.048807535   -0.82557657     0.045153054   -0.70725945    -0.0076243106 
   2882000   0.048583933   -0.8243236      0.044184708   -0.70731001     0.00048278581
   2883000   0.050725638   -0.82541313     0.044424632   -0.70494913     0.00065795556
   2884000   0.049979258   -0.82413152     0.044596485   -0.70461452    -0.0015929355 
   2885000   0.050022318   -0.82708848     0.045336944   -0.70676647    -0.0024643332 
   2886000   0.048259833   -0.82546833     0.045070261   -0.70805502    -0.0038337412 
   2887000   0.049122962   -0.82437737     0.043730913   -0.70700955     0.0008343858 
   2888000   0.050906912   -0.82623141     0.043017195   -0.70690312    -0.0057504776 
   2889000   0.048552478   -0.82573482     0.043049178   -0.70990391    -0.0030219691 
   2890000   0.050882722   -0.82602714     0.043245037   -0.70650726     0.0036340175 
   2891000   0.047551122   -0.82557123     0.045077323   -0.70921324     0.0051520802 
   2892000   0.048825636   -0.82531229     0.045625287   -0.7064958     -0.0020293637 
   2893000   0.048666801   -0.82550025     0.045119663   -0.70742749     0.0027586845 
   2894000   0.04951407    -0.82568193     0.044192746   -0.707266      -0.0038891022 
   2895000   0.049177939   -0.82578767     0.045236189   -0.70683216    -0.0090586369 
   2896000   0.050089034   -0.8252747      0.04269232    -0.7074973     -0.0033544067 
   2897000   0.049709449   -0.82442955     0.042710141   -0.70720334    -0.0030804005 
   2898000   0.049621152   -0.82474994     0.041646314   -0.70871991     0.0044405332 
   2899000   0.049561039   -0.82644734     0.041155705   -0.71099804    -0.0047950496 
   2900000   0.048254659   -0.82689182     0.042061057   -0.71249547    -0.0056749242 
   2901000   0.049587258   -0.8265823      0.04401848    -0.70823092    -0.0031743794 
   2902000   0.049246641   -0.82547872     0.046330661   -0.70532576     0.0023693088 
   2903000   0.049277183   -0.82479663     0.044953495   -0.70597505    -0.0015101245 
   2904000   0.050333245   -0.82588469     0.044610589   -0.70582295    -0.0017379512 
   2905000   0.050683961   -0.82552523     0.043433139   -0.7061152     -0.0026171745 
   2906000   0.051991133   -0.82363822     0.043769206   -0.70193263     0.00079520896
   2907000   0.050147696   -0.82477861     0.043493231   -0.70611236    -0.0042485107 
   2908000   0.048799238   -0.82376335     0.043731294   -0.70688042     0.0052120401 
   2909000   0.051272189   -0.82676379     0.044767338   -0.70513778    -0.010512131  
   2910000   0.049109734   -0.82433411     0.04620784    -0.7045092     -0.0016066148 
   2911000   0.0511699     -0.82587208     0.044943961   -0.70422279     0.0035760459 
   2912000   0.049271114   -0.82650697     0.046213074   -0.70643491    -0.0054043352 
   2913000   0.051682467   -0.82553032     0.043054873   -0.70500176     0.0047476315 
   2914000   0.049506764   -0.82636493     0.044327727   -0.70782497    -0.0063191145 
   2915000   0.049220563   -0.82587806     0.045470401   -0.70662445     0.0020785925 
   2916000   0.048193589   -0.82586981     0.044685843   -0.70894022    -0.0028397048 
   2917000   0.049505943   -0.82538629     0.045029436   -0.70614585    -0.0010197179 
   2918000   0.048445888   -0.82575422     0.043490231   -0.70964204    -0.0056850073 
   2919000   0.050668081   -0.82495378     0.043468024   -0.70553267    -0.0024801586 
   2920000   0.049670679   -0.82594742     0.044898833   -0.70659063    -0.012718797  
   2921000   0.051090274   -0.82518075     0.043483778   -0.70511101     0.0029632842 
   2922000   0.049111625   -0.82529099     0.045107117   -0.70656396    -0.0067762406 
   2923000   0.050793157   -0.82652885     0.043835754   -0.70655251     0.0018392322 
   2924000   0.049623145   -0.82636343     0.04648204    -0.7054947     -0.0052593657 
   2925000   0.050627003   -0.82534111     0.045523707   -0.70392589     0.00093055518
   2926000   0.050591397   -0.82502716     0.044479025   -0.70471        0.0027884235 
   2927000   0.051463114   -0.82592178     0.044147545   -0.70462937     0.00032478162
   2928000   0.050249804   -0.82562324     0.045634401   -0.70466276    -0.0064621046 
   2929000   0.049996102   -0.82508043     0.044724152   -0.70541051     0.00080083066
   2930000   0.050867442   -0.82522449     0.044890854   -0.7040817     -0.0014738598 
   2931000   0.048269285   -0.82598793     0.043104541   -0.71052617     0.0014834035 
   2932000   0.049335193   -0.82644782     0.0422721     -0.71022067     0.0015032164 
   2933000   0.047707756   -0.82413617     0.044589091   -0.70803161    -0.0031546939 
   2934000   0.051346908   -0.82630141     0.044729024   -0.70460172    -0.01047119   
   2935000   0.05089604    -0.82479731     0.045757249   -0.70274526     0.00078411884
   2936000   0.051060973   -0.82513498     0.04345076    -0.70514217     0.0013773052 
   2937000   0.049152146   -0.824755       0.044702484   -0.70637186     0.0055931042 
   2938000   0.048738121   -0.82517607     0.045660251   -0.7064558     -0.0052430101 
   2939000   0.049167972   -0.82542581     0.045090194   -0.70663124     0.0032371895 
   2940000   0.049090555   -0.82595012     0.043779021   -0.70858277    -0.0035352364 
   2941000   0.049867098   -0.82565415     0.043679406   -0.70722236     0.0044759999 
   2942000   0.048776959   -0.82469547     0.047294529   -0.70428271    -0.0039154694 
   2943000   0.050904927   -0.82455351     0.043994386   -0.704251      -0.0024781414 
   2944000   0.050522395   -0.82350543     0.045825165   -0.70194556     0.00086454381
   2945000   0.05057755    -0.82516847     0.046337132   -0.70301395    -0.0059838871 
   2946000   0.049036017   -0.8246344      0.043722288   -0.70740554     0.00079786765
   2947000   0.049072424   -0.82275401     0.04354023    -0.70565264     0.0060116692 
   2948000   0.04939927    -0.82379037     0.042965394   -0.70677387    -0.0062846493 
   2949000   0.049413373   -0.82365616     0.043252559   -0.70633136    -0.0033619055 
   2950000   0.050462757   -0.82378326     0.044143766   -0.70399419    -0.0028917766 
   2951000   0.048575382   -0.82581337     0.045742059   -0.70725524    -0.010472813  
   2952000   0.050039359   -0.82423317     0.043655889   -0.70556666    -0.00049677185
   2953000   0.048699502   -0.82434609     0.043667947   -0.70767602     0.001560676  
   2954000   0.049802      -0.82381762     0.043567976   -0.70559484     0.010077829  
   2955000   0.052101915   -0.82368289     0.043044213   -0.70253623     1.1131987e-05
   2956000   0.05033365    -0.82473524     0.044500353   -0.70478312    -0.010934114  
   2957000   0.051539148   -0.82431177     0.044887036   -0.70216589     0.0015559048 
   2958000   0.051310287   -0.82506854     0.046055626   -0.70209714     0.0021527997 
   2959000   0.051320273   -0.82502338     0.044544586   -0.70354805    -0.00082130174
   2960000   0.050625696   -0.82574403     0.046181402   -0.70367308    -0.0063185526 
   2961000   0.051340084   -0.82414057     0.044841246   -0.70233889     0.0026383026 
   2962000   0.050199931   -0.82412056     0.045676331   -0.70319292    -0.0036121316 
   2963000   0.050004406   -0.82467483     0.043795416   -0.70592119    -0.00080408751
   2964000   0.04941462    -0.82341864     0.045706017   -0.70363851    -0.004781577  
   2965000   0.052518112   -0.82441069     0.044321064   -0.70136328     8.2863984e-05
   2966000   0.050202822   -0.82591869     0.046705974   -0.70395707    -0.0015198075 
   2967000   0.050925105   -0.82378572     0.044701654   -0.70274569     0.0028937864 
   2968000   0.049770609   -0.82289698     0.044495596   -0.70379364    -0.0010154924 
   2969000   0.051083654   -0.82329487     0.042748388   -0.70397044    -0.00041708773
   2970000   0.04982857    -0.82484697     0.043953061   -0.70619927    -0.00059822212
   2971000   0.051191135   -0.82437953     0.044627384   -0.70301498    -0.0011617921 
   2972000   0.049050967   -0.82443468     0.044941021   -0.70596468     0.00052789331
   2973000   0.049961329   -0.82450459     0.0441358     -0.70547515    -0.0020039905 
   2974000   0.051905544   -0.82509076     0.043851368   -0.70343131    -0.00085697552
   2975000   0.050539612   -0.82473571     0.04634263    -0.70263257     0.0035847168 
   2976000   0.049432089   -0.82360957     0.044788888   -0.70472039     0.0020098237 
   2977000   0.049716094   -0.82323013     0.044133228   -0.70457087     0.005632199  
   2978000   0.049175973   -0.82507874     0.046074157   -0.70528822    -0.0090688283 
   2979000   0.049929325   -0.82362243     0.044248204   -0.70452855     0.004118444  
   2980000   0.050720884   -0.82509256     0.045895169   -0.70316515    -0.0037500672 
   2981000   0.049248105   -0.8236332      0.044998613   -0.70481008     0.002419198  
   2982000   0.052227573   -0.82579315     0.044537017   -0.70296531     0.0010222885 
   2983000   0.048640119   -0.82324739     0.044910631   -0.70542365     0.0022031865 
   2984000   0.050416066   -0.82535245     0.043683979   -0.70609316    -0.0019430929 
   2985000   0.051340505   -0.82330035     0.044102166   -0.70223711     0.004546918  
   2986000   0.050213197   -0.82419128     0.04409407    -0.70482601    -0.002310366  
   2987000   0.050122883   -0.8241156      0.045440937   -0.70353884    -0.002904677  
   2988000   0.050150354   -0.82422478     0.045553097   -0.70349469    -0.004088428  
   2989000   0.047531958   -0.82382797     0.042792565   -0.70978346     0.0013183744 
   2990000   0.048084286   -0.82386113     0.042345318   -0.70943591     0.0075004225 
   2991000   0.048875862   -0.82399603     0.043458823   -0.70727071     0.0038954947 
   2992000   0.049785395   -0.82537451     0.04516285    -0.70558174    -0.0076893347 
   2993000   0.05105644    -0.82367503     0.045843641   -0.70129614     0.0062262824 
   2994000   0.049248517   -0.82398312     0.044128729   -0.70602928    -0.001690414  
   2995000   0.05110334    -0.82419024     0.043975354   -0.70360933    -0.0069015331 
   2996000   0.049937369   -0.82377232     0.046206421   -0.70270817     0.001036102  
   2997000   0.050122853   -0.82329197     0.045121157   -0.70303504     0.0065325085 
   2998000   0.050522496   -0.8245206      0.045356171   -0.70342958     0.0058914471 
   2999000   0.049755253   -0.82337644     0.047036807   -0.7017549     -0.002233482  
   3000000   0.05177361    -0.82412299     0.046058989   -0.70045369    -0.0018025753 
   3001000   0.049059144   -0.82540885     0.044248697   -0.70761892    -0.0062498706 
   3002000   0.049185505   -0.82456163     0.046522012   -0.70430896    -0.006983483  
   3003000   0.050096962   -0.82467883     0.046670791   -0.70291107    -0.0026243153 
   3004000   0.04988949    -0.82392307     0.044640479   -0.70449663     0.00029878018
   3005000   0.051031895   -0.82497031     0.042181253   -0.7062906      0.0013946684 
   3006000   0.050065564   -0.82439489     0.04510106    -0.70424393    -0.0042269074 
   3007000   0.050677537   -0.8257505      0.044470249   -0.70531298    -0.0084605649 
   3008000   0.048824265   -0.82541312     0.044617275   -0.70760669     0.00097138042
   3009000   0.051208005   -0.82423387     0.044661617   -0.70280981    -0.0013097785 
   3010000   0.048716813   -0.82424748     0.044024381   -0.70719502    -0.0037502417 
   3011000   0.049905566   -0.82445444     0.045355493   -0.7042889     -0.0040711147 
   3012000   0.050508892   -0.82579494     0.047726353   -0.70235413    -0.0062430696 
   3013000   0.051656019   -0.82374124     0.045721749   -0.70058545     0.0039712585 
   3014000   0.049116296   -0.82302865     0.04438704    -0.7050147     -0.001318832  
   3015000   0.048864582   -0.82421091     0.043836913   -0.70712441     0.0015955651 
   3016000   0.050176864   -0.82441858     0.044557073   -0.70464477    -0.010673314  
   3017000   0.049395463   -0.82385462     0.0436528     -0.70615643     0.00047074047
   3018000   0.049153613   -0.82388653     0.044233253   -0.70597042    -0.0044572491 
   3019000   0.050094667   -0.82481152     0.042699626   -0.70701837     0.0053740128 
   3020000   0.050232425   -0.82499451     0.042386038   -0.70730845     0.0057600403 
   3021000   0.05052903    -0.82600284     0.0455561     -0.7047021     -0.003320524  
   3022000   0.049485543   -0.82588988     0.044913329   -0.70679612     3.4440578e-05
   3023000   0.048314612   -0.8238589      0.045073866   -0.70635987     0.0031278061 
   3024000   0.049614194   -0.82548331     0.042896808   -0.70821322     0.0053327929 
   3025000   0.049320794   -0.8252069      0.044025571   -0.70724787    -0.0082112256 
   3026000   0.047896767   -0.82347064     0.043833214   -0.70783863     0.0072955715 
   3027000   0.049014186   -0.82503556     0.04441464    -0.70714707    -0.0027031194 
   3028000   0.050052446   -0.82340323     0.0448469     -0.7035261      0.0043345722 
   3029000   0.049485901   -0.82453632     0.043889316   -0.70646604    -0.00046324825
   3030000   0.049787579   -0.82589286     0.045994304   -0.70526537    -0.0027123214 
   3031000   0.05034454    -0.82486911     0.042978536   -0.70642248    -0.0048745598 
   3032000   0.048811279   -0.82488122     0.045227175   -0.70648436     0.0042904592 
   3033000   0.051059302   -0.827569       0.048006709   -0.70302275    -0.004440051  
   3034000   0.048737392   -0.82544976     0.045169586   -0.70722125     0.0038456717 
   3035000   0.048500661   -0.82633199     0.045280029   -0.70834791    -0.00065483935
   3036000   0.050137668   -0.82628323     0.043551255   -0.707574       0.0073782451 
   3037000   0.049626465   -0.82674893     0.043876193   -0.70848107     0.0012052975 
   3038000   0.049198705   -0.82783154     0.043742689   -0.7103384     -0.0019836797 
   3039000   0.051459215   -0.82542419     0.041414749   -0.70687042    -0.0030736363 
   3040000   0.048907656   -0.82578267     0.04414343    -0.70832509     0.0018027991 
   3041000   0.049988726   -0.82590127     0.044523529   -0.70644303     0.0060838306 
   3042000   0.05066719    -0.82655343     0.044068831   -0.70653285    -0.0036896075 
   3043000   0.050747838   -0.82642813     0.043841447   -0.70651403    -0.0082176158 
   3044000   0.050720553   -0.8251681      0.04446901    -0.70466735    -0.00069922064
   3045000   0.050248504   -0.82644498     0.043789461   -0.70733139    -0.00084021285
   3046000   0.050555797   -0.82640438     0.044610153   -0.70600946    -0.0016975638 
   3047000   0.04944288    -0.82469098     0.044186829   -0.70638768     2.2313122e-05
   3048000   0.050743488   -0.82525555     0.044150142   -0.70503928     0.0015658655 
   3049000   0.050996387   -0.8268005      0.045703658   -0.70465161    -0.003730419  
   3050000   0.050039538   -0.82593466     0.044845861   -0.70607791    -0.00083809029
   3051000   0.049876243   -0.82545754     0.045617502   -0.70507394    -0.0009696686 
   3052000   0.049768648   -0.82580546     0.044055049   -0.7071456     -0.0047997902 
   3053000   0.051412983   -0.82400934     0.044885851   -0.70205376     0.0078666609 
   3054000   0.049885555   -0.82639741     0.046071044   -0.70554631    -0.0016162035 
   3055000   0.050091771   -0.82491796     0.044511295   -0.70531748     0.0060744843 
   3056000   0.048363248   -0.82693229     0.047375895   -0.70705833    -0.0045749846 
   3057000   0.048344547   -0.82581443     0.04385503    -0.70948937     0.0072687233 
   3058000   0.04783046    -0.82601693     0.043664665   -0.71065286     0.00089168743
   3059000   0.048865072   -0.8264661      0.045195847   -0.70801993     0.0012836841 
   3060000   0.050438249   -0.82494202     0.044940445   -0.70439301     0.0011827265 
   3061000   0.04904818    -0.82536336     0.045857072   -0.70598148     0.0032127445 
   3062000   0.049969123   -0.82661069     0.046626878   -0.70507849     0.0013083363 
   3063000   0.051083257   -0.82618284     0.043916339   -0.70569105    -0.0029629338 
   3064000   0.049546619   -0.8267399      0.044525804   -0.70794211    -0.00086479556
   3065000   0.049415857   -0.82629561     0.042688507   -0.70953114    -0.0014108277 
   3066000   0.05074941    -0.82726551     0.044973531   -0.70621698    -0.0080747523 
   3067000   0.051769852   -0.82433768     0.046079687   -0.70065332     0.0012684141 
   3068000   0.051581121   -0.82550601     0.047385806   -0.70079844     0.0015505952 
   3069000   0.049748813   -0.82738355     0.048270121   -0.70453836    -0.00038220456
   3070000   0.051232682   -0.82597648     0.044407159   -0.70476987    -0.001614089  
   3071000   0.051904641   -0.82397769     0.044674788   -0.70149617    -0.0031639355 
   3072000   0.05009701    -0.82576625     0.044956855   -0.70571236     0.0050364916 
   3073000   0.050768457   -0.82367151     0.046107778   -0.70146017     0.00079727598
   3074000   0.049855526   -0.82815806     0.047553177   -0.70586984    -0.0019478632 
   3075000   0.049674613   -0.82686799     0.044735119   -0.70766902    -0.0016047457 
   3076000   0.049242048   -0.82684462     0.046462937   -0.70656627    -0.0011395365 
   3077000   0.049520971   -0.82375134     0.044008927   -0.70550888     0.0068944865 
   3078000   0.049218505   -0.82559252     0.046256174   -0.70555622     0.0017416496 
   3079000   0.051521523   -0.82485165     0.044723465   -0.70289576     0.0096588155 
   3080000   0.051871748   -0.82580019     0.045294539   -0.70274822    -0.0011527152 
   3081000   0.05060459    -0.82721955     0.044372219   -0.70698942    -0.0057099548 
   3082000   0.050939804   -0.82685801     0.045190353   -0.70530725    -0.003271836  
   3083000   0.051035147   -0.82889648     0.046803545   -0.7055896     -0.012313552  
   3084000   0.051106443   -0.82663611     0.045802349   -0.70422356     0.0012254438 
   3085000   0.051648154   -0.8270582      0.045141544   -0.70449441    -0.0051999522 
   3086000   0.052181634   -0.82601101     0.043190101   -0.70459896     0.0018265834 
   3087000   0.050256895   -0.82760029     0.043380725   -0.70888286    -0.0032250727 
   3088000   0.049274473   -0.82695237     0.04276906    -0.71031928     0.0044700775 
   3089000   0.048670228   -0.82776809     0.044224725   -0.71058513     0.0030895587 
   3090000   0.048820683   -0.82982646     0.045278337   -0.71136434    -0.0072869835 
   3091000   0.048997099   -0.82517084     0.045025564   -0.70669705     0.001117208  
   3092000   0.050039785   -0.82793033     0.044676004   -0.70824307     0.0043982455 
   3093000   0.050112137   -0.82668582     0.043230189   -0.70833593    -0.0025471851 
   3094000   0.05109217    -0.82603196     0.044473888   -0.70496927     0.0072017289 
   3095000   0.049804554   -0.82565914     0.044978891   -0.70602162     0.0028325613 
   3096000   0.04976106    -0.82542659     0.046481715   -0.70435144     0.00034857803
   3097000   0.05013755    -0.82690909     0.045556591   -0.7061947      0.00045260935
   3098000   0.050591735   -0.8274096      0.045793575   -0.70577738    -0.0066764377 
   3099000   0.049535686   -0.82737245     0.044901472   -0.70821538     0.00062736942
   3100000   0.049030665   -0.82672172     0.045035948   -0.70818722     0.0015060944 
   3101000   0.049944993   -0.8273777      0.045620711   -0.70688784     0.00049825937
   3102000   0.050225658   -0.82635733     0.04514011    -0.70592734    -0.0028860087 
   3103000   0.051064501   -0.82649784     0.045786511   -0.70416399    -0.0028042395 
   3104000   0.050940847   -0.82709156     0.046277334   -0.70445226    -0.0023334438 
   3105000   0.050882663   -0.82542839     0.04652284    -0.70263079     0.0065437059 
   3106000   0.050697276   -0.82699826     0.045575422   -0.70542598    -0.0074652105 
   3107000   0.051161941   -0.82625113     0.04384699    -0.70571074     0.0025244628 
   3108000   0.050215094   -0.82575878     0.043219026   -0.70726571     0.0047294317 
   3109000   0.050496954   -0.82556136     0.045206809   -0.70465799     0.00095281523
   3110000   0.051908069   -0.82676087     0.043646585   -0.70530241    -0.0018692299 
   3111000   0.050723145   -0.82596645     0.045266291   -0.70466453    -0.0014174235 
   3112000   0.050067999   -0.82570156     0.045821641   -0.70482638     0.0040985931 
   3113000   0.049806242   -0.82696394     0.044664557   -0.70763822    -0.0014570401 
   3114000   0.051478842   -0.82696283     0.044453411   -0.70534098     0.015823459  
   3115000   0.048445299   -0.82715021     0.045180917   -0.70934822    -0.0066485218 
   3116000   0.050035399   -0.82754154     0.0424387     -0.71009817    -0.0031002463 
   3117000   0.049991645   -0.82633123     0.042533124   -0.70885902     0.003417362  
   3118000   0.050447244   -0.82754383     0.04395977    -0.70796202     0.0029064915 
   3119000   0.050376543   -0.82781234     0.044526837   -0.70776944    -0.0016728779 
   3120000   0.048757202   -0.8273146      0.045868097   -0.70835789     0.0013667687 
   3121000   0.050644423   -0.82753515     0.043689465   -0.70792806     0.0070239832 
   3122000   0.0503265     -0.82661788     0.04456563    -0.70661121    -0.0015969084 
   3123000   0.049406567   -0.82779407     0.045642065   -0.70808997    -0.0035304664 
   3124000   0.051053978   -0.82842239     0.047396037   -0.7044948      0.0083320183 
   3125000   0.050195702   -0.82727875     0.045212832   -0.70682094    -0.0031823541 
   3126000   0.0495653     -0.82810484     0.04368721    -0.71011764    -0.001730285  
   3127000   0.049678377   -0.82730966     0.044997013   -0.70784315    -0.00060085693
   3128000   0.04949758    -0.82677766     0.044353076   -0.70822612    -0.00083771387
   3129000   0.049093326   -0.82687264     0.045200187   -0.70807997    -0.00082937355
   3130000   0.049674706   -0.82555803     0.046038763   -0.70505528     0.0045392082 
   3131000   0.052174764   -0.82868105     0.046329823   -0.70413957    -0.010621507  
   3132000   0.048964852   -0.82698119     0.04290933    -0.71067197     0.002196024  
   3133000   0.050641475   -0.8276783      0.04252424    -0.70924086    -0.0090215706 
   3134000   0.050594613   -0.82742316     0.046237778   -0.70534242    -0.0018536773 
   3135000   0.049023147   -0.8267592      0.044194382   -0.70907754     0.0028566582 
   3136000   0.0495613     -0.82671398     0.044029051   -0.70839094     0.0035687141 
   3137000   0.050561593   -0.82757671     0.045934989   -0.70584826    -0.0081763622 
   3138000   0.050971739   -0.82758895     0.04656197    -0.7046187     -0.0016630327 
   3139000   0.050420599   -0.82687532     0.045906174   -0.70538704    -0.0043903955 
   3140000   0.049597695   -0.82684886     0.044293877   -0.70820643     0.00055929267
   3141000   0.049212167   -0.82573226     0.04628999    -0.70567164     0.0076452513 
   3142000   0.049436351   -0.82854863     0.044735567   -0.70970638    -0.0058844643 
   3143000   0.050153338   -0.82589786     0.047079317   -0.70363707     0.0041822164 
   3144000   0.051461009   -0.82743624     0.04578245    -0.70451207     0.00030699183
   3145000   0.051362292   -0.82603618     0.045518664   -0.70352378     0.00016904281
   3146000   0.048400326   -0.82629462     0.046543144   -0.70719783     0.00095211464
   3147000   0.049536878   -0.82630944     0.045998797   -0.70605327    -0.0028625174 
   3148000   0.050664814   -0.8274913      0.045649146   -0.70589397    -0.0097700031 
   3149000   0.050449493   -0.82596644     0.045884841   -0.70445618    -0.0011323512 
   3150000   0.050927132   -0.8274553      0.047606175   -0.70350771     0.0067936748 
   3151000   0.050546292   -0.82689453     0.045332962   -0.70579104    -0.0022484956 
   3152000   0.05202331    -0.82657291     0.045417309   -0.70317098    -0.00090690552
   3153000   0.050080499   -0.82736118     0.046764647   -0.70552425    -0.0046882232 
   3154000   0.049866318   -0.82699421     0.045288117   -0.70695487    -0.00065770845
   3155000   0.048877502   -0.82722525     0.046334912   -0.70762138    -0.0028061995 
   3156000   0.052968757   -0.82817243     0.044450855   -0.7043197     -0.0085778743 
   3157000   0.049090186   -0.82812034     0.049157129   -0.70537544     0.00069141651
   3158000   0.049813957   -0.82861797     0.046815407   -0.70712983    -0.0059203726 
   3159000   0.050095832   -0.82704929     0.046322133   -0.70563189     0.0010328125 
   3160000   0.05024449    -0.82688675     0.046886106   -0.70468253    -0.005099521  
   3161000   0.050039706   -0.82692706     0.045628242   -0.70628768    -0.0072833715 
   3162000   0.050119211   -0.82696986     0.044949454   -0.70689009    -0.00029198828
   3163000   0.050013049   -0.82751064     0.045431504   -0.70710796    -0.0022380068 
   3164000   0.049918014   -0.82741271     0.044286061   -0.70829793     0.00081526468
   3165000   0.047788349   -0.82904164     0.045827841   -0.71157753    -0.0042241272 
   3166000   0.050142086   -0.82641368     0.043540693   -0.70770838    -0.0015365362 
   3167000   0.051436524   -0.82618751     0.045711524   -0.70337097     0.00020916551
   3168000   0.04916373    -0.82644961     0.045476988   -0.7072746     -0.0011793565 
   3169000   0.049982569   -0.82665509     0.044497521   -0.70723209     0.00074996445
   3170000   0.049223296   -0.82705796     0.045545322   -0.70772533    -0.0029179219 
   3171000   0.05076212    -0.82674835     0.046877007   -0.70377729    -0.0034386633 
   3172000   0.050847765   -0.82716943     0.045665764   -0.70528122     0.0036826009 
   3173000   0.050016564   -0.82575982     0.046117089   -0.70466629     0.0042996811 
   3174000   0.051129891   -0.82651888     0.044597543   -0.70527598     0.0043385535 
   3175000   0.051424583   -0.82666343     0.047549263   -0.70202706    -0.0019117764 
   3176000   0.049113566   -0.82553967     0.044639042   -0.70727781     0.0056719518 
   3177000   0.051818341   -0.82688978     0.045191822   -0.70402059    -0.0092379529 
   3178000   0.049068255   -0.82646575     0.047497345   -0.7054135      0.0046751639 
   3179000   0.048807345   -0.82584071     0.045289103   -0.70738782    -0.0017338861 
   3180000   0.050905196   -0.82590761     0.043881571   -0.70571751    -0.00025168204
   3181000   0.048204813   -0.82656503     0.04332883    -0.71097563    -0.009613069  
   3182000   0.050110386   -0.82496309     0.044161318   -0.70568468     0.0057205084 
   3183000   0.051026127   -0.82667984     0.045311855   -0.70487817    -0.0039295671 
   3184000   0.048619015   -0.82740516     0.047496486   -0.7070272     -0.0042211657 
   3185000   0.049268107   -0.82676952     0.044353578   -0.70856147     0.0029229437 
   3186000   0.048965977   -0.82555852     0.047079465   -0.70507747     0.0025840784 
   3187000   0.049863016   -0.82430857     0.04579881    -0.70376349     0.0081727696 
   3188000   0.047933667   -0.826657       0.045943286   -0.7088596     -0.0070872875 
   3189000   0.050975262   -0.82745434     0.045426317   -0.70561446     0.0011106946 
   3190000   0.050256927   -0.82511438     0.045203914   -0.70457371    -0.0016850672 
   3191000   0.049039491   -0.82535082     0.044315224   -0.70752382     0.0018356588 
   3192000   0.050167731   -0.82674498     0.046572879   -0.70496906    -5.6984942e-05
   3193000   0.050731349   -0.82597269     0.046049225   -0.70387553     0.0027301305 
   3194000   0.05011902    -0.82607212     0.045553823   -0.70538826    -0.0048322836 
   3195000   0.048598756   -0.82609282     0.043725226   -0.70951649     0.00029288523
   3196000   0.049019298   -0.82603108     0.045535331   -0.70701424     0.00097203613
   3197000   0.051924353   -0.82609007     0.04554983    -0.70270396     0.0025581808 
   3198000   0.051531285   -0.82617924     0.045648401   -0.70328379    -0.0053620464 
   3199000   0.051142741   -0.82359853     0.045061193   -0.70187272    -0.0067119074 
   3200000   0.050266067   -0.82509077     0.045820638   -0.70391967     0.0011944379 
   3201000   0.051079927   -0.82645935     0.04677257    -0.70311632    -0.0029305112 
   3202000   0.049962461   -0.82573059     0.045501986   -0.70533327    -0.0029670076 
   3203000   0.050261147   -0.82532722     0.044235861   -0.70574827     0.00099940923
   3204000   0.04964654    -0.82590263     0.044219471   -0.7072614      7.0738073e-05
   3205000   0.05097728    -0.82637872     0.046202635   -0.7037595     -0.0031925722 
   3206000   0.049328008   -0.82627589     0.04686804    -0.70546358    -0.001451338  
   3207000   0.050092789   -0.82671646     0.047034806   -0.70459095    -0.0028463299 
   3208000   0.049816841   -0.82544816     0.046968584   -0.70380252     0.0023152812 
   3209000   0.04855315    -0.82682887     0.047369446   -0.70667669    -0.0046628353 
   3210000   0.051189321   -0.82684135     0.04491206    -0.70519485    -0.00052802483
   3211000   0.049631679   -0.82531879     0.046424985   -0.70449431    -0.0036218247 
   3212000   0.051041041   -0.82680534     0.04654553    -0.70374764    -0.011271569  
   3213000   0.04862371    -0.82407768     0.045650893   -0.70553828     0.00017549896
   3214000   0.050349721   -0.82500299     0.044856335   -0.7046708      0.0042369429 
   3215000   0.049675476   -0.82750369     0.04805482    -0.70498373    -0.0086182936 
   3216000   0.049517113   -0.8258661      0.04432706    -0.70731129    -0.0011508284 
   3217000   0.050452917   -0.82555671     0.044546939   -0.70537922    -0.0024065605 
   3218000   0.051650299   -0.82503963     0.04462718    -0.70298699     0.0024605461 
   3219000   0.051677072   -0.82709109     0.043882515   -0.70574298    -0.0021336674 
   3220000   0.050934154   -0.82587868     0.046783949   -0.70274279     0.00012765799
   3221000   0.049597908   -0.82691827     0.045797857   -0.70677155    -0.0056857917 
   3222000   0.047858545   -0.82537129     0.046092141   -0.70753764    -0.0033597978 
   3223000   0.048576552   -0.82673647     0.04507983    -0.70883882    -0.0013982393 
   3224000   0.049338083   -0.82530559     0.043590661   -0.70775556     0.0035910382 
   3225000   0.051278655   -0.82673666     0.045490826   -0.70437747     0.00014434648
   3226000   0.049156763   -0.82701141     0.047020253   -0.70630358    -0.0027661131 
   3227000   0.051547008   -0.82723627     0.045590103   -0.70437554    -0.0030369006 
   3228000   0.051009631   -0.82533191     0.045320778   -0.70354605    -0.0026443503 
   3229000   0.048090008   -0.82505764     0.0455109     -0.70745827    -0.0037372814 
   3230000   0.05049062    -0.82599498     0.045546702   -0.70476121     0.0034608707 
   3231000   0.050010421   -0.82496577     0.041893455   -0.70810508    -0.0044652492 
   3232000   0.050702752   -0.82605237     0.044966865   -0.70508045    -0.0058551441 
   3233000   0.049343802   -0.82732333     0.046197305   -0.70715807    -0.0013324563 
   3234000   0.049855672   -0.82698677     0.046387956   -0.70586355    -0.0079864251 
   3235000   0.050434682   -0.82525705     0.046527276   -0.70312656     0.0028896794 
   3236000   0.050803857   -0.82639616     0.044509045   -0.7057305     -0.004800249  
   3237000   0.050404471   -0.82619784     0.044920069   -0.70571985    -0.0026764026 
   3238000   0.05062131    -0.82468062     0.044873772   -0.70392387     0.0031671843 
   3239000   0.049735186   -0.82494435     0.045708665   -0.70468104     0.0031229137 
   3240000   0.050937558   -0.82608705     0.047517982   -0.70221203    -0.0019460265 
   3241000   0.050506342   -0.82501651     0.04590023    -0.70340565     0.00040161699
   3242000   0.049691271   -0.82701575     0.046683177   -0.70584375    -0.0077078307 
   3243000   0.049805964   -0.82545236     0.044903982   -0.70588763    -0.0025520641 
   3244000   0.048677228   -0.8254646      0.047435732   -0.70506013    -0.0018945741 
   3245000   0.050695355   -0.82642577     0.043827154   -0.70660464    -0.0013612778 
   3246000   0.04954304    -0.82622892     0.044818977   -0.70714333    -0.0024281965 
   3247000   0.048871495   -0.82494608     0.043343036   -0.7083431     -9.8944422e-05
   3248000   0.048681796   -0.82644357     0.044267345   -0.70920065    -0.0038409683 
   3249000   0.048826958   -0.82638281     0.046065794   -0.70712383    -0.0023429334 
   3250000   0.05148619    -0.82621515     0.044680011   -0.70435568    -0.0020877722 
   3251000   0.050168362   -0.82634775     0.046018995   -0.70512476    -0.0028355905 
   3252000   0.048251451   -0.82530384     0.04526564    -0.70770772    -0.0017870609 
   3253000   0.048631901   -0.82405718     0.04715401    -0.70400238     0.0046375841 
   3254000   0.04937199    -0.8253105      0.045754106   -0.70554619    -0.0025754206 
   3255000   0.04906269    -0.82639212     0.046898223   -0.70594734    -0.002577476  
   3256000   0.050351846   -0.82685456     0.045961027   -0.70541449    -0.0028324083 
   3257000   0.048921572   -0.82513339     0.044754748   -0.70704362     0.0055758999 
   3258000   0.048458799   -0.82667402     0.04606327    -0.70796945    -0.00095239539
   3259000   0.049894197   -0.82567173     0.04639006    -0.70448866    -0.00077240448
   3260000   0.049785442   -0.82544725     0.046309196   -0.70450807     0.0022782601 
   3261000   0.050876868   -0.82549817     0.046375641   -0.70285646     0.00061642432
   3262000   0.049603503   -0.8266066      0.046774394   -0.70547495    -0.0028188995 
   3263000   0.050837816   -0.82578787     0.046492356   -0.70308799    -0.0031578635 
   3264000   0.049267518   -0.8252625      0.045613198   -0.7057957      0.00089703322
   3265000   0.050044298   -0.82530745     0.046124621   -0.70416481    -0.00097658343
   3266000   0.048326702   -0.82527119     0.046881181   -0.70594673    -0.0016640177 
   3267000   0.04973476    -0.8256531      0.047631617   -0.70346748     0.001951425  
   3268000   0.050684385   -0.82463082     0.047254089   -0.7013992     -0.0032780882 
   3269000   0.050708532   -0.82451224     0.043698184   -0.70480033    -0.0018794109 
   3270000   0.049759058   -0.82446486     0.043958063   -0.70591637     0.0020376025 
   3271000   0.052323889   -0.82595706     0.046461083   -0.70106078    -0.0072632579 
   3272000   0.05113351    -0.82521724     0.045491477   -0.70307499     0.0078952242 
   3273000   0.052070521   -0.82520664     0.046691166   -0.70046008    -0.0070657657 
   3274000   0.050187019   -0.82529482     0.046044073   -0.70401878     0.0074701599 
   3275000   0.051221314   -0.82479073     0.042526057   -0.70548227     0.0021522257 
   3276000   0.049455595   -0.82661477     0.045334376   -0.70714486    -0.0023341655 
   3277000   0.048406592   -0.82520833     0.044938202   -0.70770709    -0.0012062702 
   3278000   0.050824124   -0.8263344      0.0464148     -0.7037326      0.010424812  
   3279000   0.048317508   -0.82746954     0.046148974   -0.70889107     0.0016625209 
   3280000   0.051656999   -0.82671105     0.044479408   -0.70479613    -0.00017464718
   3281000   0.051126319   -0.82739908     0.044139607   -0.70661948     0.0011755121 
   3282000   0.049817569   -0.82790978     0.045755281   -0.70747636    -0.00082819954
   3283000   0.051107881   -0.82705697     0.045930238   -0.70451438    -0.0021992397 
   3284000   0.050689459   -0.82765538     0.04337067    -0.70829958    -0.00062007907
   3285000   0.048660837   -0.82731435     0.047508458   -0.70686173    -0.0067574533 
   3286000   0.048256143   -0.82695939     0.046715848   -0.70790603     0.0071712595 
   3287000   0.048956403   -0.82794759     0.047712655   -0.70684771    -0.0029337544 
   3288000   0.049784401   -0.82708249     0.044410792   -0.70804328    -0.0020297036 
   3289000   0.051078396   -0.8276916      0.045344782   -0.70577865    -0.0022569492 
   3290000   0.049476518   -0.82761902     0.045096398   -0.70835573    -0.002780533  
   3291000   0.050115464   -0.82679136     0.045566962   -0.7060997      0.0016853593 
   3292000   0.048810329   -0.82642738     0.044969762   -0.70828936    -0.0031204083 
   3293000   0.051608295   -0.82652201     0.045222651   -0.70393686    -0.0065938942 
   3294000   0.05024438    -0.82685762     0.046577898   -0.70496178     0.0043072695 
   3295000   0.049463214   -0.82825456     0.04576258    -0.70834502    -0.0046107836 
   3296000   0.04885996    -0.82808892     0.044302169   -0.7105441      0.0035514678 
   3297000   0.04908954    -0.82617361     0.044709725   -0.70787708    -0.0031643443 
   3298000   0.050226231   -0.82727694     0.047616008   -0.70437019    -0.0074055394 
   3299000   0.049560751   -0.82857024     0.046068967   -0.70820811    -0.013812057  
   3300000   0.050174399   -0.82771341     0.046838534   -0.70566183    -0.00082566579
   3301000   0.050938525   -0.82960406     0.046103358   -0.70714221    -0.012255261  
   3302000   0.049734408   -0.82645159     0.044365083   -0.70753302     0.0023754608 
   3303000   0.050111261   -0.82596184     0.045460785   -0.70538266    -0.0050231165 
   3304000   0.050981643   -0.82635358     0.042494921   -0.70743554     0.0053745691 
   3305000   0.051841522   -0.82781886     0.045615003   -0.70449175    -0.0072767896 
   3306000   0.049756357   -0.82763778     0.046340963   -0.70671043    -0.0067504212 
   3307000   0.0489734     -0.82709648     0.048156437   -0.70552733     0.0065837709 
   3308000   0.049071124   -0.82793532     0.046953583   -0.70742254    -0.010197463  
   3309000   0.05002253    -0.82718445     0.045441329   -0.70675774     0.0039005189 
   3310000   0.050499813   -0.82768194     0.044654899   -0.70732619    -0.006654089  
   3311000   0.049629297   -0.82733258     0.045270837   -0.70766583     0.0030626485 
   3312000   0.050491378   -0.82816288     0.047927748   -0.70454693    -0.0050891359 
   3313000   0.049891707   -0.82757972     0.045750255   -0.70704018    -0.0012402657 
   3314000   0.049949689   -0.82694397     0.046387802   -0.70567997     0.0011983713 
   3315000   0.049705847   -0.82696424     0.043324763   -0.70912881     0.0023466649 
   3316000   0.050224025   -0.82814642     0.045202265   -0.70765672     0.0021336083 
   3317000   0.050481952   -0.82794184     0.045393468   -0.70687429     0.0017562357 
   3318000   0.049387284   -0.82711669     0.044749554   -0.708334       0.004125278  
   3319000   0.049692472   -0.82748595     0.043480467   -0.70951487     0.0030582779 
   3320000   0.048239356   -0.82817625     0.044820798   -0.7110431      0.0014006281 
   3321000   0.049049421   -0.82687231     0.044805005   -0.70854065     0.0055893085 
   3322000   0.048554644   -0.82798264     0.045183705   -0.71001396    -0.0031552838 
   3323000   0.049864695   -0.82706719     0.044216037   -0.70810237    -0.001830842  
   3324000   0.049518536   -0.82723149     0.043419522   -0.70958209     0.004333774  
   3325000   0.049680828   -0.82728276     0.045523037   -0.70728656     0.0023637668 
   3326000   0.049221829   -0.82706935     0.046145511   -0.70713873    -0.0025518736 
   3327000   0.048934574   -0.82746297     0.04738227    -0.7067262     -0.00025982049
   3328000   0.0510326     -0.82901781     0.046810116   -0.70570819    -0.0020857332 
   3329000   0.049128783   -0.82745656     0.045595125   -0.7082158      0.0034686022 
   3330000   0.049788691   -0.82759519     0.044643492   -0.70831685    -0.00049434198
   3331000   0.050659058   -0.82724499     0.04582032    -0.7054851     -0.0006418822 
   3332000   0.04951789    -0.8269829      0.045521211   -0.70723278     0.0009341764 
   3333000   0.049028371   -0.82774071     0.045422063   -0.70882353    -0.0087328204 
   3334000   0.048964809   -0.82657588     0.043646628   -0.70952943     0.0062369005 
   3335000   0.048165841   -0.82869732     0.045813729   -0.71068144    -0.0052794288 
   3336000   0.04887183    -0.82808018     0.044623433   -0.7101963     -0.00043217192
   3337000   0.05037573    -0.82589569     0.046266186   -0.70411466     0.00032261713
   3338000   0.050254822   -0.82760646     0.04704538    -0.70522748     0.0012709262 
   3339000   0.049343508   -0.82917974     0.0446889     -0.71052333    -0.0067703788 
   3340000   0.048677427   -0.82616293     0.04520037    -0.70799353     0.0047736458 
   3341000   0.050618627   -0.82633889     0.045792924   -0.70466701    -0.00080340406
   3342000   0.051027391   -0.82847155     0.045581296   -0.70639855    -0.0081686056 
   3343000   0.050448064   -0.82512183     0.045795082   -0.70370347     0.010055145  
   3344000   0.049433247   -0.82852346     0.043906854   -0.71051457    -0.005935953  
   3345000   0.049795112   -0.82934795     0.044687936   -0.71001553     0.005740765  
   3346000   0.050488275   -0.82889596     0.044732602   -0.70847981    -0.00066467031
   3347000   0.050035651   -0.82728059     0.043718846   -0.70855669    -0.0048070064 
   3348000   0.050028418   -0.82744798     0.045661568   -0.7067922     -0.0023065314 
   3349000   0.050455132   -0.82985447     0.047152754   -0.70706785    -0.0034305157 
   3350000   0.049421483   -0.82840845     0.045848969   -0.70847509    -0.011193343  
   3351000   0.050601705   -0.8263031      0.044456661   -0.70599286     0.006673479  
   3352000   0.051817499   -0.82736791     0.045589464   -0.70410235    -0.0064320739 
   3353000   0.049257147   -0.82842509     0.04510018    -0.70948686    -0.00095532221
   3354000   0.048468429   -0.82807719     0.047699466   -0.70772199    -0.013390342  
   3355000   0.050719186   -0.82664552     0.045572582   -0.70504325    -0.003235219  
   3356000   0.050305758   -0.8272599      0.046020959   -0.70582898     0.0036193063 
   3357000   0.051983123   -0.82702124     0.043740555   -0.70535631     0.0045071931 
   3358000   0.050145504   -0.82702319     0.046451365   -0.7054021     -0.0027411334 
   3359000   0.048198504   -0.82888778     0.04666774    -0.70996893     0.00026693984
   3360000   0.049333761   -0.82608974     0.042948858   -0.70918798     0.0074272323 
   3361000   0.049572029   -0.82721923     0.044061217   -0.70884794     0.0037680105 
   3362000   0.051231595   -0.8266951      0.04680993    -0.70308736    -0.0038583689 
   3363000   0.049483853   -0.82764966     0.046523117   -0.70694865    -0.0029487606 
   3364000   0.049377018   -0.82796671     0.047503026   -0.70644594     0.0067046214 
   3365000   0.050644875   -0.83028092     0.04614274    -0.70821988    -0.0051541431 
   3366000   0.05007481    -0.82809732     0.044554975   -0.70847859    -0.0055085289 
   3367000   0.04976883    -0.82913406     0.044887813   -0.70964116    -0.0018206039 
   3368000   0.049021384   -0.82830363     0.045665624   -0.70915337     0.0051153558 
   3369000   0.048228847   -0.82900697     0.046220969   -0.7104894     -0.0016722827 
   3370000   0.048772175   -0.82762255     0.046904716   -0.70760677     0.0021184878 
   3371000   0.050982497   -0.82784333     0.045709845   -0.70570908    -0.0033241579 
   3372000   0.049794096   -0.82845285     0.045854593   -0.7079553      0.0049608061 
   3373000   0.050200248   -0.82894405     0.046200465   -0.70749179     0.00088992956
   3374000   0.050252951   -0.82751387     0.045353868   -0.70682921     0.0029188851 
   3375000   0.051263691   -0.82811828     0.046170134   -0.70510222     0.0019197633 
   3376000   0.049142454   -0.82816628     0.04709248    -0.70740768     7.2133405e-05
   3377000   0.051298518   -0.82959395     0.047836969   -0.70485885    -0.011745524  
   3378000   0.050219933   -0.82869798     0.044571345   -0.70884534     0.0056098053 
   3379000   0.051044635   -0.8292301      0.045631889   -0.70708066    -0.0046861222 
   3380000   0.051737154   -0.82979976     0.045913611   -0.70633049     0.00044278166
   3381000   0.050103481   -0.82837957     0.047452691   -0.70582014     0.0037656503 
   3382000   0.050403046   -0.82941939     0.045660406   -0.70820319     9.4725872e-05
   3383000   0.049424513   -0.82820473     0.045869049   -0.70824674    -0.0012702595 
   3384000   0.04989096    -0.82781137     0.045739725   -0.70728349     0.0032179839 
   3385000   0.050736785   -0.82806462     0.045232653   -0.70677589    -0.0087244602 
   3386000   0.04979702    -0.82911346     0.044289078   -0.71017704     0.0031046421 
   3387000   0.048744147   -0.82985198     0.045052813   -0.71173011     0.0018160753 
   3388000   0.048612864   -0.83010492     0.045800887   -0.71143178    -0.001042507  
   3389000   0.049240882   -0.83018496     0.044942291   -0.711429       0.0014005346 
   3390000   0.050879542   -0.82768481     0.044565159   -0.70684958    -0.0033008493 
   3391000   0.051498948   -0.82484753     0.045502069   -0.70214688     0.00016733187
   3392000   0.048074226   -0.82632211     0.046186458   -0.70807084     0.001829459  
   3393000   0.049058971   -0.82600965     0.045984176   -0.7064845      0.00040307595
   3394000   0.049972273   -0.82709451     0.047729497   -0.70445497    -0.0039183736 
   3395000   0.047970668   -0.82833451     0.047984637   -0.70844029    -0.0041496461 
   3396000   0.049325438   -0.82739138     0.046414466   -0.70703649    -0.0010998814 
   3397000   0.047941655   -0.82527066     0.046690685   -0.70671389     0.0025120225 
   3398000   0.049082646   -0.82645444     0.046258335   -0.70661964     0.0037850894 
   3399000   0.049706502   -0.82645763     0.046333133   -0.70561285    -0.0043662616 
   3400000   0.050946279   -0.82841488     0.04681868    -0.70522608    -0.0070608525 
   3401000   0.04977363    -0.82549959     0.045241967   -0.70564534     0.0026190499 
   3402000   0.050207      -0.82709407     0.047390831   -0.70444133    -0.0022160551 
   3403000   0.050152717   -0.82640963     0.046309734   -0.70491936    -0.0030848322 
   3404000   0.051340786   -0.82529207     0.047629008   -0.70070156     0.0012579897 
   3405000   0.049974238   -0.82671464     0.04536562    -0.70643602     0.0016550097 
   3406000   0.052050156   -0.82678535     0.048666012   -0.70009448    -0.002083327  
   3407000   0.051353461   -0.82714984     0.046052352   -0.70411699    -0.0047689907 
   3408000   0.048357863   -0.826599       0.04844665    -0.70566235    -7.2317061e-05
   3409000   0.05161423    -0.8268518      0.049405347   -0.70007506     0.0011341446 
   3410000   0.050225369   -0.82652104     0.048225273   -0.70300632    -0.004693973  
   3411000   0.048697924   -0.82710592     0.04720193    -0.70690423    -0.0035484477 
   3412000   0.050819779   -0.82686397     0.044649156   -0.70603432     0.0029303756 
   3413000   0.049916079   -0.82590545     0.04853038    -0.70254926    -0.0027939403 
   3414000   0.050269187   -0.82534075     0.046230789   -0.70375483     0.0047411114 
   3415000   0.050821609   -0.82709444     0.044875314   -0.70603589    -0.0060283957 
   3416000   0.050190166   -0.82542869     0.045905765   -0.70428625     0.0030488803 
   3417000   0.050916816   -0.82645222     0.048007705   -0.70211857    -0.00037368105
   3418000   0.049528407   -0.82677674     0.045915915   -0.70661614    -0.0020346697 
   3419000   0.050392934   -0.82694616     0.048075655   -0.70332987    -0.004124966  
   3420000   0.048039186   -0.82562856     0.044524181   -0.70909209     0.0034793406 
   3421000   0.049036822   -0.82572353     0.048097218   -0.70411853    -0.0029746022 
   3422000   0.04906931    -0.82721609     0.048047362   -0.70561225    -0.0033163267 
   3423000   0.050070111   -0.82672965     0.047159601   -0.70451334    -0.0056341961 
   3424000   0.049871936   -0.82378836     0.046614754   -0.70241396     0.0018056827 
   3425000   0.049134083   -0.82627045     0.046719804   -0.70589707     0.0034762282 
   3426000   0.049658854   -0.82509318     0.046341386   -0.70431157    -0.00061892924
   3427000   0.051130178   -0.8255106      0.045958321   -0.70290649    -0.0031358276 
   3428000   0.050780981   -0.82566566     0.046389997   -0.70315333     0.0030914811 
   3429000   0.051032943   -0.82592302     0.046932152   -0.70249084    -0.00083250738
   3430000   0.050120981   -0.82718498     0.049282058   -0.70276995     0.0065173178 
   3431000   0.050088015   -0.82854007     0.047293819   -0.7061627     -0.0051636691 
   3432000   0.048469089   -0.82742795     0.047459386   -0.70731184    -0.0023458795 
   3433000   0.049019632   -0.82709216     0.046369282   -0.70724087    -0.0023451035 
   3434000   0.049365166   -0.82744633     0.046433011   -0.70701334    -0.0090426531 
   3435000   0.052620001   -0.82710049     0.045828928   -0.70239248     0.0020036371 
   3436000   0.049882682   -0.82614282     0.044602258   -0.70676481    -0.0020403138 
   3437000   0.050340865   -0.82677697     0.049388927   -0.70192546     0.00087909034
   3438000   0.050837481   -0.8260096      0.046348652   -0.70345392     0.0017761486 
   3439000   0.049738176   -0.82468286     0.045442484   -0.70468124    -0.0011050173 
   3440000   0.049967116   -0.82691786     0.046200977   -0.70581457     0.00011580695
   3441000   0.0495362     -0.82735755     0.047087623   -0.70601356    -0.0034115044 
   3442000   0.048685597   -0.82567426     0.045068327   -0.70762465    -0.0017982973 
   3443000   0.047543228   -0.82570615     0.045495347   -0.70894197     0.00072526479
   3444000   0.048760624   -0.82769335     0.045064968   -0.70953463    -0.0030846542 
   3445000   0.050203419   -0.82838475     0.046700858   -0.70642735    -0.0061943442 
   3446000   0.049519251   -0.82539205     0.046626348   -0.70453475     0.0031287131 
   3447000   0.049631639   -0.82614823     0.045931667   -0.70581713    -0.0042153924 
   3448000   0.048841923   -0.82807265     0.047975064   -0.70688197    -0.0030223252 
   3449000   0.049249654   -0.82543872     0.04611055    -0.70550135     0.004564179  
   3450000   0.050065551   -0.82607543     0.047526917   -0.70349864     0.0031650444 
   3451000   0.049118985   -0.82667811     0.046303917   -0.70674325    -0.0050641869 
   3452000   0.051412903   -0.82696424     0.04636914    -0.7035255      0.001506095  
   3453000   0.050462277   -0.82709558     0.046282796   -0.70516821    -0.0031384931 
   3454000   0.050853778   -0.82621106     0.046397908   -0.7035817      0.0055118648 
   3455000   0.049835337   -0.82650755     0.045359288   -0.70644348    -0.0016748231 
   3456000   0.049759922   -0.82634808     0.046526717   -0.70522964    -0.0024090692 
   3457000   0.049468309   -0.82606308     0.046283979   -0.70562451    -0.002235866  
   3458000   0.050899837   -0.82727249     0.048353047   -0.70261895    -0.0077049238 
   3459000   0.050664876   -0.8276072      0.050084683   -0.70157423    -0.010316589  
   3460000   0.052539441   -0.82835958     0.047333153   -0.70226811    -0.0072846855 
   3461000   0.050013365   -0.82580722     0.04686034    -0.70397523     0.0019361003 
   3462000   0.05052887    -0.8265287      0.044839732   -0.70594456     0.003906894  
   3463000   0.05209375    -0.82639732     0.047182142   -0.70112497    -0.0014003772 
   3464000   0.050124788   -0.82529236     0.047342853   -0.70281083    -0.0017237786 
   3465000   0.050665637   -0.82605991     0.043851834   -0.70625865     0.0019336394 
   3466000   0.050109145   -0.82641045     0.046591267   -0.70470395    -0.0016021467 
   3467000   0.049394378   -0.82529608     0.046097504   -0.70515481     0.0028616611 
   3468000   0.05120573    -0.82664571     0.046330652   -0.70355601    -0.0061484242 
   3469000   0.050921986   -0.82599783     0.046252913   -0.70341122     0.0036583289 
   3470000   0.048727009   -0.82518339     0.046098236   -0.7060418      0.0078303537 
   3471000   0.051016602   -0.82590823     0.047307627   -0.70212507     0.00097225824
   3472000   0.049101332   -0.82601359     0.047613468   -0.70479564     0.0013663949 
   3473000   0.052505625   -0.82649824     0.042768479   -0.70502214    -0.00020745367
   3474000   0.048270988   -0.82700496     0.045553846   -0.70909135    -0.0070977719 
   3475000   0.04968802    -0.82576373     0.04632184    -0.70495795    -0.0031892025 
   3476000   0.050415387   -0.8255773      0.045626292   -0.70437671    -7.5049441e-05
   3477000   0.051195538   -0.82512563     0.045670852   -0.70271101     0.003580339  
   3478000   0.049552928   -0.82759127     0.044150203   -0.70915963     0.0093378546 
   3479000   0.04923948    -0.8267895      0.046552375   -0.70642556    -0.0040152866 
   3480000   0.050067295   -0.82708759     0.047072459   -0.70496264    -0.0061438387 
   3481000   0.048439723   -0.82628936     0.048534066   -0.70514259     0.0041912132 
   3482000   0.051073469   -0.82682659     0.047386199   -0.70287961    -0.00010192483
   3483000   0.051320258   -0.82868033     0.048227847   -0.70352176    -0.013420247  
   3484000   0.050460805   -0.82535899     0.045653511   -0.70406311     0.0036872575 
   3485000   0.050395452   -0.82627537     0.045175596   -0.70555536     0.00092937027
   3486000   0.051314083   -0.82802756     0.04728502    -0.70382107    -0.010556815  
   3487000   0.049815354   -0.82724219     0.047492993   -0.70507438    -0.0044302223 
   3488000   0.050505823   -0.82591081     0.045100491   -0.70510046     0.008701165  
   3489000   0.049859229   -0.82596401     0.047738764   -0.70348466    -0.0006506858 
   3490000   0.050747143   -0.82661407     0.048413747   -0.70212872    -0.0053228839 
   3491000   0.049030918   -0.82506992     0.047297361   -0.70427363    -0.0086781247 
   3492000   0.050987328   -0.82593912     0.046559033   -0.70294844    -0.0035519269 
   3493000   0.050699787   -0.82653797     0.045691877   -0.70484547    -0.012092986  
   3494000   0.049734534   -0.82662777     0.047509137   -0.70456496     0.0042574316 
   3495000   0.048119551   -0.82566718     0.047905445   -0.70562897    -0.00041668341
   3496000   0.050021954   -0.82548934     0.047408398   -0.70309642    -0.0023960072 
   3497000   0.05023437    -0.82508133     0.046079414   -0.70369897     0.00020831459
   3498000   0.050461532   -0.82603923     0.050637489   -0.69975827    -0.0018968087 
   3499000   0.052000651   -0.82701052     0.047585725   -0.70147415    -0.0069736735 
   3500000   0.050084245   -0.82625317     0.047631431   -0.70354384     0.00816734   
   3501000   0.049126699   -0.82646398     0.047499024   -0.70532245    -0.00085809554
   3502000   0.050697393   -0.82705082     0.045419828   -0.70563397     0.00044446374
   3503000   0.049633641   -0.8250926      0.047934616   -0.70275555     0.0036953209 
   3504000   0.050919366   -0.82693714     0.046888682   -0.70371869     0.0012692271 
   3505000   0.050134107   -0.82721863     0.045420294   -0.7066457     -0.0098390437 
   3506000   0.049548001   -0.82437028     0.045452556   -0.70464367     0.004288849  
   3507000   0.051241099   -0.82438533     0.045078351   -0.70249492     0.0061247196 
   3508000   0.048803375   -0.82662404     0.046197245   -0.70726896    -0.0063726622 
   3509000   0.049247949   -0.82595396     0.045959204   -0.7061705      1.2682976e-05
   3510000   0.049538551   -0.82614706     0.04769989    -0.70418728    -0.002971292  
   3511000   0.049608842   -0.82790144     0.047221896   -0.70631429    -0.003829699  
   3512000   0.048759682   -0.82719263     0.046708198   -0.7073921     -0.011744721  
   3513000   0.050080592   -0.82558527     0.044639651   -0.70587319     0.011322146  
   3514000   0.047668472   -0.82675428     0.044607497   -0.71069021    -0.0041153955 
   3515000   0.049654321   -0.82749079     0.0463742     -0.70668317    -0.0035468623 
   3516000   0.050417523   -0.82648126     0.045424782   -0.70547898     0.0037914807 
   3517000   0.049460668   -0.82687048     0.046747296   -0.70598004    -0.0023765222 
   3518000   0.048441032   -0.82732941     0.047228204   -0.70748654    -0.010361186  
   3519000   0.048876466   -0.82797094     0.046411713   -0.70829182    -0.0017889159 
   3520000   0.049887811   -0.82478299     0.046155521   -0.70384403     0.005535674  
   3521000   0.049611016   -0.8252068      0.047777476   -0.70306081     0.0021841238 
   3522000   0.050502574   -0.82572484     0.047238263   -0.70278159    -0.0052315398 
   3523000   0.051724504   -0.82511839     0.046013679   -0.70156801     0.00071034507
   3524000   0.0486744     -0.82719102     0.047446456   -0.70678007    -0.0030724775 
   3525000   0.048782294   -0.82795158     0.047429149   -0.70739619    -0.010420067  
   3526000   0.04885695    -0.82639604     0.046728599   -0.7064293     -0.00018639662
   3527000   0.050919197   -0.82605576     0.04485866    -0.70486758     0.0019244569 
   3528000   0.050079479   -0.82571091     0.044485157   -0.706155       0.0024717739 
   3529000   0.049886108   -0.82593663     0.047071153   -0.70408459     0.00022938175
   3530000   0.048783974   -0.8260047      0.047255084   -0.70562086    -0.0012697868 
   3531000   0.0495575     -0.82613282     0.046239977   -0.70560455    -0.0011628763 
   3532000   0.050984605   -0.82635696     0.043956586   -0.70597281     0.0057182508 
   3533000   0.050276741   -0.8277563      0.046771986   -0.70561786    -0.0072886381 
   3534000   0.049456094   -0.82478687     0.046303399   -0.70434719    -0.00090725119
   3535000   0.049870886   -0.82677877     0.047829844   -0.70419086    -0.0030661437 
   3536000   0.047340344   -0.82687602     0.049392631   -0.70651868    -0.0054771391 
   3537000   0.049478918   -0.82714037     0.047350985   -0.70561889    -0.00062409101
   3538000   0.048472031   -0.82498134     0.043763731   -0.70855647     0.0089687907 
   3539000   0.051495468   -0.82797974     0.048420275   -0.7023661     -0.011764731  
   3540000   0.050933178   -0.82726816     0.047484721   -0.70343297    -0.00036906403
   3541000   0.049508501   -0.82684759     0.046431445   -0.7062013     -0.0046410006 
   3542000   0.049702177   -0.82581033     0.04736835    -0.70393681     0.0007502501 
   3543000   0.048503236   -0.82520915     0.046191454   -0.70630978     0.0018333616 
   3544000   0.050368345   -0.82702133     0.04609981    -0.70541775    -0.0020927181 
   3545000   0.050446718   -0.82619914     0.045490294   -0.70508759     0.0015504621 
   3546000   0.050371838   -0.82649729     0.045797818   -0.70519046     0.00018488315
   3547000   0.050092053   -0.82678399     0.046833795   -0.70486059    -0.0089029436 
   3548000   0.049558664   -0.82570891     0.045241222   -0.70617766    -0.0027755266 
   3549000   0.050313404   -0.82530881     0.047220372   -0.70266703     0.00097671132
   3550000   0.050738152   -0.82512713     0.044341788   -0.70472721     0.0026002911 
   3551000   0.05013976    -0.82629361     0.047412183   -0.70372031     0.0017956259 
   3552000   0.049767623   -0.82603676     0.048321366   -0.70311212     0.0047620077 
   3553000   0.049498821   -0.82666586     0.049107235   -0.70335829     0.0020500988 
   3554000   0.048922263   -0.82917601     0.047577004   -0.70826296    -0.01515606   
   3555000   0.049365306   -0.82678604     0.046467888   -0.70631797     0.0013606257 
   3556000   0.050026249   -0.82666242     0.046734195   -0.70493727    -0.0045073962 
   3557000   0.048558835   -0.82526516     0.046789585   -0.70568432     0.0037509827 
   3558000   0.048728326   -0.82612769     0.047206388   -0.70587597    -0.0026474483 
   3559000   0.049949599   -0.82573531     0.047139537   -0.70371971    -0.00063676411
   3560000   0.050272121   -0.82562494     0.046682376   -0.70358304    -0.0049458747 
   3561000   0.050262592   -0.8267241      0.04679682    -0.70458203    -0.0005946293 
   3562000   0.050149545   -0.82560884     0.04736295    -0.7030701     -0.0027406255 
   3563000   0.049738475   -0.82703052     0.047355151   -0.70511579     0.0042995657 
   3564000   0.051083818   -0.82521086     0.042858987   -0.70577558     0.0050685962 
   3565000   0.049074814   -0.82543001     0.045656269   -0.70620901    -0.00092618406
   3566000   0.049771801   -0.82431552     0.045803546   -0.70390244     0.0041247756 
   3567000   0.051100701   -0.82524129     0.045698137   -0.70294156     0.0034664177 
   3568000   0.051185255   -0.82540974     0.046540991   -0.70214041     0.0019367039 
   3569000   0.052090125   -0.82678909     0.047082721   -0.70162159    -0.010648288  
   3570000   0.051502938   -0.82542187     0.046848031   -0.70136927     0.0013683129 
   3571000   0.050904845   -0.82579763     0.048649918   -0.7008397     -0.0018207346 
   3572000   0.051644398   -0.82668532     0.043994259   -0.70527445     0.0036131548 
   3573000   0.048569604   -0.82641788     0.044664017   -0.70894646    -0.0083156655 
   3574000   0.048499717   -0.82566933     0.048546395   -0.70442029    -0.0005161558 
   3575000   0.050750205   -0.82626906     0.045485072   -0.70470779     0.0015952632 
   3576000   0.051133576   -0.82760896     0.046322441   -0.70463564    -0.0014472077 
   3577000   0.049454985   -0.82749949     0.046520092   -0.70684478    -0.0014793338 
   3578000   0.049239609   -0.82654649     0.047522225   -0.7052125     -0.0059848112 
   3579000   0.048975082   -0.82733477     0.046171082   -0.70774846    -0.0099925157 
   3580000   0.049701634   -0.82658035     0.047111217   -0.70496478    -0.00078824562
   3581000   0.050471467   -0.82860198     0.045857754   -0.70708587    -0.0046196644 
   3582000   0.049134651   -0.82659638     0.044326355   -0.7086156      0.0063940729 
   3583000   0.05019036    -0.82752668     0.045811102   -0.70647861    -0.0032703622 
   3584000   0.050601932   -0.82618039     0.045251236   -0.70507523     0.00018794811
   3585000   0.048756608   -0.82592367     0.046304088   -0.70653185     0.00069900324
   3586000   0.049499624   -0.82644807     0.045598052   -0.70664849     0.0040818315 
   3587000   0.049943654   -0.825741       0.04448601    -0.70638784     0.008071497  
   3588000   0.046762747   -0.82640497     0.045575365   -0.71073074    -0.0029937614 
   3589000   0.048039022   -0.82675949     0.047663774   -0.70708368    -0.0076900039 
   3590000   0.048903788   -0.82876453     0.0466035     -0.70885267    -0.0047837345 
   3591000   0.048894342   -0.82666295     0.048856298   -0.70451245    -0.0012792749 
   3592000   0.048523707   -0.82823574     0.046403276   -0.70909386    -0.0041797182 
   3593000   0.049062526   -0.82821254     0.047365374   -0.70730086    -0.0017269026 
   3594000   0.049461058   -0.82750414     0.047800441   -0.70555998    -0.010179189  
   3595000   0.05158892    -0.82572217     0.045101298   -0.70328742     0.00064807847
   3596000   0.049916215   -0.82594127     0.047722137   -0.70339312    -0.0019920184 
   3597000   0.050444381   -0.82593422     0.047096993   -0.70321947    -0.0046696316 
   3598000   0.04953841    -0.82670043     0.048915533   -0.70352522     0.0098824477 
   3599000   0.051117435   -0.82533647     0.045748201   -0.70296158     0.0018939547 
   3600000   0.049015594   -0.82801788     0.046067362   -0.70847456    -0.012720184  
   3601000   0.048998184   -0.82609255     0.046609212   -0.70603348    -0.0014487286 
   3602000   0.048249182   -0.82689586     0.048056553   -0.70651222    -0.0074715252 
   3603000   0.049534199   -0.82672862     0.047749221   -0.70472604    -0.0016724943 
   3604000   0.048456584   -0.82596412     0.047495239   -0.70583089    -0.0060853276 
   3605000   0.048911011   -0.82642804     0.046273417   -0.70683544    -0.0015143335 
   3606000   0.049348982   -0.82741478     0.044726651   -0.70871242     0.00064596084
   3607000   0.04777797    -0.82645174     0.04551565    -0.70931537     0.0060745125 
   3608000   0.048243101   -0.82666693     0.045712916   -0.70863604    -0.00559581   
   3609000   0.050698157   -0.8264752      0.04373755    -0.70673947     0.0071226385 
   3610000   0.050253526   -0.82697735     0.046024779   -0.70562091    -0.0052652599 
   3611000   0.048634139   -0.82529188     0.044065673   -0.70832206     4.5802798e-05
   3612000   0.049374469   -0.82687662     0.046960346   -0.70590235    -0.0012790416 
   3613000   0.049900993   -0.82637833     0.048543456   -0.70303168    -0.0060704169 
   3614000   0.050350087   -0.82549927     0.045750608   -0.70427225    -0.0032216845 
   3615000   0.049936357   -0.82521977     0.047206029   -0.70315753    -0.0059168304 
   3616000   0.049222611   -0.82557123     0.046042534   -0.70574242    -0.0035523963 
   3617000   0.052233998   -0.82459984     0.047452707   -0.69884668     0.0086821339 
   3618000   0.048779398   -0.82624649     0.046802921   -0.70632167    -0.0022439287 
   3619000   0.047775763   -0.82643376     0.048629198   -0.70618715     0.00017921114
   3620000   0.050488892   -0.82559276     0.046132112   -0.70377617     0.0010235081 
   3621000   0.051866958   -0.82601636     0.047494698   -0.70077142    -0.001773116  
   3622000   0.049881437   -0.82589894     0.047992075   -0.70313298    -0.0032882773 
   3623000   0.05063186    -0.82645573     0.047637987   -0.70291895    -0.00044258219
   3624000   0.050177344   -0.82617791     0.045440296   -0.70552016     0.0066285288 
   3625000   0.050431102   -0.82614788     0.046602812   -0.70394722     0.003640131  
   3626000   0.048693384   -0.82568509     0.045107357   -0.70758478    -0.004469125  
   3627000   0.048733836   -0.82637743     0.048299561   -0.70502428    -0.0015414728 
   3628000   0.050393414   -0.82632075     0.047606925   -0.70317247     0.001372518  
   3629000   0.04929206    -0.8271515      0.046470889   -0.70679023    -0.0064303564 
   3630000   0.051900129   -0.82645426     0.046548188   -0.7021061      0.0033297952 
   3631000   0.050837744   -0.82650466     0.046755872   -0.70354137     0.0033106641 
   3632000   0.0514361     -0.82715432     0.046970049   -0.7030799     -0.0065074867 
   3633000   0.050350146   -0.82641184     0.04680635    -0.704129       0.0003590398 
   3634000   0.049514131   -0.82542384     0.046039156   -0.7051614     -0.0060091249 
   3635000   0.050490878   -0.82667921     0.047002106   -0.70398965     0.0060991769 
   3636000   0.049348373   -0.82842798     0.048204682   -0.7062485     -0.013673101  
   3637000   0.049173271   -0.82577287     0.048764875   -0.70329568    -0.0074326769 
   3638000   0.049483681   -0.82647013     0.046429958   -0.70586254    -0.0055206049 
   3639000   0.049130038   -0.82532569     0.045193984   -0.7064842      0.0033831698 
   3640000   0.049951426   -0.82834617     0.048453648   -0.70501372    -0.0038912129 
   3641000   0.051283349   -0.82664268     0.046738486   -0.7030288     -0.0041132311 
   3642000   0.049695252   -0.82644767     0.04678397    -0.70516892    -0.0084044111 
   3643000   0.049229603   -0.82585867     0.046374412   -0.7056875     -0.0012838643 
   3644000   0.05180281    -0.82612088     0.047103207   -0.70136359     0.0012864442 
   3645000   0.052303676   -0.82810059     0.047258861   -0.70243683    -0.0092653616 
   3646000   0.05176416    -0.82780675     0.046972159   -0.70323844    -0.007934262  
   3647000   0.049471554   -0.82509718     0.047757201   -0.70318052     0.00022460348
   3648000   0.049944035   -0.82686962     0.046726024   -0.70527588    -0.002390927  
   3649000   0.051666628   -0.82637578     0.04522954    -0.7036963      0.0019585035 
   3650000   0.049896541   -0.82582148     0.045775482   -0.70524948    -0.00075231599
   3651000   0.050883908   -0.82663565     0.046251608   -0.70410743    -0.011526931  
   3652000   0.050577536   -0.8264002      0.047206728   -0.70337612    -0.0066527551 
   3653000   0.049763476   -0.82594039     0.045760581   -0.70558276     0.0038528912 
   3654000   0.051215795   -0.82604181     0.046300233   -0.70296745    -0.0036476858 
   3655000   0.050899934   -0.82612213     0.044412857   -0.70540863     0.0053603358 
   3656000   0.052317027   -0.8254352      0.045258941   -0.70175134     0.0031948244 
   3657000   0.050142277   -0.82700613     0.047870959   -0.70397028    -0.014691673  
   3658000   0.049733581   -0.82424373     0.046694552   -0.70299693     0.0071154616 
   3659000   0.049521822   -0.82556484     0.047886844   -0.70344319     0.00081194846
   3660000   0.048459125   -0.82838011     0.047326387   -0.70841193    -0.0089057218 
   3661000   0.051029419   -0.82745204     0.048054609   -0.70290269     0.0018525932 
   3662000   0.049385898   -0.82739892     0.050293672   -0.7030742     -0.0057811256 
   3663000   0.050822867   -0.82505233     0.045668296   -0.70319891    -0.0013162087 
   3664000   0.04981077    -0.8256059      0.044799361   -0.70613859    -0.0012839594 
   3665000   0.050136376   -0.82624471     0.044860461   -0.70622821    -0.00042285533
   3666000   0.049312124   -0.82659686     0.045280557   -0.70739584     0.0048517121 
   3667000   0.049229067   -0.82689278     0.047528529   -0.70556829     0.00050713845
   3668000   0.050222172   -0.82586847     0.047035972   -0.70354784     0.0018217235 
   3669000   0.050661184   -0.82683669     0.0478201     -0.70307384    -0.00010686097
   3670000   0.049695158   -0.82804786     0.047273115   -0.7062801     -0.0048301065 
   3671000   0.048331605   -0.82693023     0.047250842   -0.70722875     0.0032058091 
   3672000   0.049634933   -0.82713202     0.04686318    -0.70586447    -0.0051326568 
   3673000   0.049638605   -0.8274917      0.047913822   -0.70516801     0.0017576552 
   3674000   0.051114468   -0.82535881     0.046920053   -0.70181652    -0.0020053702 
   3675000   0.051306378   -0.82658202     0.047342842   -0.70232927     0.00080586216
   3676000   0.05099739    -0.82608474     0.045716274   -0.70392173     0.0032710114 
   3677000   0.048795612   -0.82607352     0.046190818   -0.7067365     -0.00097640422
   3678000   0.051169909   -0.82702259     0.047001939   -0.70331531    -0.0065607404 
   3679000   0.050353959   -0.82650921     0.046158047   -0.70486895     0.0037365661 
   3680000   0.050420081   -0.82690182     0.044983361   -0.70633713    -0.0063133655 
   3681000   0.050453003   -0.82791356     0.043971149   -0.70831173    -0.00011396442
   3682000   0.050327151   -0.82652168     0.045295047   -0.70578461     0.0069463758 
   3683000   0.049928427   -0.82697652     0.047105391   -0.7050268     -0.0053567438 
   3684000   0.051408859   -0.82825606     0.048573971   -0.70261855    -0.0070319993 
   3685000   0.050893771   -0.82550611     0.044990085   -0.70422462    -9.8348873e-05
   3686000   0.050563246   -0.82682673     0.047298567   -0.70373223     0.00043336552
   3687000   0.050846304   -0.8271576      0.047568367   -0.70336898    -0.00086448725
   3688000   0.049753096   -0.8263441      0.047540114   -0.70422249    -0.0018850728 
   3689000   0.049709797   -0.82632585     0.045921361   -0.7058879      0.0027192092 
   3690000   0.050650523   -0.82634735     0.047355855   -0.70306473    -0.00077068903
   3691000   0.051699993   -0.82694271     0.046013388   -0.70342937     0.0015782482 
   3692000   0.051337603   -0.82616398     0.046732161   -0.7024751      0.0036314682 
   3693000   0.051962477   -0.82653924     0.045773221   -0.70287258    -0.00011334619
   3694000   0.049980959   -0.82489249     0.046079415   -0.70389001    -0.00074940316
   3695000   0.048150031   -0.82731762     0.047409349   -0.70772982    -0.0037376051 
   3696000   0.049220713   -0.82577845     0.047394357   -0.70460066     0.005934539  
   3697000   0.048320054   -0.82650665     0.044943421   -0.70912991     0.0041212837 
   3698000   0.050836275   -0.82715805     0.04588257    -0.70507026     0.0045950287 
   3699000   0.048907777   -0.82780393     0.04778154    -0.70670805    -0.0051602889 
   3700000   0.049408419   -0.82671432     0.047944856   -0.70470464    -0.0028617022 
   3701000   0.052059135   -0.82645107     0.045593251   -0.7028195      0.0052561053 
   3702000   0.05159303    -0.8253687      0.048055957   -0.69997313    -0.0044562672 
   3703000   0.049683853   -0.82415614     0.046051929   -0.70362651     0.003035953  
   3704000   0.049447243   -0.82723382     0.048192233   -0.70491858    -0.0001602257 
   3705000   0.050346558   -0.82637539     0.045324416   -0.70557986     0.0018344828 
   3706000   0.051433696   -0.82716241     0.049100242   -0.7009614     -0.0024272476 
   3707000   0.05020699    -0.82701404     0.048336224   -0.70341592     0.0029687316 
   3708000   0.04923359    -0.82767604     0.048218677   -0.70565462    -0.0028011538 
   3709000   0.052903182   -0.82674291     0.046102389   -0.70133694     0.0031835834 
   3710000   0.052273619   -0.82570493     0.044657467   -0.70268762     0.00052967171
   3711000   0.050031252   -0.82671681     0.047605835   -0.70411251    -0.00034041452
   3712000   0.048476278   -0.82851386     0.047390274   -0.70845608    -0.0074370555 
   3713000   0.049460225   -0.82749772     0.046020186   -0.70733506     5.7470674e-05
   3714000   0.047013638   -0.82775087     0.045860884   -0.71141503    -0.0064588128 
   3715000   0.049160241   -0.82814871     0.044833405   -0.70962252    -0.0074927962 
   3716000   0.051013411   -0.8276091      0.047898387   -0.70323996    -0.0057385539 
   3717000   0.049954917   -0.82824019     0.047071379   -0.70628478    -0.010103101  
   3718000   0.05107122    -0.82501456     0.046723148   -0.70173401     0.0086148385 
   3719000   0.049132007   -0.82588816     0.047182752   -0.70505495    -0.0026639822 
   3720000   0.050311301   -0.82592603     0.046922333   -0.70358543    -0.00041392784
   3721000   0.051181263   -0.82584407     0.045791713   -0.70333        0.00024669677
   3722000   0.050994677   -0.82686229     0.046508373   -0.70391126     0.0010956661 
   3723000   0.048268546   -0.82559451     0.04539685    -0.70784155    -0.0017979226 
   3724000   0.051806178   -0.82823708     0.047148135   -0.70342981    -0.001315477  
   3725000   0.049701695   -0.82573818     0.047090608   -0.70414313    -0.0012052394 
   3726000   0.050932101   -0.82646045     0.046942921   -0.70316867     0.0012250972 
   3727000   0.051206127   -0.8276498      0.047529953   -0.70336021    -0.0047589167 
   3728000   0.050588138   -0.82525741     0.045248089   -0.70417607    -0.0022149184 
   3729000   0.048822778   -0.82576165     0.048964602   -0.70361013     0.0016536079 
   3730000   0.050430922   -0.82649844     0.049306304   -0.70159456    -0.00020512967
   3731000   0.05095973    -0.82506992     0.046979006   -0.70170063     0.0098993262 
   3732000   0.050359415   -0.82906237     0.048490829   -0.70508116    -0.0059605143 
   3733000   0.051480767   -0.82539671     0.045766207   -0.70245918    -0.0021357593 
   3734000   0.052097809   -0.82541027     0.045639589   -0.70167438     0.0082401521 
   3735000   0.049177765   -0.82613705     0.04716651    -0.70525149    -0.0021541217 
   3736000   0.049336896   -0.82743914     0.0478747     -0.70560685    -0.0053646915 
   3737000   0.047862931   -0.8256421      0.047538992   -0.70635504     0.0038632046 
   3738000   0.049613647   -0.82567451     0.046467657   -0.7048344     -0.0015787651 
   3739000   0.051828316   -0.82571053     0.044972551   -0.70304566    -0.002782952  
   3740000   0.05166618    -0.82721766     0.047248846   -0.70251954     2.8782782e-06
   3741000   0.04933736    -0.82669149     0.047005464   -0.70572773    -0.0015798892 
   3742000   0.046787691   -0.8269904      0.04607929    -0.71077485    -0.00168938   
   3743000   0.049254542   -0.82591393     0.046171573   -0.70590821     0.0043336893 
   3744000   0.048915888   -0.82787845     0.048190744   -0.70636122     0.0063705585 
   3745000   0.049479213   -0.82704774     0.048257892   -0.70461891    -0.0026474635 
   3746000   0.050199789   -0.82611431     0.045535699   -0.70532751    -0.0040832631 
   3747000   0.050130173   -0.82800046     0.046739292   -0.70611442     0.00085599491
   3748000   0.050123974   -0.82713272     0.045436097   -0.70655917    -0.0035644994 
   3749000   0.047679297   -0.82620725     0.049000666   -0.70573378    -0.00055434059
   3750000   0.050720896   -0.82660633     0.047562836   -0.70301123     0.0027456608 
   3751000   0.050466625   -0.82723602     0.047991291   -0.70359363    -0.0060922311 
   3752000   0.051762936   -0.82550591     0.045685168   -0.70222643    -0.0020336808 
   3753000   0.050491864   -0.82475199     0.046711127   -0.70235193    -0.0012079049 
   3754000   0.050364098   -0.8267434      0.046683379   -0.70456261     0.0081935889 
   3755000   0.05027966    -0.82415797     0.045803209   -0.70298393     0.008697969  
   3756000   0.048516658   -0.82623666     0.045629753   -0.70787887    -0.0091742851 
   3757000   0.049871403   -0.82655391     0.04592408    -0.70587099     0.0045485204 
   3758000   0.049719309   -0.82711787     0.048799404   -0.70378762    -0.0061838166 
   3759000   0.048873767   -0.82485726     0.045408501   -0.7061854      0.0011709713 
   3760000   0.050628585   -0.82611734     0.046792583   -0.70343088     0.0027838358 
   3761000   0.048856927   -0.8266916      0.048191035   -0.70526245    -0.00030110219
   3762000   0.048899526   -0.82651742     0.047978849   -0.7052366     -0.0091912659 
   3763000   0.050241346   -0.82733411     0.047564458   -0.70445625    -4.5834861e-05
   3764000   0.049927034   -0.82628521     0.045904581   -0.70553839     0.0028603959 
   3765000   0.05191269    -0.8266933      0.047777522   -0.70109698    -0.0029364103 
   3766000   0.049822044   -0.82674048     0.046051032   -0.7060046     -0.0060428087 
   3767000   0.049630359   -0.82675355     0.04671496    -0.70564108     0.0010640484 
   3768000   0.049390913   -0.82693847     0.047320883   -0.70557902    -0.0063571884 
   3769000   0.050372382   -0.82765428     0.045427771   -0.70671668    -0.0049320718 
   3770000   0.049368801   -0.82803906     0.047850686   -0.70618295    -0.0032426569 
   3771000   0.050402836   -0.82640068     0.04497039    -0.70587481    -0.0019184307 
   3772000   0.05040547    -0.8255794      0.045862392   -0.70415758    -0.0023961476 
   3773000   0.049473572   -0.82468232     0.046461152   -0.70405868     0.0036320576 
   3774000   0.050069772   -0.82550848     0.044693498   -0.70575878     0.0092979114 
   3775000   0.04800737    -0.82605045     0.045207482   -0.70887837    -0.0044038318 
   3776000   0.050361322   -0.82550905     0.045312877   -0.70470293     0.0057074243 
   3777000   0.049814305   -0.82622817     0.048461986   -0.70309293    -0.0016385967 
   3778000   0.052612629   -0.8268366      0.045273301   -0.70269527    -0.0044407721 
   3779000   0.050349153   -0.82555606     0.046221306   -0.70385975     0.0012837081 
   3780000   0.052101463   -0.82538554     0.045458788   -0.70182498    -0.00040800933
   3781000   0.05023008    -0.82635301     0.044761415   -0.70629509    -0.00084793971
   3782000   0.049025687   -0.82593145     0.047486236   -0.70495413     0.00032334477
   3783000   0.048698654   -0.82720224     0.049778723   -0.70442266     0.00013823736
   3784000   0.049548863   -0.82663938     0.046338424   -0.70602561     0.00052622571
   3785000   0.050052348   -0.82546766     0.045532457   -0.70490512    -0.0015494427 
   3786000   0.048272409   -0.82654036     0.04705136    -0.70712711    -0.0023222654 
   3787000   0.048895998   -0.8268817      0.045877287   -0.70770774    -0.0032803725 
   3788000   0.04896569    -0.82708226     0.045308333   -0.70837278    -0.0043794253 
   3789000   0.050110543   -0.82636756     0.046659302   -0.70459094     0.0026224138 
   3790000   0.049496174   -0.8256355      0.047409294   -0.70402984     0.0058031589 
   3791000   0.049023753   -0.82571264     0.046980011   -0.70524444    -0.0016789251 
   3792000   0.05066101    -0.82669947     0.046769829   -0.70398715    -0.0014121078 
   3793000   0.048340299   -0.82693835     0.04886783    -0.70560685     0.0074656163 
   3794000   0.050243241   -0.8263798      0.047005696   -0.70405787     0.0012400591 
   3795000   0.049475359   -0.82570574     0.048478376   -0.7030622      0.0028511382 
   3796000   0.050829598   -0.82821127     0.046570769   -0.7054453      0.0023524858 
   3797000   0.050028427   -0.82798506     0.047498494   -0.70549234    -0.0081129244 
   3798000   0.052231578   -0.82678807     0.049064921   -0.69942633     0.00016593047
   3799000   0.049950653   -0.82572136     0.047312876   -0.70353085     0.0039114575 
   3800000   0.05111672    -0.82497123     0.04756273    -0.70078289    -0.0035538915 
   3801000   0.050032734   -0.82567709     0.046589896   -0.70408651    -0.001773944  
   3802000   0.048677849   -0.82636834     0.044636434   -0.70876224    -0.002865093  
   3803000   0.048604139   -0.82621141     0.048178559   -0.70517368     0.0025860979 
   3804000   0.049790274   -0.8268261      0.046258873   -0.70593       -0.0043260798 
   3805000   0.048202591   -0.82710286     0.047568247   -0.70727738    -0.0047155529 
   3806000   0.050295943   -0.82509877     0.044991106   -0.70471243     0.0061841699 
   3807000   0.049608296   -0.82558294     0.045833155   -0.70538535    -0.001289038  
   3808000   0.05016957    -0.82512277     0.04706702    -0.70284995     0.0022235049 
   3809000   0.049684594   -0.82566804     0.047104596   -0.70408464     0.004601452  
   3810000   0.050900912   -0.82868676     0.044961362   -0.70742329    -0.0069246794 
   3811000   0.05072833    -0.82708707     0.045908846   -0.70513482    -0.0017786289 
   3812000   0.050557622   -0.8255617      0.046193049   -0.70358115     0.0067634878 
   3813000   0.049864974   -0.82702685     0.048205272   -0.70407238     0.00064212079
   3814000   0.050147562   -0.82633927     0.047096231   -0.70407023    -0.0071722786 
   3815000   0.05251421    -0.82638907     0.045230989   -0.70243759    -0.00052828899
   3816000   0.051025359   -0.82708502     0.045663377   -0.70493299    -0.0057244262 
   3817000   0.049220851   -0.8282595      0.048448019   -0.70602784    -0.0033094649 
   3818000   0.049241629   -0.82628975     0.048080066   -0.70439489     0.0029527405 
   3819000   0.049576236   -0.82668882     0.048170502   -0.70420195    -0.00010314173
   3820000   0.048537343   -0.82536462     0.046820316   -0.70578526     0.0042457231 
   3821000   0.050380037   -0.82779621     0.045790318   -0.70648459     0.0027919651 
   3822000   0.051242578   -0.82678343     0.046000161   -0.70396899    -0.011714486  
   3823000   0.04958572    -0.82471015     0.045582191   -0.70479736     0.0029555091 
   3824000   0.050340629   -0.8256323      0.046671755   -0.70349832     0.0026091335 
   3825000   0.050786311   -0.82798636     0.047767003   -0.70408904     0.0030652411 
   3826000   0.049795142   -0.82627351     0.049180533   -0.70244845    -0.0025689768 
   3827000   0.049114128   -0.82594236     0.045984987   -0.70633371     0.0044673588 
   3828000   0.050439663   -0.82606056     0.047662342   -0.70278753    -0.0020448284 
   3829000   0.051595923   -0.82560568     0.045153189   -0.70310853     0.0038429504 
   3830000   0.051207343   -0.82722933     0.047785143   -0.70268273    -0.0013774032 
   3831000   0.05037165    -0.82643213     0.045179519   -0.70574388    -0.0034996229 
   3832000   0.050069044   -0.82618054     0.046432747   -0.70469268     0.0046428867 
   3833000   0.04999987    -0.82461797     0.046241602   -0.70342495     0.0040127994 
   3834000   0.050169584   -0.82767052     0.048205868   -0.70425883    -0.0015339026 
   3835000   0.049726167   -0.82625153     0.045554145   -0.70615625     0.0032400207 
   3836000   0.049343478   -0.82703193     0.046941756   -0.7061227      0.0047426744 
   3837000   0.04975535    -0.82660219     0.046826437   -0.70519088    -0.0038684349 
   3838000   0.05078794    -0.82652353     0.04552138    -0.70486939    -0.00038826047
   3839000   0.048765895   -0.82695162     0.04786019    -0.70598978    -0.0025245741 
   3840000   0.048897861   -0.82656982     0.047226849   -0.7060435     -0.0057807632 
   3841000   0.050465313   -0.82640475     0.047462588   -0.70329303    -0.00069329263
   3842000   0.05106383    -0.8252055      0.045961311   -0.70269786     0.0049318437 
   3843000   0.049848994   -0.82652369     0.04376247    -0.70803597    -0.0030527093 
   3844000   0.048380274   -0.82700666     0.04742193    -0.70706114    -0.0028994355 
   3845000   0.047867485   -0.8259072      0.046407822   -0.70774448     0.0032459961 
   3846000   0.05023207    -0.82625533     0.046333051   -0.70462279    -2.7256548e-05
   3847000   0.05121683    -0.82780533     0.047348365   -0.70368128    -0.013474637  
   3848000   0.050684124   -0.82620348     0.04642562    -0.70380073    -0.0064536862 
   3849000   0.051644676   -0.8269196      0.048017059   -0.7014855     -0.00024198448
   3850000   0.050508211   -0.82544703     0.046001666   -0.70373193     0.0066264017 
   3851000   0.049345552   -0.82666057     0.048017354   -0.70467265    -0.00083205393
   3852000   0.048936597   -0.82737478     0.048962025   -0.70505522     0.003187133  
   3853000   0.04935159    -0.82878948     0.049747131   -0.70506273    -0.0048669885 
   3854000   0.05039459    -0.82769775     0.048097088   -0.70405754    -0.0068602365 
   3855000   0.049691597   -0.82624296     0.048060853   -0.7036928     -3.6680534e-05
   3856000   0.04983086    -0.82629186     0.046621174   -0.70497263     0.00016774256
   3857000   0.05070582    -0.82543422     0.045755496   -0.70366907    -0.0011293114 
   3858000   0.050126732   -0.82604182     0.046250572   -0.70464966     0.0076817917 
   3859000   0.047722816   -0.82628601     0.047690855   -0.70705711     0.0044429677 
   3860000   0.048322182   -0.82634866     0.04677493    -0.70713722    -0.00017872235
   3861000   0.048797161   -0.82548252     0.044964896   -0.70736911     0.0029792185 
   3862000   0.048729541   -0.8271512      0.046520104   -0.70758394    -0.003384227  
   3863000   0.051007745   -0.82667781     0.04614819    -0.70406736    -0.0072256149 
   3864000   0.051354751   -0.82660331     0.046481329   -0.70313955     0.0020135912 
   3865000   0.048585476   -0.82672685     0.047990743   -0.70590491     0.0017728862 
   3866000   0.049116424   -0.82666347     0.046234154   -0.70680221     0.0010678861 
   3867000   0.050981245   -0.82765032     0.04782718    -0.70340061    -0.0047254846 
   3868000   0.05064082    -0.82547574     0.045517418   -0.7040461      0.0034982313 
   3869000   0.050352131   -0.8258556      0.047467613   -0.70290852    -0.0040164961 
   3870000   0.048936245   -0.82644341     0.045064428   -0.70802197     0.0020523872 
   3871000   0.04850703    -0.82645168     0.04481228    -0.7089258     -0.0064368635 
   3872000   0.049425078   -0.82866676     0.046133712   -0.70844327    -0.0038331059 
   3873000   0.052082185   -0.82758264     0.046470563   -0.7030392     -0.0055415471 
   3874000   0.049395786   -0.82578176     0.04752932    -0.70420656    -0.00094694772
   3875000   0.049071465   -0.82712376     0.04580998    -0.70775407    -0.00094890905
   3876000   0.047273823   -0.8267097      0.044606734   -0.71123798    -0.00014076259
   3877000   0.050596878   -0.82598603     0.043632084   -0.70650759    -0.001957741  
   3878000   0.050989545   -0.82656485     0.045569802   -0.70456007     0.0052189004 
   3879000   0.049027494   -0.82680914     0.046893713   -0.70642163    -0.0057969288 
   3880000   0.048796543   -0.82719681     0.048342855   -0.70570637     0.0044366565 
   3881000   0.049513666   -0.82640448     0.046019584   -0.70616231    -0.0058483516 
   3882000   0.050594953   -0.82606913     0.045987893   -0.70423777    -0.0014581189 
   3883000   0.049306048   -0.82798921     0.045188236   -0.70888961    -0.0063859535 
   3884000   0.048983749   -0.82524017     0.048158289   -0.70365366     0.0090662577 
   3885000   0.051121736   -0.8270081      0.048197677   -0.7021773      0.0097832566 
   3886000   0.049736518   -0.82638396     0.046187056   -0.70564026    -0.003777332  
   3887000   0.047778665   -0.82700978     0.047018557   -0.70836946    -0.003346276  
   3888000   0.049505441   -0.82737468     0.047018513   -0.70614592    -0.0028488043 
   3889000   0.050662464   -0.82629982     0.047801354   -0.7025538     -0.0028103474 
   3890000   0.049941198   -0.82596463     0.046329407   -0.70477175    -0.00010941579
   3891000   0.049975398   -0.82554579     0.046111663   -0.70451939    -0.0019075107 
   3892000   0.050057317   -0.8254763      0.045248364   -0.7051904      0.0034504243 
   3893000   0.050050029   -0.82490045     0.045717603   -0.70415624     0.0070841107 
   3894000   0.050012017   -0.82581581     0.048609098   -0.70223708    -0.0052607247 
   3895000   0.052710871   -0.82765586     0.048131477   -0.70050908    -0.0048174536 
   3896000   0.051045949   -0.82685513     0.045807015   -0.70452859    -0.0047377587 
   3897000   0.049784136   -0.82615334     0.048615527   -0.70290978    -0.0023855284 
   3898000   0.051033774   -0.82560252     0.049515984   -0.69958526    -0.0020548077 
   3899000   0.05120188    -0.82462275     0.046430576   -0.70143891     0.0063324904 
   3900000   0.049221638   -0.82674743     0.045942521   -0.70702008    -0.0042250562 
   3901000   0.049062206   -0.82662673     0.046050832   -0.70703007    -0.00019222572
   3902000   0.05227027    -0.82674369     0.046733947   -0.70165492    -0.0075463646 
   3903000   0.050166755   -0.82752728     0.04687721    -0.70544848    -0.0052612499 
   3904000   0.049109927   -0.82560098     0.04619807    -0.70578555     0.0039219031 
   3905000   0.049458277   -0.82642341     0.047022673   -0.70526119    -0.00064866058
   3906000   0.049101011   -0.82679824     0.047800834   -0.7053934      0.0023805066 
   3907000   0.050572299   -0.82493723     0.046804338   -0.70232339     0.0094674864 
   3908000   0.050128248   -0.82566229     0.046474012   -0.70404442    -0.003977061  
   3909000   0.048653131   -0.82444715     0.04818657    -0.70332797    -0.00025411147
   3910000   0.052212614   -0.82610821     0.045644847   -0.70219497    -0.00024705137
   3911000   0.048976901   -0.82665561     0.047681765   -0.70555589    -0.0010563659 
   3912000   0.050371426   -0.82429006     0.044381539   -0.70440013     0.013501282  
   3913000   0.050489071   -0.82705416     0.047529305   -0.70384011     0.0020528292 
   3914000   0.050248567   -0.82475083     0.047144558   -0.70228205     0.0016422364 
   3915000   0.051125575   -0.82600891     0.046296872   -0.70307315     0.0024048929 
   3916000   0.048413397   -0.82875846     0.049322744   -0.70686247    -0.014408224  
   3917000   0.050136267   -0.82650644     0.047997146   -0.70335341    -0.0086368129 
   3918000   0.04894921    -0.82706513     0.046472286   -0.7072164     -0.010029353  
   3919000   0.049397589   -0.82746864     0.047808228   -0.70561183    -0.0016586128 
   3920000   0.048210846   -0.82644127     0.046620489   -0.70755117     0.0026136557 
   3921000   0.051179161   -0.82598878     0.045229932   -0.70403964     0.0011146528 
   3922000   0.050226439   -0.82718823     0.046251763   -0.70564541    -0.0069323057 
   3923000   0.050554531   -0.82777108     0.049495455   -0.70249275    -0.0050692086 
   3924000   0.048698035   -0.82597146     0.046296427   -0.70667511    -0.0028667365 
   3925000   0.050656535   -0.82693658     0.046299039   -0.70470176    -0.0071618009 
   3926000   0.051789827   -0.82511749     0.04750349    -0.69997938     0.0041611593 
   3927000   0.051497451   -0.8275048      0.046414474   -0.70389398    -0.0039141206 
   3928000   0.049956051   -0.82615331     0.046323209   -0.70494437    -0.0020803314 
   3929000   0.05013699    -0.82627877     0.046424121   -0.70469768     0.0020157472 
   3930000   0.049206877   -0.82747556     0.047976769   -0.7057361     -0.0095072822 
   3931000   0.050741008   -0.82719791     0.049607841   -0.70152766    -0.011441643  
   3932000   0.049899364   -0.8268218      0.050325429   -0.70169562    -0.00072288055
   3933000   0.051345938   -0.82664132     0.04944757    -0.70022454    -0.0029902136 
   3934000   0.050340525   -0.82682908     0.045548766   -0.70581824     0.0038094219 
   3935000   0.048754157   -0.82645805     0.046454783   -0.70691922    -0.0043601872 
   3936000   0.050232944   -0.82604727     0.044167131   -0.70657933     0.0059583184 
   3937000   0.050666979   -0.82596639     0.047708121   -0.70230684    -0.0053556521 
   3938000   0.049147419   -0.82541403     0.046441373   -0.70529909    -0.0040771081 
   3939000   0.049194675   -0.82579753     0.045792022   -0.7062611      0.0011647668 
   3940000   0.048569038   -0.82462568     0.047264596   -0.70455453    -0.0035576488 
   3941000   0.049794273   -0.82644877     0.046658104   -0.70514745    -0.012055082  
   3942000   0.049650399   -0.82834424     0.046701756   -0.70721494    -0.0074055789 
   3943000   0.050671239   -0.82817557     0.049762984   -0.70245477    -0.006157426  
   3944000   0.049300015   -0.82671112     0.047397553   -0.70541125    -0.0073975502 
   3945000   0.048445836   -0.82615086     0.04548318    -0.7080458      0.0024586784 
   3946000   0.0485214     -0.82780642     0.049060178   -0.7060111     -0.0031174531 
   3947000   0.048549419   -0.82848815     0.049635573   -0.70607543    -0.0096988596 
   3948000   0.051335692   -0.82703207     0.047010786   -0.70306742     0.0022139032 
   3949000   0.049869868   -0.82694016     0.045329676   -0.70685394    -0.0077840784 
   3950000   0.05139642    -0.82672819     0.045979352   -0.70370394    -0.0084045123 
   3951000   0.049590676   -0.82607093     0.046274573   -0.70545834     0.0057380769 
   3952000   0.051272266   -0.82553159     0.046107684   -0.70256513     0.00095011347
   3953000   0.049659958   -0.82743848     0.046752997   -0.70624361    -0.0049647212 
   3954000   0.05028458    -0.82752559     0.045916403   -0.70623098    -0.0016958187 
   3955000   0.05072611    -0.82594664     0.048155049   -0.70175152     0.0045548234 
   3956000   0.051423354   -0.82528708     0.045584367   -0.70261745     0.013053948  
   3957000   0.050476564   -0.82683482     0.04667517    -0.70449366    -0.00108231   
   3958000   0.049622366   -0.82751006     0.045707894   -0.70741664    -0.0019410343 
   3959000   0.050240596   -0.82760075     0.045830478   -0.706458      -0.0034723976 
   3960000   0.047787674   -0.82502204     0.046220274   -0.7071665      0.0015542703 
   3961000   0.051378769   -0.82621057     0.047529722   -0.70166242    -0.0022734461 
   3962000   0.051274264   -0.82584086     0.047594096   -0.70138499     0.0023914976 
   3963000   0.049825216   -0.82707374     0.045646752   -0.70673738    -0.0068287891 
   3964000   0.04979689    -0.82604439     0.043961824   -0.70743542    -0.00089329379
   3965000   0.051064843   -0.82791049     0.046793728   -0.70456892    -0.0034329077 
   3966000   0.051504892   -0.82913236     0.048071918   -0.70385295    -0.0045607214 
   3967000   0.051036734   -0.82685827     0.046941592   -0.70341097     0.0015225348 
   3968000   0.050421818   -0.82624357     0.04698477    -0.70367487    -0.00489533   
   3969000   0.049625476   -0.82569863     0.046723696   -0.70458475     1.0665442e-06
   3970000   0.049010177   -0.82529255     0.04820908    -0.70361564     0.0049684299 
   3971000   0.050171718   -0.82503672     0.045225521   -0.70460218     0.0036345934 
   3972000   0.050523274   -0.82661201     0.046803811   -0.70407218    -0.0045285876 
   3973000   0.052210416   -0.8269921      0.045218076   -0.70350893    -0.0033800539 
   3974000   0.049225369   -0.82679279     0.047921203   -0.70508117    -0.001747826  
   3975000   0.050233808   -0.82637671     0.046776501   -0.70429811    -0.0065264685 
   3976000   0.049162039   -0.8267491      0.047980132   -0.70507348    -0.0054347403 
   3977000   0.049023066   -0.82526088     0.047722883   -0.70405084     0.0042053886 
   3978000   0.049033703   -0.82726643     0.047290268   -0.70647306    -0.00010926032
   3979000   0.050279809   -0.82595315     0.044302544   -0.70627955     0.0030216158 
   3980000   0.049107319   -0.82718028     0.04600441    -0.70756242     0.00079591069
   3981000   0.049929777   -0.82764756     0.046028874   -0.70677233    -0.00041158781
   3982000   0.049072758   -0.82599843     0.046021762   -0.70641502     0.0011815311 
   3983000   0.050236272   -0.82706843     0.046495376   -0.70526726    -0.0012375881 
   3984000   0.048470497   -0.82722297     0.045850619   -0.70871352     0.0010652599 
   3985000   0.05117038    -0.82769903     0.046408727   -0.70458425    -0.00081602221
   3986000   0.049989595   -0.82648035     0.045794677   -0.70574966     0.0040163961 
   3987000   0.049426998   -0.82669057     0.045246474   -0.70735143     0.001379044  
   3988000   0.050953451   -0.82722274     0.045026465   -0.70581541    -0.0051308085 
   3989000   0.049921291   -0.82710999     0.046421855   -0.70585451    -0.0055120364 
   3990000   0.051667955   -0.82514167     0.046137882   -0.70155186     0.0044541251 
   3991000   0.050838495   -0.82459506     0.045617157   -0.70276936    -0.0053014132 
   3992000   0.052474193   -0.82685182     0.045937099   -0.70225421    -0.0019260761 
   3993000   0.050289754   -0.82720855     0.0465729     -0.70524969    -0.0017649121 
   3994000   0.049224008   -0.82633055     0.045490509   -0.70705166     0.0030466237 
   3995000   0.050923455   -0.8267188      0.047031576   -0.70335132    -0.0069155328 
   3996000   0.048755293   -0.82662605     0.047174507   -0.70636579    -0.0066223862 
   3997000   0.049016931   -0.82595797     0.04489464    -0.70758536     0.00013149159
   3998000   0.051350605   -0.82662434     0.047006582   -0.70264155     0.00058405641
   3999000   0.050241574   -0.82489363     0.046256044   -0.70332384     0.0060989193 
   4000000   0.050391213   -0.82639156     0.044832673   -0.70602084    -0.00049544631
Loop time of 1133.29 on 8 procs for 3500000 steps with 1550 atoms

Performance: 266832.621 tau/day, 3088.341 timesteps/s, 4.787 Matom-step/s
92.6% CPU use with 8 MPI tasks x 1 OpenMP threads

MPI task timing breakdown:
Section |  min time  |  avg time  |  max time  |%varavg| %total
---------------------------------------------------------------
Pair    | 130.26     | 187.52     | 286.04     | 323.0 | 16.55
Bond    | 29.451     | 38.391     | 49.714     |  93.9 |  3.39
Neigh   | 0.60053    | 0.60151    | 0.60229    |   0.1 |  0.05
Comm    | 83.213     | 192.47     | 259.98     | 361.0 | 16.98
Output  | 9.1733     | 9.3299     | 9.4752     |   3.4 |  0.82
Modify  | 692.7      | 694.98     | 697.21     |   5.8 | 61.32
Other   |            | 10         |            |       |  0.88

Nlocal:         193.75 ave         345 max         103 min
Histogram: 1 1 0 5 0 0 0 0 0 1
Nghost:         710.75 ave         808 max         655 min
Histogram: 2 1 2 0 1 0 1 0 0 1
Neighs:              0 ave           0 max           0 min
Histogram: 8 0 0 0 0 0 0 0 0 0
FullNghs:      5126.25 ave       11248 max        2189 min
Histogram: 1 1 4 0 1 0 0 0 0 1

Total # of neighbors = 41010
Ave neighs/atom = 26.458065
Ave special neighs/atom = 2.1612903
Neighbor list builds = 1458
Dangerous builds = 0

# Write data for deformation

write_restart ${Dir}/${file6_name}
write_restart /home/franvt/GitRepos/molDynLammps/polymericGels/gel-bonds-1/data/0.050.30.05500-2026-01-26-101526/${file6_name}
write_restart /home/franvt/GitRepos/molDynLammps/polymericGels/gel-bonds-1/data/0.050.30.05500-2026-01-26-101526/data.hydrogel
System init for write_restart ...
WARNING: Using a manybody potential with bonds/angles/dihedrals and special_bond exclusions (src/pair.cpp:250)
Hybrid pair style last /omp style table/omp
Last active /omp style is angle_style harmonic/omp
Total wall time: 0:21:13
