LAMMPS (22 Jul 2025)
OMP_NUM_THREADS environment is not set. Defaulting to 1 thread.
  using 1 OpenMP thread(s) per MPI task
package omp 0
using multi-threaded neighbor list subroutines
# Input Script of lammps for assembly simulation of polimeric network.
# Main code is based on: https://github.com/PipeB62/Hydrogel-Simulation
# Patchy particles are with bond style.

# Felipe Benavides modified by Fco. Vazquez

# Initialization
units lj
dimension 3
boundary p p p

# Styles of atoms and that stuff
atom_style full
bond_style harmonic
angle_style harmonic
pair_style hybrid/overlay zero 0.0 lj/cut/omp 1.12 table/omp linear 5000000 threebody/table

newton on

# Create simulaiton box
region simulation_box block -$L $L -$L $L -$L $L
region simulation_box block -9.796741 $L -$L $L -$L $L
region simulation_box block -9.796741 9.796741 -$L $L -$L $L
region simulation_box block -9.796741 9.796741 -9.796741 $L -$L $L
region simulation_box block -9.796741 9.796741 -9.796741 9.796741 -$L $L
region simulation_box block -9.796741 9.796741 -9.796741 9.796741 -9.796741 $L
region simulation_box block -9.796741 9.796741 -9.796741 9.796741 -9.796741 9.796741
# N-atom-types region-ID keyword value Is necesesary the extra/special/per/atom (# of special neighbors per atom)
create_box 4 simulation_box     bond/types 1     angle/types 2     extra/bond/per/atom 10     extra/angle/per/atom 6     extra/special/per/atom 10
Created orthogonal box = (-9.796741 -9.796741 -9.796741) to (9.796741 9.796741 9.796741)
  2 by 2 by 2 MPI processor grid

# Atom types
mass 1 1.0      # CL
mass 2 1.0      # MO
mass 3 1.0      # PA
mass 4 1.0      # PB

# Coefficients
include potential.in
# Script with the pair-wise interaction and bonds between particles

bond_coeff 1 100.0 0.45
angle_coeff 1 100.0 180
angle_coeff 2 100.0 109.4712
pair_coeff 1 3 zero 0.5
pair_coeff 1 4 zero 0.5
pair_coeff 2 3 zero 0.5
pair_coeff 2 4 zero 0.5
pair_coeff 3 3 zero 0.5
pair_coeff 1 1 lj/cut/omp 1.0 1.0 1.12
pair_coeff 2 2 lj/cut/omp 1.0 1.0 1.12
pair_coeff 1 2 lj/cut/omp 1.0 1.0 1.12
pair_coeff 3 4 table/omp sysFiles/pachTab.table POT 0.6 # sw/omp sysFiles/patchyPot.sw NULL NULL PA PB
Reading pair table potential file sysFiles/pachTab.table with DATE: 2024-07-08
WARNING: 7 of 1000000 force values in table POT are inconsistent with -dE/dr.
WARNING:  Should only be flagged at inflection points (src/pair_table.cpp:469)
pair_coeff 4 4 table/omp sysFiles/pachTab.table POT 0.6 # sw/omp sysFiles/patchyPot.sw NULL NULL PA PB
Reading pair table potential file sysFiles/pachTab.table with DATE: 2024-07-08
WARNING: 7 of 1000000 force values in table POT are inconsistent with -dE/dr.
WARNING:  Should only be flagged at inflection points (src/pair_table.cpp:469)
pair_coeff * * threebody/table swapMech.3b NULL NULL PA PB
pair_modify pair lj/cut/omp shift yes


# Molecules
include molecules.in
# Script with all molecule information and create groups for computes

# Read the molecule information
molecule CL sysFiles/molecule.patchy.CL
Read molecule template CL:
# Patchy Cross-Linker
  1 molecules
  0 fragments
  0 bodies
  5 atoms with max type 3
  4 bonds with max type 1
  6 angles with max type 2
  0 dihedrals with max type 0
  0 impropers with max type 0
molecule MO sysFiles/molecule.patchy.MO
Read molecule template MO:
# Patchy Monomer
  1 molecules
  0 fragments
  0 bodies
  3 atoms with max type 4
  2 bonds with max type 1
  1 angles with max type 1
  0 dihedrals with max type 0
  0 impropers with max type 0

# Introduce the molecules
# ID style args keyword arg
region spawn_box block -$L $L -$L $L -$L $L
region spawn_box block -9.796741 $L -$L $L -$L $L
region spawn_box block -9.796741 9.796741 -$L $L -$L $L
region spawn_box block -9.796741 9.796741 -9.796741 $L -$L $L
region spawn_box block -9.796741 9.796741 -9.796741 9.796741 -$L $L
region spawn_box block -9.796741 9.796741 -9.796741 9.796741 -9.796741 $L
region spawn_box block -9.796741 9.796741 -9.796741 9.796741 -9.796741 9.796741

# create_atoms type style args keyword values
# style_random: N seed region-ID
# keyword_mol: template-ID seed
# keyword_overlap: overlap value = only insert if at least this distance from all existing atoms
# keyword_maxtry: maxtry value = number of attempts to insert a particle before failure
create_atoms 0 random ${NCL} ${seed1} spawn_box mol CL ${seed1} overlap 1.0 maxtry 5000 #xls
create_atoms 0 random 25 ${seed1} spawn_box mol CL ${seed1} overlap 1.0 maxtry 5000 
create_atoms 0 random 25 3234 spawn_box mol CL ${seed1} overlap 1.0 maxtry 5000 
create_atoms 0 random 25 3234 spawn_box mol CL 3234 overlap 1.0 maxtry 5000 
Created 125 atoms
  using lattice units in orthogonal box = (-9.796741 -9.796741 -9.796741) to (9.796741 9.796741 9.796741)
  create_atoms CPU = 0.009 seconds
create_atoms 0 random ${NMO} ${seed2} spawn_box mol MO ${seed2} overlap 1.0 maxtry 5000 #mon
create_atoms 0 random 475 ${seed2} spawn_box mol MO ${seed2} overlap 1.0 maxtry 5000 
create_atoms 0 random 475 6321 spawn_box mol MO ${seed2} overlap 1.0 maxtry 5000 
create_atoms 0 random 475 6321 spawn_box mol MO 6321 overlap 1.0 maxtry 5000 
Created 1425 atoms
  using lattice units in orthogonal box = (-9.796741 -9.796741 -9.796741) to (9.796741 9.796741 9.796741)
  create_atoms CPU = 0.006 seconds

# Create patchy particles
group CrossLinker type 1 3
125 atoms in group CrossLinker
group Monomer type 2 4
1425 atoms in group Monomer
group Patches type 3 4
1050 atoms in group Patches
group CL type 1
25 atoms in group CL
group MO type 2
475 atoms in group MO
group PA type 3
100 atoms in group PA
group CM type 1 2
500 atoms in group CM

# Neighbor list
neighbor 1.8 bin # extra-distance style
#neigh_modify delay 0 every 1 check no
#neigh_modify exclude molecule/intra CrossLinker
#neigh_modify exclude molecule/intra Monomer

# COMPUTES

# Compute global kinetic and potential energy and temperature
compute t all temp
compute p all pressure t
compute ep all pe
compute ek all ke
variable eT equal etotal
variable eB equal ebond
variable eA equal eangle
variable eM equal emol
variable ec equal ecouple
variable eC equal econserve

# Potencial energy per pair-wise interaction
compute wcaPair all pair lj/cut/omp epair
compute patchPair all pair table/omp epair
compute swapPair all pair threebody/table epair

# Compute the pressure
compute press all pressure t ke virial
compute pressVirial all pressure t virial
compute pressVirialMod all pressure t pair bond angle

# Computes for the stress
compute cstress all stress/atom t ke pair bond angle
compute cstressVirial all stress/atom t virial
compute cstressVirialMod all stress/atom t pair bond angle
compute stress all reduce sum c_cstress[*]
compute stressVirial all reduce sum c_cstressVirial[*]
compute stressVirialMod all reduce sum c_cstressVirialMod[*]

# Displacement of the central particles
compute disp CM displace/atom
compute redDisp CM reduce ave c_disp[*] # All, because yes

# Get the number of central particles per cluster
compute clusters all aggregate/atom 0.6                             # Create the clusters
compute Nclpart CM chunk/atom c_clusters compress yes discard yes   # Get the number of clusters
compute clsize CM property/chunk Nclpart count                      # Counts the atoms in each chunk
compute idcl CM property/chunk Nclpart id                           # Get the ids of the clusters

# DUMPS and FIXES

thermo ${NsaveStress}
thermo 1000

# Save global energies and temperature
fix Energy all ave/time 1 ${Nsave} ${Nsave} c_t c_wcaPair c_patchPair c_swapPair c_ep c_ek v_eT v_ec v_eC c_p v_eB v_eA v_eM c_redDisp[*] file ${Dir}/${file1_name}
fix Energy all ave/time 1 1000 ${Nsave} c_t c_wcaPair c_patchPair c_swapPair c_ep c_ek v_eT v_ec v_eC c_p v_eB v_eA v_eM c_redDisp[*] file ${Dir}/${file1_name}
fix Energy all ave/time 1 1000 1000 c_t c_wcaPair c_patchPair c_swapPair c_ep c_ek v_eT v_ec v_eC c_p v_eB v_eA v_eM c_redDisp[*] file ${Dir}/${file1_name}
fix Energy all ave/time 1 1000 1000 c_t c_wcaPair c_patchPair c_swapPair c_ep c_ek v_eT v_ec v_eC c_p v_eB v_eA v_eM c_redDisp[*] file /home/franvt/GitRepos/molDynLammps/polymericGels/gel-bonds-1/data/0.050.30.05500-2026-01-27-123757/${file1_name}
fix Energy all ave/time 1 1000 1000 c_t c_wcaPair c_patchPair c_swapPair c_ep c_ek v_eT v_ec v_eC c_p v_eB v_eA v_eM c_redDisp[*] file /home/franvt/GitRepos/molDynLammps/polymericGels/gel-bonds-1/data/0.050.30.05500-2026-01-27-123757/system_assembly.fixf

# Save Pressure and Stress tensor
fix fixStress5 all ave/time 1 ${NsaveStress} ${NsaveStress} c_p c_press[*] c_pressVirial[*] c_pressVirialMod[*] c_stress[*] c_stressVirial[*] c_stressVirialMod[*] file ${Dir}/${file2_name}
fix fixStress5 all ave/time 1 1000 ${NsaveStress} c_p c_press[*] c_pressVirial[*] c_pressVirialMod[*] c_stress[*] c_stressVirial[*] c_stressVirialMod[*] file ${Dir}/${file2_name}
fix fixStress5 all ave/time 1 1000 1000 c_p c_press[*] c_pressVirial[*] c_pressVirialMod[*] c_stress[*] c_stressVirial[*] c_stressVirialMod[*] file ${Dir}/${file2_name}
fix fixStress5 all ave/time 1 1000 1000 c_p c_press[*] c_pressVirial[*] c_pressVirialMod[*] c_stress[*] c_stressVirial[*] c_stressVirialMod[*] file /home/franvt/GitRepos/molDynLammps/polymericGels/gel-bonds-1/data/0.050.30.05500-2026-01-27-123757/${file2_name}
fix fixStress5 all ave/time 1 1000 1000 c_p c_press[*] c_pressVirial[*] c_pressVirialMod[*] c_stress[*] c_stressVirial[*] c_stressVirialMod[*] file /home/franvt/GitRepos/molDynLammps/polymericGels/gel-bonds-1/data/0.050.30.05500-2026-01-27-123757/stress_assembly.fixf

# Save the global cluster information
fix 1 CM ave/time 1 1 ${Ndump} c_idcl c_clsize file ${Dir}/${file3_name} mode vector
fix 1 CM ave/time 1 1 1000 c_idcl c_clsize file ${Dir}/${file3_name} mode vector
fix 1 CM ave/time 1 1 1000 c_idcl c_clsize file /home/franvt/GitRepos/molDynLammps/polymericGels/gel-bonds-1/data/0.050.30.05500-2026-01-27-123757/${file3_name} mode vector
fix 1 CM ave/time 1 1 1000 c_idcl c_clsize file /home/franvt/GitRepos/molDynLammps/polymericGels/gel-bonds-1/data/0.050.30.05500-2026-01-27-123757/clust_assembly.fixf mode vector

# Save atom positions with cluster id
dump dumpID all custom ${Ndump} ${Dir}/traj/${file5_name} id mol c_clusters type x y z vx vy vz
dump dumpID all custom 1000 ${Dir}/traj/${file5_name} id mol c_clusters type x y z vx vy vz
dump dumpID all custom 1000 /home/franvt/GitRepos/molDynLammps/polymericGels/gel-bonds-1/data/0.050.30.05500-2026-01-27-123757/traj/${file5_name} id mol c_clusters type x y z vx vy vz
dump dumpID all custom 1000 /home/franvt/GitRepos/molDynLammps/polymericGels/gel-bonds-1/data/0.050.30.05500-2026-01-27-123757/traj/traj_assembly.*.dumpf id mol c_clusters type x y z vx vy vz
dump_modify dumpID pbc yes # remap atoms via periodic boundary conditions

# RUN SIMULATION

# Brownian Dynamics using Langevin Thermostat

timestep ${tstep}
timestep 0.001

fix VelVerlet all nve # Use Velocity Verlet integrator

# First elevate the temperature
fix ThermoLng all langevin 0.0 ${temp} ${damp} ${seed3} tally yes zero yes # Brownian Dynamics: langevin + nve
fix ThermoLng all langevin 0.0 0.05 ${damp} ${seed3} tally yes zero yes 
fix ThermoLng all langevin 0.0 0.05 1 ${seed3} tally yes zero yes 
fix ThermoLng all langevin 0.0 0.05 1 2010 tally yes zero yes 
run ${stepsheat}
run 500000
WARNING: Using a manybody potential with bonds/angles/dihedrals and special_bond exclusions (src/pair.cpp:250)
Hybrid pair style last /omp style table/omp
Last active /omp style is angle_style harmonic/omp
Neighbor list info ...
  update: every = 1 steps, delay = 0 steps, check = yes
  max neighbors/atom: 2000, page size: 100000
  master list distance cutoff = 2.92
  ghost atom cutoff = 2.92
  binsize = 1.46, bins = 14 14 14
  7 neighbor lists, perpetual/occasional/extra = 6 1 0
  (1) pair zero, perpetual, skip from (7)
      attributes: half, newton on, omp
      pair build: skip/omp
      stencil: none
      bin: none
  (2) pair lj/cut/omp, perpetual, skip from (7)
      attributes: half, newton on, omp
      pair build: skip/omp
      stencil: none
      bin: none
  (3) pair table/omp, perpetual, skip from (7)
      attributes: half, newton on, omp
      pair build: skip/omp
      stencil: none
      bin: none
  (4) pair threebody/table, perpetual, skip from (6)
      attributes: full, newton on, omp
      pair build: skip/omp
      stencil: none
      bin: none
  (5) compute aggregate/atom, occasional, copy from (6)
      attributes: full, newton on, omp
      pair build: copy
      stencil: none
      bin: none
  (6) neighbor class addition, perpetual
      attributes: full, newton on, omp
      pair build: full/bin/omp
      stencil: full/bin/3d
      bin: standard
  (7) neighbor class addition, perpetual, half/full from (6)
      attributes: half, newton on, omp
      pair build: halffull/newton/omp
      stencil: none
      bin: none
Per MPI rank memory allocation (min/avg/max) = 20.03 | 20.03 | 20.03 Mbytes
   Step          Temp          E_pair         E_mol          TotEng         Press     
         0   0              0.00041490155  0.15480456     0.15521947    -0.21361809   
      1000   0.038128237    0              0.00013757075  0.057293028    0.0036255212 
      2000   0.00015524756  8.543009e-08   0.020977048    0.021209855    0.068369326  
      3000   0.0053601671   0              0.0001566732   0.0081917366   0.0024773034 
      4000   0.00032043582  0              0.0030278828   0.0035082264  -0.026562159  
      5000   0.0011098552   0              0.00027894739  0.0019426561  -0.0005261401 
      6000   0.00052871377  0              0.00073390715  0.0015264661   0.0095531329 
      7000   0.00072896697  0              0.00040823029  0.0015009753  -1.2979742e-05
      8000   0.0007251149   0              0.00053299756  0.0016199682  -0.0032626071 
      9000   0.00081771509  1.3387704e-06  0.00052435467  0.0017514747   2.4759112e-06
     10000   0.00090243713  0              0.0006006103   0.0019533927   0.0011493598 
     11000   0.0010197323   0              0.00066288448  0.0021914962  -0.00042254769
     12000   0.0011051079   0              0.00072884253  0.0023854349  -0.00024522879
     13000   0.0011985165   0              0.00078137006  0.0025779849   0.00057614678
     14000   0.0013249056   0              0.00085482435  0.0028409006   0.00081224385
     15000   0.0014112991   0              0.00096232634  0.0030779093  -0.00010780047
     16000   0.0015343975   0              0.0010154688   0.0033155802  -0.00081771796
     17000   0.0016020278   4.7441589e-08  0.0010642477   0.0034657865   0.00030980887
     18000   0.0017598133   0              0.0011497192   0.003787736    0.0012942109 
     19000   0.0018430414   0              0.0012059735   0.003968752    5.7970273e-05
     20000   0.0019080305   0              0.0012946994   0.0041548986  -0.00044607826
     21000   0.001992366    5.7799363e-07  0.0013610759   0.0043482748   0.00069963965
     22000   0.0021283243  -3.6672612e-09  0.0014649008   0.0046553239   0.00056659963
     23000   0.0025735469  -0.0015218821   0.0017283014   0.004064249    0.00012610136
     24000   0.0024444094  -0.0016039619   0.0016864538   0.0037467405  -0.00025353478
     25000   0.0024681684  -0.0016016608   0.0016795706   0.0037777739  -0.00025316254
     26000   0.0025092316  -0.001589946    0.001707866    0.0038793392   0.00073864395
     27000   0.0030589285  -0.0031177114   0.002012252    0.0034799731   0.00066127919
     28000   0.002845273   -0.0031717067   0.0020052056   0.003098655   -0.00065030665
     29000   0.0028512639  -0.0032042003   0.0019482227   0.0030181589  -0.00057429635
     30000   0.0032344357  -0.0047618896   0.0020775691   0.0021642029  -0.00033739482
     31000   0.0030894149  -0.0048363168   0.0022389438   0.0020337595  -5.3009553e-05
     32000   0.0032581607  -0.0048324545   0.0021927205   0.0022443541   0.0004081845 
     33000   0.0032215756  -0.0048326584   0.0023286392   0.0023252265   0.00081874659
     34000   0.0040031854  -0.0075381178   0.0027834668   0.0012462531  -0.00038818505
     35000   0.0034571004  -0.0077706526   0.0024728762  -0.00011547145 -0.00047436738
     36000   0.0044781808  -0.010762873    0.002879389   -0.0011705465   0.00029027022
     37000   0.0046349367  -0.012733258    0.0026719396  -0.0031133985   0.0014358727 
     38000   0.003998545   -0.012685588    0.002635141   -0.004056499    0.00085337462
     39000   0.0042627611  -0.014426017    0.0027870632  -0.0052489372  -0.00031597353
     40000   0.004134619   -0.014466278    0.0026197665  -0.0056485844  -0.0001137876 
     41000   0.0039847584  -0.014424344    0.0027835834  -0.005667479    0.0012337074 
     42000   0.0041003877  -0.014461977    0.0027443035  -0.00557106     0.00093054757
     43000   0.0046610268  -0.016092878    0.0029636582  -0.0061421907  -0.00089918803
     44000   0.0050067312  -0.017410171    0.0032844405  -0.0066204791   0.00065734213
     45000   0.004455419   -0.017661738    0.0034852371  -0.0074976837   0.00065597604
     46000   0.0051730411  -0.018875657    0.0031358034  -0.0079852986   0.0012827956 
     47000   0.0048234191  -0.020213159    0.0036651187  -0.0093175793  -0.00014686758
     48000   0.0050129943  -0.020804911    0.0032635772  -0.010026693    0.0010465819 
     49000   0.0048960789  -0.02092223     0.003432082   -0.010150768    0.00069088756
     50000   0.0049235086  -0.020936616    0.0033882007  -0.010167917    0.00079825125
     51000   0.00492648    -0.020952896    0.0034339135  -0.01013403    -9.9449397e-06
     52000   0.0049640066  -0.020935875    0.0036265379  -0.0098681306   0.0005278417 
     53000   0.0051770599  -0.020929367    0.003623604   -0.0095451832   0.00036990358
     54000   0.0052657508  -0.020944248    0.0034947157  -0.0095560024   0.00086037796
     55000   0.0060853671  -0.023751249    0.0038114575  -0.01081763    -0.0011225271 
     56000   0.0062538265  -0.025626116    0.0044453757  -0.011806053   -0.00027783503
     57000   0.0059547504  -0.025535002    0.0040988231  -0.012509816    0.00078965433
     58000   0.0058286135  -0.025713989    0.0042028718  -0.012773837    0.00087809502
     59000   0.0059676236  -0.025765081    0.004081245   -0.012738176   -0.00083566962
     60000   0.0062263966  -0.028179923    0.0047460447  -0.014100309   -0.00074142725
     61000   0.0059818772  -0.028790768    0.0043156234  -0.015508118    0.0019284784 
     62000   0.0067672005  -0.030551642    0.0044656802  -0.01594171     0.00085783845
     63000   0.0061759127  -0.030546407    0.0042984406  -0.016990074    0.00022777165
     64000   0.006368309   -0.030614988    0.0043737853  -0.016694903    0.00091681367
     65000   0.006979178   -0.03180092     0.0046508149  -0.016688092   -0.0010421423 
     66000   0.006667507   -0.033497093    0.0049865955  -0.018515689   -0.00018351472
     67000   0.0070366041  -0.035029979    0.0048388929  -0.019642989    0.001288804  
     68000   0.0066585769  -0.035294355    0.0049549037  -0.020358029    0.00035402746
     69000   0.00774469    -0.03695675     0.0046795276  -0.020667683    0.00070925206
     70000   0.0075509027  -0.04064005     0.0055705939  -0.02375041    -0.0018496157 
     71000   0.0080932312  -0.043399417    0.005499981   -0.025767421    0.0017198277 
     72000   0.0073398181  -0.043454734    0.0052650805  -0.02718703     0.0016786875 
     73000   0.0082095926  -0.045840785    0.0054637154  -0.028070625    0.0004600615 
     74000   0.0077800166  -0.046450173    0.0052802499  -0.029507427   -0.00041996995
     75000   0.0074292031  -0.046591614    0.0053660244  -0.030088975   -0.00041463259
     76000   0.0080027951  -0.048257038    0.0055370475  -0.030723543    0.0020339269 
     77000   0.0076748602  -0.048277163    0.0053867585  -0.031385542    0.001708909  
     78000   0.008144959   -0.049644101    0.0054825338  -0.03195201    -0.00091277784
     79000   0.0074898826  -0.051124451    0.005852221   -0.034044654    0.00045086305
     80000   0.0082122728  -0.052183593    0.0058364175  -0.034036714   -0.00035149015
     81000   0.0085000032  -0.054556112    0.0056781302  -0.036136202    0.00015970755
     82000   0.0082185397  -0.056153057    0.0062090051  -0.037624196    0.00014269859
     83000   0.0096146426  -0.058705174    0.006278348   -0.038014166    0.00037179401
     84000   0.0092357251  -0.059354831    0.005857861   -0.03965232     0.00047488718
     85000   0.0081015621  -0.059531149    0.0058980691  -0.041488577   -9.8837603e-05
     86000   0.0088965743  -0.061422849    0.0060647872  -0.04202181    -0.00091965681
     87000   0.008721849   -0.062409196    0.0064831676  -0.042851695    0.0029836841 
     88000   0.010043441   -0.06582373     0.0067625536  -0.044005735    0.0013747767 
     89000   0.0095545455  -0.066951882    0.0061576629  -0.046471648    0.00010086466
     90000   0.010147375   -0.069095769    0.0060937386  -0.047790787    0.00022778544
     91000   0.0092176955  -0.069033274    0.0067508475  -0.048464804    0.00063674755
     92000   0.0095120861  -0.070714241    0.0067916841  -0.049663633    0.0015618703 
     93000   0.0092714691  -0.070794768    0.006522662   -0.050373875    0.0014469555 
     94000   0.0093884616  -0.070797593    0.0067830233  -0.049940963    0.0010637428 
     95000   0.010528898   -0.073839706    0.0066369646  -0.051419583    0.0018230506 
     96000   0.0097243418  -0.073761103    0.0063165777  -0.052867424   -0.0007493365 
     97000   0.010361445   -0.075603985    0.0070295896  -0.053042255    0.00013826626
     98000   0.010936829   -0.078282777    0.0072153604  -0.054672758    0.00022203233
     99000   0.010007058   -0.07857286     0.0069755328  -0.056596425   -0.00061588076
    100000   0.010245952   -0.0787175      0.0072617911  -0.056096696   -0.00060968091
    101000   0.010321905   -0.080184721    0.006843532   -0.05786832    -2.6514343e-05
    102000   0.0098863423  -0.080469564    0.0071374487  -0.05851217     0.0013675838 
    103000   0.011470406   -0.083627393    0.0076160969  -0.058816787    0.00050325661
    104000   0.011527542   -0.085612898    0.0075690398  -0.060763701    0.0024648261 
    105000   0.011119937   -0.087780608    0.0078257665  -0.063285697    0.00052593822
    106000   0.01170929    -0.09016856     0.0077799722  -0.064835983   -0.0010794652 
    107000   0.011522565   -0.09285923     0.0077139178  -0.067872615    0.0014563314 
    108000   0.013520888   -0.099770544    0.0085623327  -0.070939963    0.0011599371 
    109000   0.011529412   -0.1033862      0.0088490306  -0.077254211    9.9780679e-05
    110000   0.012026175   -0.10566135     0.0082480033  -0.079385721    0.00075832342
    111000   0.011215969   -0.10599615     0.0076627336  -0.081520322    0.00083506577
    112000   0.011155031   -0.10616894     0.0077189127  -0.081728273   -0.00026488348
    113000   0.011436224   -0.10621597     0.0077084037  -0.081364294    7.3577918e-05
    114000   0.012672019   -0.11039043     0.0085998253  -0.082794837    0.0012530127 
    115000   0.012153045   -0.11208671     0.0085175372  -0.085351362   -6.4095154e-05
    116000   0.012049636   -0.11466189     0.0086054506  -0.087993642   -0.0015391253 
    117000   0.012475121   -0.11862407     0.0086733129  -0.091250153    7.5243856e-05
    118000   0.012107023   -0.12041607     0.0084479045  -0.093819351   -0.00064658883
    119000   0.01204535    -0.12051711     0.0084959474  -0.093964791    0.00044286962
    120000   0.012324931   -0.12032784     0.0079052786  -0.093947097    0.002546416  
    121000   0.012407792   -0.12271983     0.008825208   -0.09529494     0.00050108849
    122000   0.012401394   -0.12311637     0.0084415558  -0.096084722    0.0016691381 
    123000   0.011876478   -0.12319375     0.0082742394  -0.097116289   -0.00048803204
    124000   0.012194979   -0.12423845     0.0084737887  -0.097483992   -0.00028064376
    125000   0.01382901    -0.1289544      0.0092042996  -0.09901997     0.00081872616
    126000   0.013532318   -0.13126531     0.009269218   -0.10171071     2.089286e-05 
    127000   0.013422787   -0.13222918     0.0090745474  -0.10303344     0.0011458959 
    128000   0.01305697    -0.13239615     0.0089163083  -0.10390702     0.0016813053 
    129000   0.013901345   -0.13554868     0.0096801266  -0.10502999    -0.0010019179 
    130000   0.014515354   -0.13970967     0.0098981145  -0.10805257     0.00067602792
    131000   0.014403114   -0.1420412      0.0096479086  -0.11080256     0.0011399594 
    132000   0.013534526   -0.14530191     0.0097091376  -0.11530408    -0.0014297299 
    133000   0.013935361   -0.14731384     0.0093771471  -0.11704713     0.001116396  
    134000   0.013743296   -0.14727201     0.0092967154  -0.11737366     0.0010666533 
    135000   0.013211017   -0.14750129     0.0093261828  -0.11837137     0.00014202117
    136000   0.013780473   -0.14863659     0.0097613426  -0.11821787    -0.00032239628
    137000   0.013719524   -0.14894608     0.0093593426  -0.11902073     0.0017593723 
    138000   0.014108659   -0.15042542     0.009965702   -0.11931038     0.00079664303
    139000   0.015088813   -0.15327996     0.0099065811  -0.12075476     0.0010943674 
    140000   0.014304595   -0.15498244     0.0099579756  -0.12358141     0.001730532  
    141000   0.014896781   -0.15950296     0.010671661   -0.12650054     0.0031210773 
    142000   0.014793751   -0.16252514     0.010302598   -0.13004623     0.004572795  
    143000   0.014515748   -0.16451705     0.010490515   -0.13226696    -0.001114894  
    144000   0.01467409    -0.16585172     0.010688805   -0.13316598    -0.0020086462 
    145000   0.014841122   -0.16780126     0.010504821   -0.13504912     0.00058536337
    146000   0.014736665   -0.16815503     0.010137453   -0.13592684    -0.00079215956
    147000   0.014361864   -0.16817113     0.0095640393  -0.13707819     0.003938837  
    148000   0.01499894    -0.17069085     0.010961234   -0.13724572     8.2031735e-05
    149000   0.015074084   -0.1711016      0.0102501     -0.13825497     0.00029807409
    150000   0.014775378   -0.17134213     0.010244992   -0.13894837     0.00060054862
    151000   0.014865357   -0.17143419     0.010594579   -0.13855596     0.0023887502 
    152000   0.014733832   -0.17133386     0.010197222   -0.13905015     0.0011953164 
    153000   0.015988859   -0.17258244     0.010890733   -0.13772389     0.0024751368 
    154000   0.016890567   -0.17657929     0.010734562   -0.14052522    -0.00065880089
    155000   0.017673577   -0.18163991     0.011484459   -0.14366219     0.00020061554
    156000   0.016850667   -0.18672565     0.011239986   -0.15022597     0.00099334075
    157000   0.016027164   -0.18720753     0.011618635   -0.15156366     0.0012959259 
    158000   0.016283158   -0.18840698     0.011257791   -0.15274021    -0.0013940708 
    159000   0.017417004   -0.19015408     0.011577384   -0.15246804     0.0018564337 
    160000   0.016986392   -0.19204908     0.011839973   -0.15474596     0.0041758701 
    161000   0.017577084   -0.19721331     0.012758411   -0.15810629    -0.00092751607
    162000   0.017873465   -0.19953715     0.012548658   -0.16019559     0.0010544551 
    163000   0.017145485   -0.20044114     0.011719645   -0.16301986    -0.0013090027 
    164000   0.01712986    -0.20077679     0.011194461   -0.16390411     0.0032302857 
    165000   0.016867472   -0.20249509     0.011634597   -0.16557561     0.00079302524
    166000   0.016456944   -0.20252875     0.010657878   -0.16720138     0.0011509973 
    167000   0.016588445   -0.20395057     0.010954425   -0.16812954    -0.00030986769
    168000   0.016057684   -0.20660228     0.011953038   -0.17057825     0.0042852502 
    169000   0.017168699   -0.20726462     0.011909885   -0.1696183     -0.00039637791
    170000   0.018276109   -0.21289851     0.012614821   -0.17288722     0.0027619669 
    171000   0.016871873   -0.21533971     0.012104266   -0.17794396     0.0022270666 
    172000   0.01776086    -0.21950502     0.012329428   -0.18055149     0.001458955  
    173000   0.01821083    -0.22024923     0.011717568   -0.18123304     0.00089082746
    174000   0.018424561   -0.2219578      0.012144979   -0.18219381     0.0013546197 
    175000   0.018021361   -0.22286528     0.012157948   -0.18369273     0.0010737294 
    176000   0.017521007   -0.22402785     0.01222924    -0.18553406     0.003807806  
    177000   0.018572592   -0.22814757     0.013152346   -0.18715431     0.0020975418 
    178000   0.019396382   -0.23378502     0.012746896   -0.19196232     0.0022301358 
    179000   0.019286247   -0.23857558     0.012768579   -0.19689629     0.0011942358 
    180000   0.020012342   -0.2434053      0.013601381   -0.19980477     0.00043931301
    181000   0.019616133   -0.24925713     0.014002185   -0.20584973    -0.0011483431 
    182000   0.019846924   -0.25220946     0.013094885   -0.2093634     -0.00015707134
    183000   0.018635253   -0.25401413     0.012919778   -0.21315951     0.00079790832
    184000   0.018645194   -0.25558145     0.013279696   -0.214352       0.0012432956 
    185000   0.02007051    -0.26032581     0.012747095   -0.21749238     0.0037292452 
    186000   0.019205024   -0.26321807     0.012925978   -0.22150315    -0.00061408131
    187000   0.019679092   -0.2655222      0.013465428   -0.22255717     0.002174655  
    188000   0.019132589   -0.26801971     0.013966107   -0.22537323    -0.00097507536
    189000   0.020568542   -0.27214989     0.013551274   -0.22776571     0.0044701066 
    190000   0.020426855   -0.27274972     0.013685914   -0.22844329    -0.0010718764 
    191000   0.02026278    -0.27745076     0.014829273   -0.23224693    -0.0019528121 
    192000   0.020501168   -0.27865836     0.012939726   -0.23498672    -0.00039290035
    193000   0.019621333   -0.2799573      0.013776497   -0.2367678      0.0031177733 
    194000   0.019652124   -0.28159023     0.013605281   -0.23852578    -0.0026033652 
    195000   0.019208809   -0.28465322     0.01386167    -0.24199692     0.0014196881 
    196000   0.019756139   -0.28668318     0.014337996   -0.2427301      0.0021656856 
    197000   0.020022588   -0.28675735     0.014348992   -0.24239386     0.00049725078
    198000   0.020162652   -0.28832783     0.014059479   -0.24404388    -0.00039772921
    199000   0.020344766   -0.28822962     0.014148976   -0.24358318     0.0013713678 
    200000   0.020452538   -0.28972339     0.014133288   -0.24493109     0.0025838999 
    201000   0.021985558   -0.29270988     0.015035431   -0.24471739     0.00043527789
    202000   0.020399303   -0.29440381     0.01496008    -0.24886452    -0.0015580297 
    203000   0.02093595    -0.29431165     0.013252321   -0.24967566     0.00064081848
    204000   0.020493191   -0.29605846     0.014387981   -0.25095053     0.002738051  
    205000   0.02132659    -0.30043791     0.014136346   -0.25433232     0.00079495153
    206000   0.020358111   -0.30043657     0.014106904   -0.2558122     -0.0026651965 
    207000   0.021717843   -0.3020811      0.013813566   -0.25571179     0.0039748795 
    208000   0.021018348   -0.30452263     0.014883766   -0.25813168     0.005092124  
    209000   0.021422838   -0.3052308      0.01457729    -0.25853998     0.0031397046 
    210000   0.020817126   -0.30518753     0.014933459   -0.25904853    -0.00016831311
    211000   0.020506167   -0.30541841     0.014392963   -0.26028604     0.00060154759
    212000   0.021363727   -0.30711445     0.014517319   -0.26057221     0.0034733889 
    213000   0.021978852   -0.31092459     0.01550453    -0.26247306    -0.00053335789
    214000   0.021875679   -0.31390421     0.016639266   -0.26447259    -0.0016097553 
    215000   0.022679495   -0.32040979     0.015938889   -0.2704736      0.00014125681
    216000   0.022561446   -0.32388554     0.015215261   -0.27484994     0.0030340404 
    217000   0.022563907   -0.32457206     0.015623906   -0.27512413     0.0028214791 
    218000   0.023707431   -0.32712768     0.015425828   -0.27616365     0.0022644388 
    219000   0.022106766   -0.32761455     0.015648255   -0.27882754     0.0013183515 
    220000   0.022415963   -0.33036874     0.015909191   -0.2808573      0.0023717465 
    221000   0.022310815   -0.33396048     0.016570492   -0.28394536    -0.0013896674 
    222000   0.023819826   -0.33644877     0.014958558   -0.28578352    -0.00053199746
    223000   0.024561166   -0.34447935     0.016647203   -0.29101417     0.0048946279 
    224000   0.022899086   -0.34532137     0.016425108   -0.29456979    -0.0030641815 
    225000   0.022971275   -0.34596398     0.015919736   -0.29560957     0.00056378021
    226000   0.022706275   -0.34674298     0.016126025   -0.29657952     0.0008916573 
    227000   0.022991731   -0.34908        0.016729825   -0.29788483     0.0020998647 
    228000   0.023112003   -0.34896169     0.015325433   -0.29899062     0.0021702242 
    229000   0.023411876   -0.35026486     0.015710329   -0.29945937     0.001301426  
    230000   0.023644378   -0.35309761     0.016418537   -0.30123539     1.7197951e-05
    231000   0.022994441   -0.35277081     0.015586865   -0.30271453     0.0019068029 
    232000   0.024122265   -0.35601443     0.016770591   -0.30308378    -7.2585346e-05
    233000   0.024673905   -0.35868661     0.015958774   -0.30574085     0.00089904609
    234000   0.024442236   -0.36184648     0.016176142   -0.30903064     0.0010773596 
    235000   0.024743679   -0.36396678     0.016562161   -0.31031304     9.5991238e-07
    236000   0.025085784   -0.36716803     0.017108502   -0.31245513     0.0011241243 
    237000   0.023486037   -0.36860766     0.016513431   -0.3168879     -0.00042772356
    238000   0.023378594   -0.37046299     0.016445925   -0.3189718      0.00029452582
    239000   0.024493856   -0.37074672     0.016507903   -0.31752174     0.0032109998 
    240000   0.024947461   -0.37215546     0.017596511   -0.3171619     -0.0027225727 
    241000   0.025356983   -0.37451156     0.016865716   -0.31963491    -5.0442386e-05
    242000   0.024725624   -0.37527532     0.018238141   -0.31997267     0.00083964059
    243000   0.02439789    -0.37549581     0.017306039   -0.32161655     0.002920697  
    244000   0.025224359   -0.37672715     0.017327726   -0.32158729    -0.0020539936 
    245000   0.023794553   -0.37717928     0.016517666   -0.32499281     0.0016594302 
    246000   0.024079668   -0.37713233     0.016905267   -0.32413086     0.00025803424
    247000   0.024341073   -0.37697726     0.01651511    -0.3239741      0.0061510107 
    248000   0.024839877   -0.37685336     0.016644573   -0.32297301    -0.001120514  
    249000   0.024518606   -0.37798076     0.017008296   -0.32421828     0.003160021  
    250000   0.025517744   -0.37847924     0.017827422   -0.32239989     0.00036415199
    251000   0.025291529   -0.37856069     0.018395998   -0.32225188     0.00036504264
    252000   0.025093802   -0.37984259     0.01828387    -0.3239423      0.0050193762 
    253000   0.025407539   -0.38217756     0.017819288   -0.32627155    -0.0015383161 
    254000   0.026145272   -0.38487517     0.01675347    -0.3289291     -0.0010627174 
    255000   0.026474679   -0.3882358      0.01756422    -0.33098518     0.0018425346 
    256000   0.026920421   -0.39110788     0.017050928   -0.33370237     0.0045821279 
    257000   0.025459391   -0.39124511     0.017780886   -0.33529977     8.9503505e-05
    258000   0.027526689   -0.3940772      0.018137467   -0.33467633     0.004536227  
    259000   0.026186486   -0.39615008     0.018843956   -0.33805173    -0.0019580988 
    260000   0.026164874   -0.40002192     0.019411453   -0.34138847     0.0025058233 
    261000   0.027805755   -0.40225954     0.018524881   -0.34205293    -0.00061292534
    262000   0.025910364   -0.40270697     0.017384822   -0.34648167    -0.0011984413 
    263000   0.027002691   -0.40513275     0.018498587   -0.34615626     0.0025446472 
    264000   0.026257296   -0.40717884     0.018149079   -0.34966923     0.0012943946 
    265000   0.026196124   -0.40764956     0.01815078    -0.35022994     0.0022274487 
    266000   0.027150907   -0.40740196     0.017851969   -0.34884991     0.0013857407 
    267000   0.02729872    -0.40725118     0.018594057   -0.34773546     0.0033568122 
    268000   0.026707806   -0.40740609     0.018170148   -0.34920008    -0.0014613583 
    269000   0.026379728   -0.4086973      0.018654972   -0.35049827     0.0029401109 
    270000   0.026978646   -0.40897616     0.018376049   -0.35015825     0.0035589455 
    271000   0.02716356    -0.40872778     0.01840872    -0.3496         5.4793637e-05
    272000   0.02711365    -0.40872109     0.019102653   -0.3489742     -0.0025584882 
    273000   0.027668758   -0.41025933     0.020515027   -0.34826795     0.0019275842 
    274000   0.028153887   -0.41340786     0.019035267   -0.352169      -0.0013761163 
    275000   0.026670292   -0.41409852     0.019632905   -0.35448599    -0.0020804061 
    276000   0.028185129   -0.41606716     0.019199707   -0.35461704     0.0048738004 
    277000   0.028188656   -0.41996961     0.019463082   -0.35825082     0.0042068271 
    278000   0.02811738    -0.42331235     0.01879091    -0.36237258     0.00019524814
    279000   0.028594868   -0.42547542     0.020327229   -0.36228356    -0.0013536075 
    280000   0.027828672   -0.42817488     0.018677778   -0.36778102     0.0043354401 
    281000   0.027968519   -0.42913256     0.019367785   -0.36783906     0.0044363091 
    282000   0.02940179    -0.43084543     0.019984748   -0.36678645    -0.00124419   
    283000   0.028540124   -0.43142132     0.019293285   -0.36934547     0.0012665425 
    284000   0.029282764   -0.43413399     0.019576687   -0.37066149     0.00024259651
    285000   0.030243423   -0.43615392     0.02027323    -0.37054482     0.00046078074
    286000   0.030419135   -0.43963226     0.020523047   -0.37350994    -0.0024726518 
    287000   0.029063647   -0.44268396     0.019619313   -0.3794973      0.00044419086
    288000   0.028366971   -0.4446229      0.02050707    -0.38159283     0.0022640371 
    289000   0.030148822   -0.4473871      0.019344896   -0.38284815     0.001496075  
    290000   0.029596193   -0.44862571     0.021525868   -0.3827342      0.00013872007
    291000   0.030017461   -0.45133407     0.020329479   -0.38600745     0.0029334681 
    292000   0.029955074   -0.45158825     0.019128489   -0.38755614     0.0024974939 
    293000   0.031059187   -0.45336964     0.01960539    -0.38720552     0.002759021  
    294000   0.030227334   -0.45458466     0.021933649   -0.38733926    -0.00052289449
    295000   0.03090695    -0.45826928     0.020271888   -0.39166687     0.0034702728 
    296000   0.030463423   -0.4599779      0.020356555   -0.3939557      0.0020160272 
    297000   0.028748933   -0.46170507     0.020484639   -0.39812486     0.0035143553 
    298000   0.030430977   -0.46377892     0.020814846   -0.39734706     0.0028888668 
    299000   0.029641183   -0.46543783     0.020731191   -0.40027355    -0.0036302307 
    300000   0.032206199   -0.47087609     0.021079152   -0.40151881     0.0053940298 
    301000   0.031161952   -0.47378786     0.021065161   -0.40600992     0.0051674569 
    302000   0.029469564   -0.47455786     0.020144463   -0.41023757     0.0015880208 
    303000   0.02952577    -0.47652981     0.020321892   -0.41194783     0.0026216796 
    304000   0.030272223   -0.47815029     0.021350096   -0.41142115     0.0042682317 
    305000   0.03197922    -0.47940349     0.022435543   -0.40903006     0.0030780736 
    306000   0.031481833   -0.48255533     0.020963646   -0.4143994      5.9113774e-05
    307000   0.03109176    -0.48305382     0.021233887   -0.41521238     0.0041012963 
    308000   0.032071771   -0.48381273     0.020899264   -0.41483685     0.0018560512 
    309000   0.031764465   -0.48470618     0.02161275    -0.41547747     0.0052580205 
    310000   0.032974755   -0.48780542     0.022587791   -0.4157874      0.00061543006
    311000   0.032258756   -0.48912437     0.021948581   -0.41881887    -9.0010121e-05
    312000   0.032650584   -0.49079592     0.022569279   -0.41928237     0.0016815468 
    313000   0.030932582   -0.49172604     0.022795174   -0.42256193     0.00073667901
    314000   0.031569224   -0.49150625     0.022087314   -0.42209566    -0.0024068693 
    315000   0.032528077   -0.49298332     0.021094212   -0.42312848     0.0008972276 
    316000   0.031976226   -0.49444866     0.021619329   -0.42489594     0.0019144332 
    317000   0.031472215   -0.49455665     0.02148922    -0.42588956    -0.0019563173 
    318000   0.032063381   -0.49464862     0.022200588   -0.42438399     0.0022133477 
    319000   0.031348923   -0.4957703      0.023244611   -0.42553264    -0.0053354788 
    320000   0.032838891   -0.49865272     0.022865605   -0.42656056     0.00071386387
    321000   0.032084879   -0.49797613     0.02238062    -0.42749924    -0.0051595227 
    322000   0.032433567   -0.49910052     0.022173071   -0.42830848     0.0053910818 
    323000   0.032076453   -0.50003104     0.021981779   -0.42996563     0.0046570225 
    324000   0.034154685   -0.50158939     0.022010952   -0.42837946     0.0031864781 
    325000   0.033131335   -0.50421831     0.023291327   -0.43126204    -0.00073668722
    326000   0.03250228    -0.50497284     0.022214613   -0.43403626     0.0075603605 
    327000   0.033053516   -0.50541414     0.022134649   -0.43373121    -0.0015252927 
    328000   0.033215779   -0.50577422     0.022060277   -0.43392242     0.0013844028 
    329000   0.032685611   -0.50553708     0.022433655   -0.43410664    -3.2227239e-05
    330000   0.03406218    -0.51023549     0.023710263   -0.43546492     0.0059912131 
    331000   0.035342057   -0.51359308     0.023011897   -0.4376023     -0.00094075306
    332000   0.033720348   -0.5161897      0.024426832   -0.44121498     0.0011433979 
    333000   0.033913708   -0.51935844     0.023242596   -0.4452781      0.0037762929 
    334000   0.034184361   -0.52306211     0.02357109    -0.44824756     0.0011122069 
    335000   0.033442669   -0.52572395     0.023084424   -0.45250789     0.0012317188 
    336000   0.033382603   -0.52758153     0.024467588   -0.45307234     0.00048046897
    337000   0.033639352   -0.52943687     0.022880514   -0.45612988    -0.0036101043 
    338000   0.033865855   -0.53052089     0.023448399   -0.45630648     0.0028094396 
    339000   0.034892887   -0.53155768     0.023101755   -0.45615036     0.0050154204 
    340000   0.034102881   -0.5325682      0.022463982   -0.4589829     -0.002771862  
    341000   0.034551718   -0.53401024     0.022828926   -0.45938718     0.0061668738 
    342000   0.032989855   -0.53458783     0.023623342   -0.46151163    -0.0012846655 
    343000   0.034019213   -0.53651981     0.024421096   -0.46110281     0.0018168698 
    344000   0.034952602   -0.53805575     0.024035026   -0.46162565     0.0010473599 
    345000   0.033741253   -0.54139937     0.023648859   -0.46717129     0.0057129153 
    346000   0.035618448   -0.54435115     0.022483166   -0.46847478     0.00016996709
    347000   0.034136258   -0.54453601     0.023272232   -0.47009242     0.0023565377 
    348000   0.034070381   -0.5456135      0.023966576   -0.47057432    -0.00067877058
    349000   0.035373408   -0.54648025     0.024112266   -0.46934211     0.00036467249
    350000   0.035059711   -0.5469072      0.024258173   -0.47009339    -0.0005090374 
    351000   0.035197852   -0.54678303     0.025114103   -0.46890621    -0.00077167912
    352000   0.036590257   -0.54846839     0.024719556   -0.46889886     0.0048507406 
    353000   0.035717968   -0.54973143     0.023938119   -0.47225092    -0.0052913242 
    354000   0.034726876   -0.55025338     0.024132209   -0.47406447     0.001225842  
    355000   0.034765584   -0.55032941     0.024741043   -0.47347363    -0.00083616836
    356000   0.035040905   -0.55016347     0.024902743   -0.47273328    -0.0020897014 
    357000   0.036118485   -0.55037427     0.026546514   -0.46968499     0.0052841893 
    358000   0.03663016    -0.55023601     0.024861378   -0.47046484     0.00028419156
    359000   0.037206546   -0.55205749     0.026278219   -0.47000546    -0.00036132423
    360000   0.036112721   -0.55422492     0.025632228   -0.47445855    -0.0021655692 
    361000   0.036403524   -0.55535654     0.025793446   -0.47499304     0.0001455435 
    362000   0.037214766   -0.55590603     0.024769642   -0.47535025    -0.0001166746 
    363000   0.037925024   -0.55879282     0.025042354   -0.47689963     0.0031481434 
    364000   0.036770285   -0.56043132     0.026145928   -0.47916555    -0.0037443529 
    365000   0.037430757   -0.56190901     0.025977822   -0.47982128     0.00076094234
    366000   0.037101237   -0.56155459     0.024409579   -0.48152906     0.0038552169 
    367000   0.03686254    -0.56191996     0.025439596   -0.48122223    -0.0053534144 
    368000   0.038437832   -0.566046       0.025573336   -0.48285311    -0.0021388769 
    369000   0.035293267   -0.56566362     0.024505916   -0.48825196     0.0048781014 
    370000   0.036694609   -0.56608768     0.024012042   -0.48706924     0.0015441635 
    371000   0.037413664   -0.56893289     0.025368457   -0.48748015     0.0034216452 
    372000   0.037960621   -0.57182865     0.025798984   -0.48912547    -0.0011713352 
    373000   0.036892497   -0.57234277     0.026141618   -0.49089811     0.0079763861 
    374000   0.038540878   -0.57188388     0.025986753   -0.48812311    -0.0018070336 
    375000   0.039245543   -0.57185823     0.026128332   -0.48689956     0.00040819097
    376000   0.038335515   -0.57233423     0.025613573   -0.48925449    -0.00059777289
    377000   0.037738415   -0.57453254     0.026431256   -0.49153018     0.0017583703 
    378000   0.036625844   -0.57520819     0.026412223   -0.49389264    -0.0011453583 
    379000   0.038935271   -0.57683801     0.026386377   -0.49208641    -0.0027153376 
    380000   0.036447915   -0.57667266     0.026237443   -0.49579862     0.0021666786 
    381000   0.038046831   -0.58001595     0.026762707   -0.49621982     0.0036133982 
    382000   0.037132921   -0.58139034     0.028035928   -0.49769096     0.0017257169 
    383000   0.039150864   -0.58513963     0.027478331   -0.49897289    -0.003067461  
    384000   0.038311114   -0.58739559     0.026531354   -0.50343465     0.0019899482 
    385000   0.039911404   -0.59052513     0.024524523   -0.50617212     0.0029288238 
    386000   0.039411538   -0.59106101     0.025744168   -0.50623768    -0.00092335716
    387000   0.038826826   -0.59117526     0.02813669    -0.50483591    -0.0051012516 
    388000   0.039482117   -0.5915808      0.02619486    -0.50620098    -0.0002560665 
    389000   0.038568578   -0.59147045     0.027183183   -0.50647172     0.0015915962 
    390000   0.039255903   -0.59541202     0.028840852   -0.5077253     -0.003517815  
    391000   0.039485599   -0.59542012     0.027564163   -0.50866577     0.0031642255 
    392000   0.039045537   -0.59557545     0.027013465   -0.51003146    -0.0040981659 
    393000   0.040222542   -0.59885419     0.027076078   -0.51148322     0.0034394652 
    394000   0.038106984   -0.59983135     0.026673646   -0.51603411    -0.0041012097 
    395000   0.040964863   -0.60181383     0.027449318   -0.51295686    -0.0060862145 
    396000   0.039160151   -0.60158423     0.028161397   -0.5147205      0.0047858664 
    397000   0.03970961    -0.60324395     0.027116379   -0.51660158     0.0020056191 
    398000   0.040453097   -0.60443645     0.028228017   -0.51556794     0.00047790891
    399000   0.041036992   -0.60781303     0.027925026   -0.51837223     0.0011692352 
    400000   0.040844672   -0.60819921     0.028171215   -0.51880051     0.002299827  
    401000   0.042487219   -0.60801932     0.028107069   -0.51622254     0.00098485749
    402000   0.040019452   -0.60796745     0.026137873   -0.52183912     0.0012926198 
    403000   0.042432471   -0.61044146     0.028452856   -0.51838096     0.0026401752 
    404000   0.041038033   -0.61298135     0.028116114   -0.5233479     -0.0027542072 
    405000   0.040857554   -0.61314766     0.029272277   -0.52262859     0.0011867094 
    406000   0.042384582   -0.6136927      0.028587005   -0.52156984     0.0010335353 
    407000   0.041619248   -0.61385196     0.028255386   -0.52320798     0.0077884061 
    408000   0.040900146   -0.61406889     0.027923739   -0.52483451    -0.0025610975 
    409000   0.040886397   -0.61509451     0.02779911    -0.52600537    -0.00064079176
    410000   0.04261863    -0.61572681     0.0273562     -0.52448391     4.6070374e-05
    411000   0.041137994   -0.61650523     0.030164965   -0.52467309    -0.0017477985 
    412000   0.040814372   -0.61618662     0.028035981   -0.52696858     0.0024311876 
    413000   0.041914113   -0.61890859     0.030345315   -0.52573267    -0.002039017  
    414000   0.042409257   -0.61972961     0.027956622   -0.52820015     5.6895564e-05
    415000   0.042167535   -0.62100299     0.028511582   -0.52928091     0.00074209063
    416000   0.041943554   -0.62268517     0.029170865   -0.53063957     0.0013065295 
    417000   0.041746661   -0.62421491     0.028829328   -0.53280599     0.0060968096 
    418000   0.040960973   -0.62433196     0.029202738   -0.5337274     -0.00060618917
    419000   0.040812722   -0.62521961     0.028844754   -0.53519527     0.0014504304 
    420000   0.040797623   -0.62772273     0.029230572   -0.53733521     0.0053260042 
    421000   0.042717605   -0.62710511     0.027313107   -0.53575693     0.0032504245 
    422000   0.040820661   -0.62701784     0.028573356   -0.53725299     0.00086886885
    423000   0.040963148   -0.62803413     0.029304828   -0.53732422    -0.0022157111 
    424000   0.040906392   -0.62708038     0.028837761   -0.53692261     0.0013297872 
    425000   0.043396554   -0.62918689     0.030470348   -0.53366371    -0.00014965316
    426000   0.04160062    -0.629932       0.029540678   -0.53803065    -0.0019466569 
    427000   0.042931032   -0.63017406     0.028016463   -0.53780259    -0.0057996052 
    428000   0.041911764   -0.63089064     0.030111774   -0.53795178    -0.00017858495
    429000   0.044462143   -0.6319818      0.030562453   -0.53476916    -4.4403613e-05
    430000   0.042852225   -0.63257852     0.028248546   -0.54009311    -0.0003220642 
    431000   0.044119875   -0.63625374     0.029006611   -0.54111001     0.007004562  
    432000   0.044077446   -0.63704801     0.031201724   -0.53977277     0.00054104096
    433000   0.0456646     -0.64174171     0.031663562   -0.54162544    -0.0013000173 
    434000   0.044274189   -0.642055       0.031391267   -0.54429529     0.00097060382
    435000   0.043586243   -0.64184427     0.031440954   -0.54506613     0.003426733  
    436000   0.045527296   -0.64542146     0.029949257   -0.54722532    -0.0010458935 
    437000   0.043929032   -0.64838771     0.030466682   -0.55207       -0.00043474874
    438000   0.043113298   -0.64953102     0.029060173   -0.55584262    -0.00055071722
    439000   0.044458299   -0.64832156     0.030055801   -0.55162134     0.0013223823 
    440000   0.046895857   -0.65263789     0.030827148   -0.55151234     0.00043183686
    441000   0.043413265   -0.65220309     0.029648906   -0.5574763      0.00057555506
    442000   0.043444656   -0.65346464     0.031954879   -0.55638482    -0.004926137  
    443000   0.044310379   -0.65527599     0.030244218   -0.55860909    -0.0035740225 
    444000   0.044026527   -0.6561249      0.031250827   -0.55887689     0.0047256124 
    445000   0.044949615   -0.65831247     0.031943437   -0.55898811     0.0019112307 
    446000   0.045621244   -0.65922572     0.031350124   -0.55948788    -0.007229618  
    447000   0.043571446   -0.65950366     0.031969939   -0.56221872    -0.0016778124 
    448000   0.043778575   -0.65889063     0.029847703   -0.56341743     0.0039174651 
    449000   0.044846503   -0.66001864     0.030374897   -0.56241739     0.00077279578
    450000   0.044247819   -0.66050336     0.030693868   -0.56348059    -0.0014151314 
    451000   0.046114749   -0.66131412     0.030678656   -0.56150797     0.0029197913 
    452000   0.045748784   -0.6615331      0.032408206   -0.56054599    -0.0044118472 
    453000   0.046702049   -0.66476921     0.033183879   -0.56157745    -0.00059252152
    454000   0.046950804   -0.66556646     0.029939352   -0.56524633     0.0040738671 
    455000   0.044334508   -0.66644597     0.0323642     -0.56762292    -0.0014402637 
    456000   0.044305414   -0.66767121     0.030981148   -0.57027481     0.00062419936
    457000   0.047709987   -0.66973029     0.032553107   -0.56565838     0.00070171453
    458000   0.047217905   -0.67045727     0.032127855   -0.56754825     0.0017383    
    459000   0.046372689   -0.6734658      0.031195911   -0.57275573    -0.0061210163 
    460000   0.047310373   -0.67458959     0.031312728   -0.57235709     0.0040939816 
    461000   0.044929159   -0.67408544     0.030584014   -0.57615117    -0.0021280646 
    462000   0.047353468   -0.67526103     0.032553081   -0.57172358     0.0014468727 
    463000   0.045686042   -0.67507304     0.032644429   -0.57394376    -0.00066362727
    464000   0.046060464   -0.67590487     0.034193907   -0.57266485    -0.0013033038 
    465000   0.047451247   -0.67928941     0.032377339   -0.57578112    -0.0029962085 
    466000   0.046579418   -0.68104245     0.032781619   -0.57843679    -0.0014341709 
    467000   0.047070036   -0.68381822     0.031609884   -0.58164883    -0.0063500671 
    468000   0.043783005   -0.68379743     0.031532741   -0.58663256     0.0011319547 
    469000   0.046997445   -0.68370851     0.032248794   -0.58100903     0.0027131692 
    470000   0.047205461   -0.6857034      0.033335252   -0.58160564    -0.0029046998 
    471000   0.047281635   -0.68731012     0.034135702   -0.58229773     0.00019907862
    472000   0.048073153   -0.68751861     0.033423124   -0.58203228    -0.0016392837 
    473000   0.047366037   -0.6886845      0.034612652   -0.58306863    -0.0018029306 
    474000   0.048615276   -0.69002113     0.034797415   -0.58234785    -0.0016434012 
    475000   0.047477244   -0.69208952     0.034880911   -0.58603869    -0.0026405444 
    476000   0.047661527   -0.6944284      0.035278658   -0.58770358    -4.7605267e-05
    477000   0.048976148   -0.69503016     0.032812159   -0.58880117     0.0017859639 
    478000   0.048318171   -0.69503506     0.03196196    -0.5906426      0.0062847672 
    479000   0.047704487   -0.69796642     0.034554801   -0.59190105     0.0033500602 
    480000   0.047250399   -0.6975406      0.034285588   -0.59242514     0.0031702414 
    481000   0.047951973   -0.69823932     0.034198517   -0.59215925    -0.0020146154 
    482000   0.050916621   -0.6974866      0.034389974   -0.58677097    -0.00016033274
    483000   0.049125283   -0.69699553     0.035821142   -0.587534       0.0014768692 
    484000   0.048748395   -0.69871143     0.033028224   -0.59260779     0.0001347116 
    485000   0.049970797   -0.70368719     0.034637845   -0.59414151    -0.0019863434 
    486000   0.04921283    -0.70522726     0.035353583   -0.59610205    -0.0027291586 
    487000   0.050311867   -0.7057814      0.033418042   -0.59694425     0.00025381197
    488000   0.048875115   -0.70655595     0.033482713   -0.59980786     0.0063343971 
    489000   0.048852067   -0.70802321     0.03362691    -0.60116547    -0.0023194535 
    490000   0.049285462   -0.70896741     0.034437181   -0.60064973    -0.0018373049 
    491000   0.049422232   -0.71038529     0.034834526   -0.60146525    -0.0015585291 
    492000   0.049167352   -0.71247808     0.034630317   -0.60414432    -0.0020589499 
    493000   0.04951911    -0.71353861     0.033315372   -0.60599249    -0.0010765662 
    494000   0.048704209   -0.71656505     0.034571582   -0.60898429    -0.002905647  
    495000   0.049331597   -0.71962407     0.03571978    -0.60995464    -0.0017391986 
    496000   0.050526187   -0.72379273     0.035862373   -0.61218998     0.00019939352
    497000   0.051180876   -0.72762489     0.03514629    -0.61575681    -0.0024262319 
    498000   0.050123274   -0.72787549     0.034299492   -0.61843959     0.0017557658 
    499000   0.048701209   -0.73067198     0.03625867    -0.62140862    -0.0035233734 
    500000   0.052337403   -0.73078846     0.03619944    -0.61613357     0.0043998326 
Loop time of 125.373 on 8 procs for 500000 steps with 1550 atoms

Performance: 344572.466 tau/day, 3988.107 timesteps/s, 6.182 Matom-step/s
91.5% CPU use with 8 MPI tasks x 1 OpenMP threads

MPI task timing breakdown:
Section |  min time  |  avg time  |  max time  |%varavg| %total
---------------------------------------------------------------
Pair    | 13.434     | 14.772     | 16.724     |  25.9 | 11.78
Bond    | 4.9199     | 5.3332     | 5.8873     |  12.2 |  4.25
Neigh   | 0.046659   | 0.046784   | 0.04691    |   0.0 |  0.04
Comm    | 11.66      | 14.1       | 15.706     |  33.5 | 11.25
Output  | 0.40433    | 0.42682    | 0.44931    |   2.3 |  0.34
Modify  | 89.271     | 89.323     | 89.392     |   0.4 | 71.25
Other   |            | 1.371      |            |       |  1.09

Nlocal:         193.75 ave         237 max         170 min
Histogram: 2 2 0 1 1 1 0 0 0 1
Nghost:         637.75 ave         709 max         592 min
Histogram: 3 0 0 2 0 1 0 0 1 1
Neighs:              0 ave           0 max           0 min
Histogram: 8 0 0 0 0 0 0 0 0 0
FullNghs:       3033.5 ave        4414 max        2372 min
Histogram: 2 1 2 1 0 1 0 0 0 1

Total # of neighbors = 24268
Ave neighs/atom = 15.656774
Ave special neighs/atom = 2.1612903
Neighbor list builds = 181
Dangerous builds = 0

unfix ThermoLng

# Now we let the system to create the polymeric network
fix ThermoLng all langevin ${temp} ${temp} ${damp} ${seed3} tally yes zero yes # Brownian Dynamics: langevin + nve
fix ThermoLng all langevin 0.05 ${temp} ${damp} ${seed3} tally yes zero yes 
fix ThermoLng all langevin 0.05 0.05 ${damp} ${seed3} tally yes zero yes 
fix ThermoLng all langevin 0.05 0.05 1 ${seed3} tally yes zero yes 
fix ThermoLng all langevin 0.05 0.05 1 2010 tally yes zero yes 
run ${steps}
run 3500000
WARNING: Using a manybody potential with bonds/angles/dihedrals and special_bond exclusions (src/pair.cpp:250)
Hybrid pair style last /omp style table/omp
Last active /omp style is angle_style harmonic/omp
Per MPI rank memory allocation (min/avg/max) = 24.03 | 24.04 | 24.04 Mbytes
   Step          Temp          E_pair         E_mol          TotEng         Press     
    500000   0.052337403   -0.73078846     0.03619944    -0.61613357     0.0043998326 
    501000   0.049811897   -0.73003967     0.035327846   -0.62004218    -0.0044671591 
    502000   0.050806186   -0.73112578     0.035301078   -0.61966459     0.0027990337 
    503000   0.050365995   -0.73088178     0.038068651   -0.61731288     0.0033440536 
    504000   0.05067376    -0.73292929     0.03613613    -0.62083156    -0.0022866727 
    505000   0.05048117    -0.73333887     0.035193773   -0.6224722      0.0012394757 
    506000   0.049375954   -0.73565558     0.037130727   -0.62450871     0.004772558  
    507000   0.050333739   -0.7375264      0.034329573   -0.62774492    -0.0023868862 
    508000   0.048826206   -0.73775752     0.035782758   -0.6287827      0.0022239332 
    509000   0.048780074   -0.73615162     0.035489199   -0.62753952     0.0012608716 
    510000   0.050055665   -0.73972793     0.036025543   -0.62866733    -0.0049622813 
    511000   0.050533079   -0.7396906      0.035432519   -0.62850736     0.0010786776 
    512000   0.051859543   -0.74063684     0.03494765    -0.62795006    -0.0011288631 
    513000   0.049996913   -0.7399472      0.035378824   -0.62962139    -0.001729067  
    514000   0.050593326   -0.74063837     0.036147209   -0.62865013    -0.003196619  
    515000   0.050544841   -0.74093703     0.035758305   -0.62941038     0.00044208219
    516000   0.049735643   -0.74047396     0.03636155    -0.62955708     0.00084974812
    517000   0.050076495   -0.74184391     0.035429919   -0.63134771     0.0043446883 
    518000   0.052259997   -0.74064515     0.032141852   -0.63016387     0.0017042622 
    519000   0.049384449   -0.74322488     0.035835242   -0.63336075     0.0044759212 
    520000   0.049605406   -0.74311686     0.034957208   -0.63379955    -0.005171145  
    521000   0.0507003     -0.74323865     0.03716389    -0.63007338     0.00028390172
    522000   0.050976216   -0.74451134     0.037349763   -0.63074659    -0.00079114092
    523000   0.05051553    -0.74451824     0.034921833   -0.63387199     0.0012316107 
    524000   0.049243942   -0.74411523     0.035627512   -0.63466946    -0.002099121  
    525000   0.050188769   -0.74398038     0.036169215   -0.63257659     0.0010883841 
    526000   0.050881873   -0.74531979     0.036723125   -0.63232309    -0.0022309053 
    527000   0.050036352   -0.74447789     0.035767049   -0.63370473     0.0029479124 
    528000   0.050691771   -0.74428494     0.035598222   -0.63269812     0.00091436464
    529000   0.051037743   -0.74342856     0.035278438   -0.6316429      0.0035000018 
    530000   0.049827913   -0.74611445     0.035930581   -0.63549022    -0.0051379718 
    531000   0.051299886   -0.74688473     0.034873118   -0.63511142     0.0044349234 
    532000   0.05069713    -0.74860875     0.035836526   -0.63677559    -0.00066724595
    533000   0.049634627   -0.74955666     0.033281604   -0.64187115    -0.0053083646 
    534000   0.048022316   -0.74952665     0.033878772   -0.64366088    -0.003800477  
    535000   0.05035031    -0.75013128     0.036065474   -0.63858907    -0.0015039785 
    536000   0.051346305   -0.75109578     0.034128372   -0.63999764     0.00010453565
    537000   0.049876231   -0.7526681      0.036713281   -0.64118874    -0.0034453296 
    538000   0.051000152   -0.75446272     0.036009633   -0.64200222     0.0012459079 
    539000   0.050186526   -0.75613939     0.035466591   -0.64544158     0.00018690893
    540000   0.051114875   -0.75696209     0.036606292   -0.64373296     0.0033948098 
    541000   0.051060444   -0.7577383      0.032881548   -0.6483155      0.001967357  
    542000   0.051062728   -0.75981221     0.034362671   -0.64890486     0.0022914888 
    543000   0.051298369   -0.76062662     0.035289981   -0.64843873    -0.00063757612
    544000   0.04992628    -0.76086896     0.035161327   -0.65086652    -0.0026282988 
    545000   0.049637863   -0.76083496     0.03524313    -0.65118307     0.0052594334 
    546000   0.048852416   -0.76262319     0.034540158   -0.65485168    -0.0047726354 
    547000   0.051323827   -0.76329928     0.034498694   -0.65186451     0.0025537458 
    548000   0.05072141    -0.76415179     0.033724223   -0.65439454    -0.00072926702
    549000   0.048020354   -0.76542982     0.035270182   -0.65817557    -0.0073877001 
    550000   0.050882633   -0.76754871     0.034079501   -0.65719451    -0.0039956904 
    551000   0.049571211   -0.76952746     0.036150762   -0.65906785    -0.0030244315 
    552000   0.050434186   -0.76913307     0.03459652    -0.65893408     0.0028040438 
    553000   0.047785255   -0.76838898     0.035532212   -0.66122513    -0.0026037758 
    554000   0.050849305   -0.76815511     0.036365361   -0.655565      -0.0055188266 
    555000   0.051777395   -0.76925814     0.034530089   -0.65711207    -0.0018216518 
    556000   0.050303292   -0.76929798     0.034974386   -0.65891734     0.0051513659 
    557000   0.050749194   -0.77158126     0.035894519   -0.65961206    -0.0039166241 
    558000   0.049918283   -0.77379848     0.037368953   -0.66160041     0.0028153621 
    559000   0.049340413   -0.77390874     0.035592419   -0.66435345     0.0010122366 
    560000   0.052735867   -0.7740276      0.035064298   -0.65991053     0.0027835413 
    561000   0.05092887    -0.77424904     0.035081033   -0.66282399    -0.0018754486 
    562000   0.051145473   -0.77438452     0.035623841   -0.66209196     0.0032694667 
    563000   0.049958887   -0.77517927     0.035369435   -0.66491985     0.001793898  
    564000   0.051684895   -0.77843914     0.037078886   -0.66388293    -0.0040901398 
    565000   0.048859484   -0.77802002     0.034874328   -0.66990375    -0.0013589401 
    566000   0.049932442   -0.78300602     0.037272825   -0.67088286     0.0016917414 
    567000   0.049323003   -0.78199589     0.034932299   -0.67312682     0.0019649963 
    568000   0.050279247   -0.78050625     0.033511537   -0.6716245      0.0097068051 
    569000   0.048413831   -0.78212173     0.036621854   -0.67292599    -0.0062769521 
    570000   0.050148314   -0.781749       0.035868414   -0.67070664    -0.0023964287 
    571000   0.049970558   -0.78178061     0.033963473   -0.67290966    -0.0057478746 
    572000   0.05037057    -0.78172837     0.035443083   -0.67077817     0.0031031171 
    573000   0.050667552   -0.78024474     0.034782531   -0.66950991    -0.0010377034 
    574000   0.051463835   -0.78168733     0.035960623   -0.66858075     0.005649323  
    575000   0.050754957   -0.78287104     0.035488263   -0.67129946    -0.007580568  
    576000   0.050311857   -0.78438593     0.034811576   -0.67415525    -0.00063284025
    577000   0.050347025   -0.78393124     0.034342539   -0.67411689    -0.0033675932 
    578000   0.050158114   -0.78644383     0.035557989   -0.67569721    -0.0030838313 
    579000   0.050411628   -0.78551361     0.035540881   -0.67440408    -0.0026270613 
    580000   0.050848884   -0.7904874      0.034781765   -0.67948151    -0.0082924793 
    581000   0.050918013   -0.79357362     0.035292322   -0.68195355     0.0018398089 
    582000   0.050687317   -0.79483236     0.036066719   -0.68278372    -0.00045815816
    583000   0.050048152   -0.7976211      0.037031158   -0.68556614    -0.0019533917 
    584000   0.051326949   -0.79978891     0.035252308   -0.68759585     0.0065817573 
    585000   0.050150728   -0.79953708     0.035819165   -0.68854035     0.0028560026 
    586000   0.048734412   -0.79946218     0.036064895   -0.69034283     0.0028170293 
    587000   0.049793367   -0.80042676     0.035773067   -0.69001183     0.0035017731 
    588000   0.050494103   -0.80227229     0.035765365   -0.69081463    -0.0015414584 
    589000   0.050530564   -0.80324098     0.035451237   -0.6920428      0.0033701829 
    590000   0.048538467   -0.80281307     0.035476725   -0.69457562     0.00076498124
    591000   0.049190421   -0.80215499     0.03659861    -0.69181835    -0.0069285826 
    592000   0.051580554   -0.80460281     0.033075117   -0.69420678    -0.0015397193 
    593000   0.051651109   -0.80356116     0.03385606    -0.69227842    -0.0036026939 
    594000   0.051414368   -0.80446086     0.035302343   -0.69208672     0.0023411381 
    595000   0.051743911   -0.80579516     0.034751485   -0.69347789    -0.001654186  
    596000   0.050535602   -0.80755725     0.037097213   -0.69470554     0.0038984033 
    597000   0.051270592   -0.80916764     0.036662384   -0.69564898    -0.0029952148 
    598000   0.051051846   -0.80832107     0.035346927   -0.69644577    -0.0052479534 
    599000   0.050348492   -0.80836385     0.037890186   -0.69499965     0.0033469833 
    600000   0.05290595    -0.8090384      0.036433525   -0.69329715    -0.0049207101 
    601000   0.052577082   -0.81080023     0.035519136   -0.69646635     0.0040668393 
    602000   0.048935956   -0.8097321      0.035471061   -0.70090447     0.0018496062 
    603000   0.049168344   -0.81090644     0.033593822   -0.70360769    -0.0083909912 
    604000   0.049244852   -0.81096267     0.034603461   -0.70253959    -0.00087387136
    605000   0.050551789   -0.8105355      0.035147003   -0.69960973    -0.0002840278 
    606000   0.049596356   -0.80885786     0.035002156   -0.69950917    -0.0012745122 
    607000   0.049112408   -0.80997432     0.035063113   -0.70129013     0.0031409762 
    608000   0.050210343   -0.81062848     0.034866732   -0.70049483     0.0027313167 
    609000   0.049172181   -0.80969512     0.035160195   -0.70082424    -0.0006600619 
    610000   0.051273955   -0.8108936      0.034896074   -0.69913621    -0.0041610058 
    611000   0.050252407   -0.81127684     0.035947999   -0.69999886     0.0021898746 
    612000   0.051166134   -0.81277892     0.035377545   -0.70070169    -0.008596504  
    613000   0.049999276   -0.81327819     0.033735975   -0.70459169     6.638655e-05 
    614000   0.048583224   -0.81389028     0.034909033   -0.70615343    -0.00036778509
    615000   0.051040911   -0.81447112     0.035307084   -0.70265206     0.0022515658 
    616000   0.050815634   -0.81432842     0.03597073    -0.70218341    -0.0067858604 
    617000   0.050075251   -0.81415182     0.035482754   -0.70360465    -0.007873814  
    618000   0.048428268   -0.81368337     0.033967722   -0.70712011     0.0028636934 
    619000   0.048949392   -0.81522248     0.035452994   -0.70639277    -0.0069228043 
    620000   0.050662457   -0.81646547     0.035877714   -0.7046431      0.0073365293 
    621000   0.050399782   -0.81730367     0.037569415   -0.70418336    -0.00022203751
    622000   0.05090261    -0.81737127     0.034655243   -0.70641137     0.0027782247 
    623000   0.050416495   -0.81725697     0.035565897   -0.70611512    -5.3489801e-06
    624000   0.051025978   -0.81745055     0.035687073   -0.70527389    -0.0019864009 
    625000   0.049998949   -0.81581146     0.036529267   -0.70433216     0.0027926797 
    626000   0.050658778   -0.81746884     0.035412036   -0.70611766    -0.00023094556
    627000   0.051052832   -0.81698843     0.036120264   -0.70433833     0.0041602489 
    628000   0.050275095   -0.81548351     0.036449609   -0.70366991     0.00098319135
    629000   0.051929247   -0.81571354     0.036494685   -0.70137524     0.0057596395 
    630000   0.051219189   -0.81659383     0.037122928   -0.70269169     0.0031285171 
    631000   0.052115488   -0.8173023      0.034621868   -0.70455763     0.0046411044 
    632000   0.051993856   -0.81827671     0.035672074   -0.70466417     0.0011447656 
    633000   0.051003298   -0.81752012     0.034945918   -0.70611861    -0.0022951469 
    634000   0.04963987    -0.81645468     0.034531573   -0.70751134     0.00016151496
    635000   0.050085776   -0.81738513     0.036983476   -0.70532146    -0.010179801  
    636000   0.052133746   -0.81693318     0.038007203   -0.70077581    -0.0020028421 
    637000   0.050140975   -0.81681222     0.035298632   -0.70635065    -0.0038667588 
    638000   0.049901745   -0.81587484     0.036393327   -0.70467718     0.0064263587 
    639000   0.05008566    -0.81688054     0.034947449   -0.70685307     0.0021941955 
    640000   0.049779287   -0.81607331     0.036621983   -0.70483057     0.0027709174 
    641000   0.051974909   -0.81673438     0.035664699   -0.70315761    -0.0073286728 
    642000   0.051473548   -0.8158545      0.036144965   -0.70254902    -0.0036480178 
    643000   0.049561206   -0.8169355      0.036691111   -0.70595054     0.0061132568 
    644000   0.047773359   -0.81689346     0.034781748   -0.7104979     -0.0087916409 
    645000   0.049705295   -0.81649455     0.033712237   -0.70827247    -0.0055406929 
    646000   0.051780879   -0.81914967     0.036574408   -0.70495406     0.0020139468 
    647000   0.048202484   -0.818526       0.037354817   -0.7089141     -0.001281461  
    648000   0.049355332   -0.81779049     0.036410418   -0.70739483    -0.0077127323 
    649000   0.04976792    -0.81748686     0.033824788   -0.70905835     0.0019163649 
    650000   0.050041414   -0.8188452      0.033449888   -0.71038162     0.00095028392
    651000   0.049404519   -0.82034311     0.034480593   -0.71180355     0.0012522126 
    652000   0.051099577   -0.82090301     0.034385289   -0.70991781    -0.00207095   
    653000   0.051079848   -0.82298279     0.034985485   -0.71142697    -0.00070357377
    654000   0.050957734   -0.82230878     0.033608813   -0.71231268     0.0026129845 
    655000   0.051471827   -0.82295386     0.033740801   -0.71205513    -0.0019181766 
    656000   0.049968382   -0.8235347      0.036783386   -0.71184709     0.0038005037 
    657000   0.051520477   -0.82451769     0.035283018   -0.71200381    -0.0071918557 
    658000   0.050949125   -0.82477204     0.036821778   -0.71157588    -0.0036492807 
    659000   0.052157331   -0.8254522      0.036427945   -0.71083873    -0.0066552848 
    660000   0.05203215    -0.8256135      0.035444859   -0.71217077    -0.0025216262 
    661000   0.051622121   -0.82844832     0.037543452   -0.71352164     0.00061642796
    662000   0.049919899   -0.82970738     0.034993642   -0.71988219     0.0043899181 
    663000   0.049755794   -0.83377519     0.034495195   -0.72469445    -0.0021386257 
    664000   0.050939266   -0.8353343      0.033537835   -0.72543686     8.6746385e-05
    665000   0.051679237   -0.83886902     0.03477121    -0.72662897     0.0039926639 
    666000   0.050410565   -0.8392536      0.035373833   -0.7283127     -0.0059160309 
    667000   0.05022334    -0.84025247     0.035624822   -0.72934124     0.0025439286 
    668000   0.050226593   -0.83977976     0.036135801   -0.72835268    -0.0026661223 
    669000   0.050099149   -0.84004053     0.035584257   -0.72935603     0.0033144113 
    670000   0.05005825    -0.84146968     0.036346462   -0.73008429    -0.0001078191 
    671000   0.049850553   -0.84057931     0.035413547   -0.73043818     0.00026806516
    672000   0.050185626   -0.8387888      0.036131824   -0.72742711    -0.0022924008 
    673000   0.049861855   -0.8394659      0.03864117    -0.7260802      0.0048921492 
    674000   0.051583324   -0.84080856     0.037782315   -0.72570118    -0.0061443004 
    675000   0.049791989   -0.84039702     0.035220761   -0.73053646     0.0003252852 
    676000   0.050387244   -0.84055376     0.034758195   -0.73026346     0.0027958265 
    677000   0.049669806   -0.8406395      0.036623956   -0.7295589      7.6486018e-05
    678000   0.051228473   -0.83984884     0.035939604   -0.7271161     -0.0023321337 
    679000   0.051372054   -0.84161974     0.035725009   -0.72888637    -0.0021572536 
    680000   0.049081037   -0.83995252     0.035694408   -0.73068405     0.0037456503 
    681000   0.049400939   -0.8420955      0.035603087   -0.73243881    -0.0016494264 
    682000   0.049664916   -0.84188175     0.037554059   -0.72987838    -0.0027148667 
    683000   0.050412778   -0.84122971     0.035205721   -0.73045361     0.0012702372 
    684000   0.049170963   -0.84181058     0.03462202    -0.7334797      0.001364513  
    685000   0.049037919   -0.84302337     0.034455444   -0.73505851     0.0022027345 
    686000   0.051120504   -0.842066       0.036310664   -0.72912405     2.3334164e-05
    687000   0.049959159   -0.84201743     0.035874506   -0.73125253     0.0020527724 
    688000   0.051480836   -0.84140042     0.034700305   -0.72952868    -0.0014873517 
    689000   0.050925616   -0.84238641     0.035483728   -0.73056355     0.0053672359 
    690000   0.051682657   -0.84410658     0.035485377   -0.73114723    -0.003076446  
    691000   0.050229112   -0.84491487     0.036086118   -0.73353369     0.0060201736 
    692000   0.050102054   -0.84490086     0.034406388   -0.73538988    -0.0023468774 
    693000   0.05043443    -0.84713699     0.034154067   -0.73738009    -0.0070651035 
    694000   0.0512015     -0.84990069     0.034727441   -0.73842054     0.0028449165 
    695000   0.050335081   -0.84995816     0.033126079   -0.74137817     0.0018693693 
    696000   0.048651243   -0.84948789     0.037559868   -0.73899824     0.00040725426
    697000   0.051979817   -0.85035861     0.035234696   -0.73720449     0.0042605604 
    698000   0.04889952    -0.84986569     0.037842282   -0.73872146    -0.0020271833 
    699000   0.049820674   -0.85145124     0.034682616   -0.74208583    -0.0021681746 
    700000   0.051493001   -0.85168126     0.036056531   -0.73843506    -0.00012799352
    701000   0.051907021   -0.85206444     0.032494616   -0.74175952    -0.00051735733
    702000   0.049373104   -0.85168284     0.036829605   -0.74084136    -0.00092558189
    703000   0.05105403    -0.85208325     0.03331714    -0.74223448    -0.0035032215 
    704000   0.050849677   -0.85190686     0.035469497   -0.74021206    -0.002166557  
    705000   0.050812545   -0.85206673     0.034664031   -0.74123306    -0.0016407135 
    706000   0.050223845   -0.85334485     0.037416107   -0.74064158     0.00010541677
    707000   0.050748518   -0.85415052     0.037617711   -0.74045915    -0.003436311  
    708000   0.05224614    -0.85527456     0.035072317   -0.74188359    -0.014532068  
    709000   0.051261868   -0.85486482     0.034003123   -0.7440185     -0.0020729205 
    710000   0.049300832   -0.85430191     0.03487726    -0.74552111     0.0063538056 
    711000   0.047518972   -0.85682965     0.034830489   -0.75076669     0.0052819461 
    712000   0.050046508   -0.85796643     0.034663403   -0.7482817     -0.0012263592 
    713000   0.04786927    -0.85827031     0.034075499   -0.75243723    -0.0052692191 
    714000   0.050577121   -0.85861191     0.033703655   -0.74909152    -0.00099859466
    715000   0.050032909   -0.86038642     0.035108896   -0.75027658     0.00021915009
    716000   0.050697333   -0.86069905     0.035166312   -0.7495358     -0.0045985298 
    717000   0.049593384   -0.86337302     0.034800788   -0.75423015     0.011602725  
    718000   0.050918099   -0.86619573     0.036237958   -0.75362989    -0.0090077312 
    719000   0.052021032   -0.86687222     0.039487657   -0.74940336     0.0014303694 
    720000   0.051608844   -0.86789703     0.035247054   -0.75528666     0.0059402987 
    721000   0.051203352   -0.86714324     0.03369668    -0.75669108    -0.00091941525
    722000   0.05090915    -0.86733702     0.033522004   -0.75750056    -0.00097893292
    723000   0.050014944   -0.86686006     0.035402958   -0.75648309    -0.0055712882 
    724000   0.050517096   -0.8677561      0.035538957   -0.75649039     0.0041591142 
    725000   0.04863125    -0.86741298     0.036711759   -0.75780141     0.0090684602 
    726000   0.049917362   -0.86791123     0.033958868   -0.75912463     0.0078240956 
    727000   0.04761029    -0.86887142     0.034370485   -0.76313158     0.0033704384 
    728000   0.050470255   -0.8700686      0.033740488   -0.76067157    -0.00164609   
    729000   0.049764041   -0.86919119     0.033533046   -0.76106024    -0.0059619944 
    730000   0.050309062   -0.86877803     0.035899624   -0.7574635     -0.00013527383
    731000   0.052384309   -0.86923747     0.034786654   -0.75592505    -0.0057916495 
    732000   0.050928653   -0.87030328     0.035991763   -0.75796782    -0.0028543184 
    733000   0.050666901   -0.87142456     0.036609839   -0.7588634     -0.0005415922 
    734000   0.051316396   -0.87034087     0.034974939   -0.75844099     0.00050620148
    735000   0.051372395   -0.87055034     0.037434893   -0.75610657     0.0065381188 
    736000   0.051030038   -0.87014838     0.034054684   -0.75959802     0.002045203  
    737000   0.050643018   -0.86974951     0.034506534   -0.75932746     0.0035776658 
    738000   0.051196908   -0.86991016     0.034830382   -0.75833397     0.00069703681
    739000   0.049725826   -0.87026147     0.035776674   -0.75994417    -0.0088015263 
    740000   0.050433693   -0.87192043     0.035103557   -0.76121514     6.3017733e-05
    741000   0.050326702   -0.87480693     0.03648188    -0.7628837     -0.002267678  
    742000   0.050059783   -0.87592058     0.035553393   -0.76532596    -0.00087363616
    743000   0.049842292   -0.87635265     0.037056053   -0.76458139    -0.0022644784 
    744000   0.051306472   -0.87702357     0.035949267   -0.76416424    -0.0016457706 
    745000   0.049605216   -0.87739595     0.038368017   -0.76466812    -0.0078547854 
    746000   0.050364647   -0.87827213     0.034076457   -0.76869745    -0.0082953984 
    747000   0.051114454   -0.87625016     0.034748198   -0.76487975     0.0029718542 
    748000   0.051978682   -0.87697635     0.035019373   -0.76403926    -0.0086387135 
    749000   0.050260692   -0.87739358     0.037058037   -0.76499314     0.0050560783 
    750000   0.048414459   -0.8763807      0.035067012   -0.76873885    -0.0036418178 
    751000   0.049453121   -0.87763523     0.036053105   -0.7674503     -0.0070312449 
    752000   0.048454344   -0.8763868      0.035942046   -0.76781012    -0.0029763987 
    753000   0.051175294   -0.87942007     0.036001982   -0.76670467     0.0039661566 
    754000   0.049525942   -0.87871944     0.034657429   -0.76982102    -0.00072016408
    755000   0.052087618   -0.88032959     0.035933339   -0.76631524    -0.0030465887 
    756000   0.049972678   -0.88101883     0.036450478   -0.76965769    -0.01125749   
    757000   0.050308999   -0.88001016     0.037122037   -0.76747331    -0.0014830738 
    758000   0.048573669   -0.88093818     0.036510199   -0.77161448     0.0025627947 
    759000   0.048717634   -0.88105222     0.033281234   -0.77474169    -0.0088493417 
    760000   0.047270409   -0.88045615     0.033479626   -0.77611665     0.0036760714 
    761000   0.048508603   -0.88075921     0.035334077   -0.77270917    -0.005609105  
    762000   0.048961679   -0.88133511     0.035001285   -0.77293869    -0.00085018208
    763000   0.049654304   -0.88112217     0.034110589   -0.77257817     0.0053466689 
    764000   0.048643337   -0.88151537     0.035353534   -0.7732439     -0.0034535942 
    765000   0.051332442   -0.88184693     0.034984996   -0.76991295     0.00013912066
    766000   0.048758205   -0.88074628     0.037248468   -0.77040769     0.00010999839
    767000   0.051130855   -0.88200916     0.033446754   -0.77191561     0.0021756925 
    768000   0.050018427   -0.88380387     0.037043169   -0.77178146    -0.0044087646 
    769000   0.051429039   -0.8842058      0.036520215   -0.77059179    -0.001287565  
    770000   0.050985205   -0.88386579     0.033959789   -0.77347754    -0.0059894033 
    771000   0.04841951    -0.88358361     0.034796927   -0.77620427     0.0066111183 
    772000   0.0502627     -0.88612081     0.032961466   -0.77781394    -0.0048921316 
    773000   0.050258566   -0.88782083     0.035430906   -0.77705071    -0.0031772212 
    774000   0.050374704   -0.88838647     0.036769238   -0.77610392     0.00077297567
    775000   0.049859284   -0.88990311     0.035620111   -0.77954232    -0.0051284596 
    776000   0.051761546   -0.89267245     0.033791939   -0.78128829    -0.0035294795 
    777000   0.047672483   -0.89332409     0.034126634   -0.78773487     0.0010775246 
    778000   0.050441496   -0.89300097     0.035302658   -0.78208488    -0.0077538075 
    779000   0.049155696   -0.89318003     0.035763994   -0.78373006     0.001848435  
    780000   0.04711996    -0.89307414     0.036797445   -0.78564235     0.00089331239
    781000   0.050466987   -0.89311303     0.035246424   -0.78221497    -0.0024126787 
    782000   0.048411607   -0.89303086     0.034769535   -0.78569077     0.0049009065 
    783000   0.050228328   -0.89594317     0.036571993   -0.78407729    -0.0052137593 
    784000   0.05045666    -0.89692206     0.034805931   -0.78647997    -0.0013436749 
    785000   0.049933923   -0.89579089     0.035049582   -0.78588875    -0.0035268972 
    786000   0.049178567   -0.89754954     0.037933324   -0.78589596    -0.0021528025 
    787000   0.051481489   -0.89676491     0.035495627   -0.78409687    -0.00044628023
    788000   0.05181905    -0.89741466     0.035819756   -0.78391647    -0.0046981494 
    789000   0.049958538   -0.89795592     0.035875762   -0.7871907     -0.00095449052
    790000   0.050493654   -0.89750968     0.034866618   -0.78695145    -0.005939072  
    791000   0.049995306   -0.89770734     0.035876288   -0.78688648     0.00012228818
    792000   0.050447717   -0.8982214      0.036151792   -0.78644685    -0.0029081273 
    793000   0.05073018    -0.89885164     0.034704416   -0.78810105    -0.0042726623 
    794000   0.048823563   -0.89772099     0.034371766   -0.79016112    -0.0036691048 
    795000   0.048046466   -0.8984745      0.034751478   -0.79169982    -0.0030934574 
    796000   0.049855064   -0.89827026     0.034073169   -0.78946274    -0.00073021567
    797000   0.049596324   -0.89864686     0.035192703   -0.78910767    -0.0020803768 
    798000   0.051721077   -0.90065631     0.037284742   -0.78584001    -0.003367342  
    799000   0.05195105    -0.90099712     0.037412755   -0.78570806    -0.0049079162 
    800000   0.050782282   -0.90109417     0.034979029   -0.78999086    -0.0067824158 
    801000   0.049931013   -0.90091967     0.034482569   -0.7915889      0.00017782704
    802000   0.049353212   -0.90134251     0.037238654   -0.7901218     -0.0048929297 
    803000   0.051200638   -0.90211643     0.035485936   -0.78987909     0.0053597963 
    804000   0.050476595   -0.9023562      0.035724414   -0.79096574     0.0019870561 
    805000   0.052176766   -0.90526489     0.036715045   -0.79033519    -0.0020427791 
    806000   0.052154543   -0.90541277     0.035090295   -0.79214114    -0.0072594196 
    807000   0.050357871   -0.90704442     0.035165479   -0.79639087    -0.003177788  
    808000   0.049369621   -0.90658732     0.034224158   -0.79835651     0.0011920937 
    809000   0.049977464   -0.90738505     0.036999247   -0.79546797    -0.0040243433 
    810000   0.05107655    -0.90793741     0.036010467   -0.79536155    -0.0012427806 
    811000   0.051486167   -0.90624574     0.035469637   -0.79359668    -0.0047187068 
    812000   0.051536859   -0.91074925     0.036056536   -0.7974373     -0.0031640677 
    813000   0.050397211   -0.91019365     0.035730223   -0.79891638    -0.0014377905 
    814000   0.049845187   -0.9112683      0.036038006   -0.80051075    -0.0033389861 
    815000   0.048344265   -0.91369182     0.036288364   -0.80493385    -0.0021752552 
    816000   0.04924003    -0.91362617     0.035240612   -0.80457317    -0.0013119021 
    817000   0.049223597   -0.91602891     0.036726984   -0.80551416    -0.010708581  
    818000   0.050462293   -0.91586357     0.037597584   -0.80262138    -0.0058131586 
    819000   0.05132547    -0.91762234     0.036281361   -0.80440245    -0.0070528981 
    820000   0.050661369   -0.91870991     0.035302856   -0.80746403    -0.0024332514 
    821000   0.051074412   -0.92068465     0.035193459   -0.808929       0.0041998057 
    822000   0.048687247   -0.91901687     0.036367612   -0.8096655      0.005155291  
    823000   0.051400728   -0.92152303     0.034415893   -0.81005578    -0.0010334955 
    824000   0.049610913   -0.92174762     0.033744309   -0.81363495     0.0015292668 
    825000   0.050480317   -0.92269711     0.036111909   -0.81091358    -0.0079714832 
    826000   0.051464246   -0.92167561     0.037804777   -0.80672426    -0.0029263863 
    827000   0.050820869   -0.92067605     0.038853382   -0.80564054     0.0022961446 
    828000   0.052087335   -0.92282713     0.038529045   -0.80621749    -0.0079848933 
    829000   0.051469722   -0.92474269     0.037332992   -0.81025492    -0.0035267662 
    830000   0.05119432    -0.92472677     0.035765535   -0.8122193     -0.010479272  
    831000   0.050037087   -0.92599718     0.03509767    -0.8158923     -0.0040419753 
    832000   0.050093886   -0.92639995     0.036728643   -0.81457896    -0.00099675652
    833000   0.049954366   -0.92592628     0.036866317   -0.81417676     0.0069342316 
    834000   0.05205166    -0.92434771     0.03738942    -0.80893117    -0.0022769352 
    835000   0.051685661   -0.92631145     0.037731894   -0.81110108    -0.0051136415 
    836000   0.049777561   -0.92599865     0.035860263   -0.81552022    -0.0093375432 
    837000   0.048988659   -0.926254       0.034718481   -0.81809994    -0.00021175374
    838000   0.050350404   -0.92713        0.03411185    -0.81754127    -0.0093871013 
    839000   0.04873738    -0.92488922     0.036296799   -0.81553352    -0.011340829  
    840000   0.049516163   -0.92758033     0.035243064   -0.81811094    -0.0026011197 
    841000   0.049550401   -0.92708888     0.03378932    -0.81902191     0.00037274316
    842000   0.049673504   -0.92846749     0.035239102   -0.8187662     -0.011770539  
    843000   0.049123135   -0.93115148     0.037680247   -0.81983407    -0.0072703107 
    844000   0.051234033   -0.92959017     0.036303517   -0.81648518     0.0018623277 
    845000   0.049805724   -0.93039156     0.036703587   -0.81902758    -0.0030856721 
    846000   0.049216497   -0.93117689     0.035737259   -0.82166252    -0.0052158701 
    847000   0.049563664   -0.93152832     0.033761826   -0.82346896     0.0016174165 
    848000   0.050249156   -0.93304912     0.035605915   -0.8221181     -0.0053838332 
    849000   0.049869954   -0.93078343     0.036203418   -0.81982334    -0.004952922  
    850000   0.049721834   -0.93285963     0.03504895    -0.82327605    -0.0091277349 
    851000   0.050879911   -0.93432224     0.037291354   -0.82076026    -0.0066365648 
    852000   0.049582445   -0.93312541     0.035591056   -0.82320867    -0.0063267277 
    853000   0.049673677   -0.93316593     0.035227144   -0.82347634    -0.0068371075 
    854000   0.04884087    -0.93332917     0.034794094   -0.82532104    -0.0032764335 
    855000   0.049748331   -0.93379013     0.03523673    -0.82397905    -0.0058564646 
    856000   0.048819966   -0.93372149     0.034088728   -0.82645006    -0.012605074  
    857000   0.050584718   -0.93507458     0.035115625   -0.82413083    -0.0016849522 
    858000   0.051094638   -0.93626395     0.034256379   -0.82541506    -0.008349106  
    859000   0.050392136   -0.93779369     0.035950179   -0.82630407    -0.0021633075 
    860000   0.051875052   -0.93750282     0.037192471   -0.82254797    -0.0047596901 
    861000   0.050817805   -0.93731702     0.036769381   -0.82437011     0.00049667782
    862000   0.051222291   -0.93670528     0.035566846   -0.82435457    -0.00637269   
    863000   0.051114898   -0.93740627     0.038645041   -0.82213835     0.0019854562 
    864000   0.050257822   -0.93690451     0.038385168   -0.82318125    -0.00037451707
    865000   0.049115284   -0.93861335     0.035926819   -0.82906113    -0.010190481  
    866000   0.050775929   -0.938044       0.035642483   -0.82628676    -0.00086435725
    867000   0.04915499    -0.93831601     0.033929992   -0.83070111     0.00012660381
    868000   0.049499359   -0.93795454     0.037115819   -0.82663759    -0.0086954246 
    869000   0.049063794   -0.93696471     0.035680182   -0.82773632    -0.00087163478
    870000   0.04949493    -0.93725449     0.034096088   -0.82896391    -0.0023815494 
    871000   0.04931419    -0.93805383     0.035293959   -0.82883631    -0.0025632172 
    872000   0.04977806    -0.93826607     0.036832462   -0.82681469    -0.013051806  
    873000   0.049367908   -0.93806362     0.035219197   -0.82884034    -0.0015653674 
    874000   0.049478186   -0.93902611     0.035964135   -0.82889258    -0.0022723676 
    875000   0.050733262   -0.93700039     0.036069332   -0.82488026     0.0067967773 
    876000   0.051407989   -0.93921944     0.037818868   -0.82433834    -0.0068455479 
    877000   0.052078815   -0.9380307      0.036160217   -0.82380266     0.0009704107 
    878000   0.050972155   -0.93881057     0.036227932   -0.82617374     0.0056168681 
    879000   0.0483307     -0.94025685     0.034614542   -0.83319303    -0.0046332302 
    880000   0.04974061    -0.93872858     0.034842263   -0.82932354     0.0023088405 
    881000   0.049656123   -0.94004278     0.035183589   -0.83042306     0.0024312298 
    882000   0.049207445   -0.93959171     0.036051281   -0.82977688    -0.0016816908 
    883000   0.05033482    -0.93989086     0.036657298   -0.82778004     0.0024033115 
    884000   0.050563872   -0.94025522     0.037219814   -0.82723853    -0.0054052071 
    885000   0.050748485   -0.93799487     0.036197177   -0.82572408     0.0025814469 
    886000   0.050062259   -0.94068328     0.037501562   -0.82813678     0.0028315285 
    887000   0.050682466   -0.93968088     0.037993615   -0.82571261    -0.0020094218 
    888000   0.051076851   -0.94307245     0.037914347   -0.82859226    -0.00098089982
    889000   0.050945435   -0.94363244     0.034898639   -0.83236495     0.00494014   
    890000   0.051808413   -0.94505471     0.037004918   -0.83038731    -0.0088375128 
    891000   0.052683676   -0.94596305     0.035412204   -0.83157632    -0.0014757773 
    892000   0.051327071   -0.9443097      0.034505668   -0.8328631      0.0010371404 
    893000   0.050022488   -0.94489716     0.03664929    -0.83326255    -0.00023773215
    894000   0.051733757   -0.94487434     0.035652181   -0.83167159     0.00083980648
    895000   0.050603612   -0.9447354      0.035816828   -0.83306212     0.0075616892 
    896000   0.049639486   -0.94551826     0.035361577   -0.8357455     -0.0045397196 
    897000   0.050244448   -0.94670946     0.035782841   -0.83560857    -0.0038353756 
    898000   0.050783382   -0.94790682     0.035255768   -0.83652512    -0.0080481999 
    899000   0.052285167   -0.94733806     0.03608877    -0.83287214    -0.0083033766 
    900000   0.049644599   -0.9489488      0.036818242   -0.8377117     -0.0052388343 
    901000   0.050474317   -0.94742806     0.037169943   -0.83459549    -0.0031387851 
    902000   0.050732039   -0.94861663     0.034967939   -0.83759973    -0.00066973139
    903000   0.049434699   -0.94848781     0.035025655   -0.83935795     0.0034577659 
    904000   0.049887408   -0.94887293     0.038210483   -0.83587962     0.0017385424 
    905000   0.05059433    -0.94802898     0.035343995   -0.83684245     0.0002668521 
    906000   0.050773362   -0.94790895     0.03565902    -0.83613902     0.0054238458 
    907000   0.050859123   -0.94707297     0.03565049    -0.83518302    -0.0013411579 
    908000   0.050361568   -0.94821662     0.036203886   -0.83651912    -0.0019451686 
    909000   0.050933302   -0.94840313     0.035846777   -0.83620569    -0.0035704366 
    910000   0.048638545   -0.94739086     0.036003251   -0.83847687    -0.0011291937 
    911000   0.050132188   -0.94867469     0.037733982   -0.83579094     0.0016116638 
    912000   0.051933246   -0.94791858     0.036829055   -0.83323992    -0.000659591  
    913000   0.048712094   -0.9466897      0.035759278   -0.83790943    -0.0087218325 
    914000   0.048787458   -0.94689141     0.036235014   -0.83752242    -0.0032485411 
    915000   0.049490068   -0.94838714     0.034067427   -0.84013251     0.0039260098 
    916000   0.051158301   -0.94897485     0.034552956   -0.83773395    -0.0013663085 
    917000   0.050229358   -0.94984255     0.036589475   -0.83795765     0.0042964881 
    918000   0.047718321   -0.94913909     0.035723447   -0.84188434    -0.0042119337 
    919000   0.050906444   -0.94863168     0.03402241    -0.83829886     0.0021709164 
    920000   0.050393881   -0.95051044     0.035139177   -0.83982921     0.0019276902 
    921000   0.048295314   -0.95302414     0.036374419   -0.84425348    -0.0026756138 
    922000   0.049285316   -0.95282806     0.034392432   -0.84455535    -0.00056017227
    923000   0.049060128   -0.9539985      0.036939638   -0.84351614    -0.0030445888 
    924000   0.049087591   -0.9564925      0.036737193   -0.84617142    -0.002990023  
    925000   0.049349019   -0.95568183     0.037177209   -0.84452885    -0.0030899755 
    926000   0.051394081   -0.95627445     0.036708185   -0.84252487     0.0066393213 
    927000   0.051582016   -0.95757523     0.037153465   -0.84309866     0.0019566228 
    928000   0.050135108   -0.95745767     0.036132601   -0.84617092     0.0041865567 
    929000   0.048384348   -0.95683227     0.037022874   -0.8472797      0.0041849967 
    930000   0.049313884   -0.95852226     0.03631249    -0.84828666     0.0022140222 
    931000   0.049225246   -0.95797589     0.034564123   -0.84962153     0.0008340089 
    932000   0.049076299   -0.95958532     0.035830728   -0.85018764    -0.0057973198 
    933000   0.048351679   -0.95782094     0.03655077    -0.84878944    -0.0038975364 
    934000   0.049721005   -0.95815009     0.035477339   -0.84813936    -0.0020456496 
    935000   0.048893611   -0.95767466     0.034514356   -0.84986721    -0.0040210559 
    936000   0.049946295   -0.95959495     0.033566033   -0.85115781     0.0022091952 
    937000   0.049877774   -0.95947353     0.035393507   -0.84931163    -0.008313191  
    938000   0.050067803   -0.96005632     0.035656112   -0.84934695     0.00024121093
    939000   0.048900797   -0.95989994     0.035837348   -0.85075872     0.0055779089 
    940000   0.050272094   -0.96329665     0.036952849   -0.85098431    -0.0092327225 
    941000   0.049179499   -0.96350949     0.033405619   -0.85638222    -0.011506048  
    942000   0.052755609   -0.96529715     0.03737757    -0.84883722    -0.0011346852 
    943000   0.051858176   -0.96719133     0.037698953   -0.8517553     -0.00040476748
    944000   0.049119259   -0.96721705     0.037457095   -0.8561286     -0.0077541401 
    945000   0.050205481   -0.96726923     0.036674886   -0.8553347     -0.0050634005 
    946000   0.048094296   -0.96669633     0.036896395   -0.85770503    -0.0032792433 
    947000   0.050606856   -0.96835087     0.036212121   -0.85627744     0.0037058913 
    948000   0.049971626   -0.96970655     0.034968345   -0.85982913     0.00082656483
    949000   0.04983048    -0.96857205     0.035107777   -0.85876677     0.0016917347 
    950000   0.048669347   -0.97005956     0.034552609   -0.86255003     0.00073067964
    951000   0.050301377   -0.97073205     0.035771254   -0.85955741    -0.0007616637 
    952000   0.049608899   -0.96920452     0.036999053   -0.85784012     0.00018581118
    953000   0.048613553   -0.96898946     0.036044709   -0.86007147    -0.0024316529 
    954000   0.050916683   -0.96941444     0.036614979   -0.85647371    -0.0036509034 
    955000   0.049942664   -0.97048292     0.034715361   -0.86090189    -0.01146026   
    956000   0.050715849   -0.97086456     0.034758229   -0.86008163    -0.003940966  
    957000   0.048993301   -0.96980266     0.036297538   -0.86006258    -0.0042924088 
    958000   0.049956662   -0.97002232     0.035243681   -0.859892      -0.0034989432 
    959000   0.050089844   -0.96964386     0.035906325   -0.85865124    -0.0034343802 
    960000   0.050110212   -0.96966865     0.035432823   -0.85911901     0.0031415176 
    961000   0.05130011    -0.96916865     0.034504925   -0.85776321     0.0039119569 
    962000   0.050013619   -0.96992442     0.03594591    -0.85900648    -0.0033211005 
    963000   0.050286398   -0.96898916     0.035196579   -0.85841165    -0.0073199334 
    964000   0.050571782   -0.9705847      0.035635364   -0.8591406     -0.0028412815 
    965000   0.051932673   -0.96958807     0.035625656   -0.85611366     0.0022449492 
    966000   0.051298295   -0.96970721     0.037567007   -0.85524241    -0.0006912357 
    967000   0.050479694   -0.96981912     0.036353129   -0.8577953     -0.0044818289 
    968000   0.05182273    -0.96962456     0.03636565    -0.85557496    -0.0043442906 
    969000   0.049029951   -0.9727468      0.035814176   -0.86343515    -0.00063333556
    970000   0.04953109    -0.97131104     0.034883436   -0.8621789      0.0013473062 
    971000   0.0517205     -0.97251204     0.036448336   -0.85853301    -0.0027515434 
    972000   0.051363377   -0.97116232     0.036355505   -0.85781146    -0.00072184849
    973000   0.051471976   -0.97243943     0.036015163   -0.85926611    -0.0003583391 
    974000   0.049103172   -0.97318314     0.037906894   -0.86166901     0.0025351302 
    975000   0.052029821   -0.97779033     0.037639322   -0.86215662    -0.0055670289 
    976000   0.051990326   -0.97777976     0.037174878   -0.86266971    -0.0059925915 
    977000   0.051473414   -0.97775023     0.035667445   -0.86492248     0.0061925726 
    978000   0.051499268   -0.97819365     0.035258154   -0.86573643     0.0039673829 
    979000   0.049539562   -0.9789152      0.035548396   -0.8691054      0.00056610948
    980000   0.050926203   -0.98063726     0.036866381   -0.86743086    -0.0053378709 
    981000   0.04949606    -0.98120609     0.036347472   -0.87066243    -0.0017276091 
    982000   0.050874737   -0.98145539     0.035715063   -0.86947746    -0.0006643197 
    983000   0.049346387   -0.97995766     0.035262958   -0.87072287     0.0086558222 
    984000   0.052015662   -0.98053555     0.035286369   -0.86727603     0.00054356356
    985000   0.05100758    -0.98055743     0.037725333   -0.86637009    -0.0040389199 
    986000   0.051536213   -0.97953598     0.036676495   -0.86560504     0.00015896217
    987000   0.052650194   -0.98191379     0.037662947   -0.8653265      0.0033888437 
    988000   0.051168826   -0.98473319     0.036789202   -0.87124027    -0.0076577287 
    989000   0.052013996   -0.98552042     0.037624869   -0.8699249     -0.0081720666 
    990000   0.052323291   -0.9851187      0.035767243   -0.87091715    -0.0012935138 
    991000   0.049610559   -0.98455514     0.034557541   -0.87562977     0.00038051638
    992000   0.051654808   -0.98531898     0.033862702   -0.87402405     0.00049499541
    993000   0.05046641    -0.98518139     0.035565428   -0.87396519    -0.0085751322 
    994000   0.050115291   -0.98521912     0.037863297   -0.87223139    -0.0079689151 
    995000   0.050339378   -0.98402956     0.036104528   -0.87246468    -0.00075051365
    996000   0.049640273   -0.9864089      0.036832679   -0.87516385    -0.0014054938 
    997000   0.050715977   -0.98382439     0.034208918   -0.87359059    -0.0072979687 
    998000   0.050993366   -0.98534554     0.036781134   -0.8721237     -0.0012096933 
    999000   0.048614181   -0.98502866     0.037510698   -0.87464373    -0.0040895004 
   1000000   0.050697784   -0.98491809     0.036161817   -0.87275866    -0.0016564706 
   1001000   0.052361657   -0.9894091      0.037361815   -0.87355547     0.0018917518 
   1002000   0.050348317   -0.98733743     0.034921461   -0.87694222    -0.0011650295 
   1003000   0.049366924   -0.9880154      0.036328278   -0.87768451    -0.006477514  
   1004000   0.050057487   -0.98872591     0.038592616   -0.87509551    -0.0025907461 
   1005000   0.050957778   -0.98749673     0.037217656   -0.87389172    -0.0029072808 
   1006000   0.050888292   -0.98924764     0.036369913   -0.87659453    -0.01038648   
   1007000   0.05051827    -0.9877903      0.036888003   -0.87517378     0.0019863541 
   1008000   0.051175524   -0.988589       0.036521437   -0.8753538      0.0014722994 
   1009000   0.050541267   -0.99083256     0.037776804   -0.87729276    -0.0094936884 
   1010000   0.051764273   -0.98967653     0.035635873   -0.87644434    -0.0015208438 
   1011000   0.051367254   -0.99140486     0.035505668   -0.87889802    -0.00099329874
   1012000   0.050538632   -0.99218434     0.035799739   -0.88062556     0.001036968  
   1013000   0.051048152   -0.99212162     0.034164033   -0.88143476    -0.0010052319 
   1014000   0.050015687   -0.9922389      0.035197363   -0.88206641    -0.0016907038 
   1015000   0.049395015   -0.99341564     0.034806118   -0.8845648     -0.0065989179 
   1016000   0.051324236   -0.99310886     0.03514356    -0.88102862    -0.0099404266 
   1017000   0.050501643   -0.99142773     0.034880249   -0.88084388    -0.0076854472 
   1018000   0.049067481   -0.99359912     0.036444855   -0.88360053    -0.0036581625 
   1019000   0.05034177    -0.99185274     0.03538411    -0.88100469     0.0056651383 
   1020000   0.049250104   -0.99251467     0.037002597   -0.88168458    -0.0056839618 
   1021000   0.04869894    -0.99178129     0.036096856   -0.88268315    -0.011076104  
   1022000   0.049834852   -0.99179725     0.036312504   -0.88078069    -0.0066997107 
   1023000   0.048849853   -0.99296989     0.035520288   -0.88422209     0.0017454758 
   1024000   0.049298585   -0.99170753     0.035053184   -0.88275418    -0.0061375162 
   1025000   0.050491625   -0.99077776     0.037320516   -0.87776867     0.0068024243 
   1026000   0.051141471   -0.99125767     0.037292834   -0.87730213    -0.0014136659 
   1027000   0.049736135   -0.99147765     0.035558338   -0.88136324    -0.0036372013 
   1028000   0.049804196   -0.9918119      0.037683056   -0.87947075    -0.0030663713 
   1029000   0.050450523   -0.99267693     0.035771917   -0.88127805    -0.00072481932
   1030000   0.050413898   -0.99399058     0.035838042   -0.88258048     0.0038551345 
   1031000   0.051345423   -0.99340154     0.035635826   -0.88079727    -0.0085698103 
   1032000   0.05093447    -0.99393377     0.03689503    -0.88068633    -0.0049167173 
   1033000   0.04970175    -0.99397817     0.034804776   -0.88466887    -0.010762508  
   1034000   0.049482195   -0.99391899     0.035480324   -0.88426326     0.00062553633
   1035000   0.050900536   -0.99373792     0.035060343   -0.88237603     0.0041879321 
   1036000   0.049179874   -0.99442299     0.03454118    -0.88615959    -0.00047421527
   1037000   0.050183197   -0.99398155     0.036550342   -0.88220497    -0.0077472651 
   1038000   0.049524431   -0.99214698     0.035276413   -0.88263185    -0.0047722832 
   1039000   0.050574481   -0.99396166     0.034302385   -0.8838465     -0.0044169097 
   1040000   0.050234635   -0.99323426     0.03404495    -0.88388597     0.0039294482 
   1041000   0.050271506   -0.9951038      0.0367281     -0.88301709    -0.0013781769 
   1042000   0.049543586   -0.99358888     0.036635165   -0.88268628    -0.0017983282 
   1043000   0.05009283    -0.99386068     0.037544626   -0.88122529     0.0064898353 
   1044000   0.050026318   -0.99415842     0.037735471   -0.88143189    -0.007126131  
   1045000   0.049603986   -0.99438388     0.035438938   -0.88458696    -0.00051965228
   1046000   0.04837606    -0.99411325     0.034868513   -0.88672746    -0.0030957575 
   1047000   0.05174572    -0.99572887     0.033406078   -0.88475429    -0.0056324761 
   1048000   0.049518854   -0.99601819     0.035350779   -0.88643705    -0.00024706333
   1049000   0.049284623   -0.99592295     0.035006324   -0.88703738    -0.0017652401 
   1050000   0.049019937   -0.99532215     0.033911684   -0.887928       0.002457623  
   1051000   0.049663902   -0.99487211     0.034219783   -0.88620453    -0.0014564102 
   1052000   0.049192617   -0.99574744     0.037196117   -0.88481        0.0045879135 
   1053000   0.0516082     -0.99634341     0.038232077   -0.88074897    -0.0049951698 
   1054000   0.051252445   -0.99699466     0.036463517   -0.88370207    -0.006016918  
   1055000   0.050363756   -0.99589086     0.036371748   -0.88402221    -0.0026142411 
   1056000   0.050485573   -0.99687499     0.036514587   -0.8846809      0.00019398449
   1057000   0.050090626   -0.99645368     0.036067422   -0.8852988      0.0034460499 
   1058000   0.050315723   -0.99721088     0.03522986    -0.88655613     0.0055216058 
   1059000   0.04899264    -0.99652081     0.034080237   -0.88899902    -0.0003587774 
   1060000   0.048829346   -0.99713195     0.034951447   -0.88898374     0.0051013154 
   1061000   0.049915141   -0.99685154     0.03479009    -0.88723704    -0.00086230252
   1062000   0.049098842   -0.99696861     0.037157666   -0.8862102     -0.0019554982 
   1063000   0.050297917   -0.99765879     0.036085947   -0.88617464    -0.00010680903
   1064000   0.04999726    -0.99612277     0.03648512    -0.88469015    -0.0016232394 
   1065000   0.05028236    -0.99456312     0.036123892   -0.88306434     0.002596853  
   1066000   0.050551986   -0.9967208      0.037960712   -0.88298103    -0.0074074384 
   1067000   0.049664258   -0.99672077     0.036666666   -0.88560578    -0.0029807858 
   1068000   0.049872475   -0.99627064     0.036162741   -0.88534745     0.002452097  
   1069000   0.050494801   -0.99757635     0.035683301   -0.88619971    -0.012097337  
   1070000   0.049593903   -0.99767126     0.03497364    -0.88835476    -0.003732303  
   1071000   0.050759587   -0.99998763     0.037546197   -0.88635118    -0.0056882078 
   1072000   0.050483157   -0.9995386      0.035077419   -0.8887853      0.0073870693 
   1073000   0.050452073   -1.0012841      0.039005294   -0.88664949    -0.00078554229
   1074000   0.051134174   -1.0013009      0.035568431   -0.88908073     0.00054211697
   1075000   0.049391683   -0.999269       0.03744272    -0.88778656     0.00020174793
   1076000   0.050510432   -1.0017803      0.03549665    -0.89056686    -0.0077531485 
   1077000   0.050798938   -1.001647       0.035043817   -0.89045389     0.0049532218 
   1078000   0.048726505   -1.0023572      0.038469134   -0.89084551    -0.0025812601 
   1079000   0.051927936   -1.0021315      0.033742564   -0.89054731     0.0012966125 
   1080000   0.048330974   -1.0020564      0.035888053   -0.89371864     0.0029638434 
   1081000   0.050517961   -1.0020582      0.034164995   -0.89216519    -0.00032206308
   1082000   0.051908984   -1.0018054      0.035591103   -0.88840101    -0.0059159861 
   1083000   0.050042154   -1.0009667      0.034338386   -0.89161349     0.0017904359 
   1084000   0.050174635   -1.0012456      0.035689982   -0.89034225    -0.0016227009 
   1085000   0.049357103   -1.001874       0.035367177   -0.89251894     0.0034414299 
   1086000   0.049238322   -1.0006686      0.036253543   -0.89060521    -0.011020271  
   1087000   0.049904451   -1.0009508      0.038734477   -0.88740793    -0.012658565  
   1088000   0.049819575   -1.0030436      0.036257492   -0.89210496     0.0032574041 
   1089000   0.047943901   -1.0024629      0.035402331   -0.89519112    -0.005649945  
   1090000   0.049684936   -1.002163       0.034616452   -0.89306722     0.005922326  
   1091000   0.04861607    -1.0023134      0.036384261   -0.89305204    -0.003239683  
   1092000   0.049857578   -1.0019518      0.03646186    -0.89075185    -0.0089591024 
   1093000   0.048639458   -1.0018573      0.035811904   -0.89313328    -0.0097734331 
   1094000   0.0524313     -1.0023161      0.036915147   -0.88680475    -0.0028164854 
   1095000   0.052286903   -1.0014149      0.038029153   -0.88500594    -0.0038237555 
   1096000   0.049965317   -1.0009049      0.037079157   -0.8889261      0.0033354692 
   1097000   0.05058865    -1.0019009      0.03669886    -0.88936798    -0.011460027  
   1098000   0.050305501   -1.0027447      0.036274565   -0.89106054    -0.0050420277 
   1099000   0.047926553   -1.0005322      0.03665282    -0.89203589    -0.012627234  
   1100000   0.051165242   -1.0022803      0.036155881   -0.88942604    -0.0046594584 
   1101000   0.04854698    -1.0010538      0.034897831   -0.8933825     -0.0015797848 
   1102000   0.048213958   -1.0015096      0.035712204   -0.89352315    -0.0085208727 
   1103000   0.049684244   -1.001849       0.037493003   -0.88987769     0.0073339404 
   1104000   0.051517413   -1.0056034      0.035360601   -0.8930165     -0.013751702  
   1105000   0.049835169   -1.0042628      0.03696013    -0.8925981     -0.0040366872 
   1106000   0.048783873   -1.003879       0.036498012   -0.89425237    -7.1120064e-05
   1107000   0.050345117   -1.0034288      0.035245247   -0.89271457    -0.00946009   
   1108000   0.05031764    -1.0054841      0.035493024   -0.89456334    -0.0065843692 
   1109000   0.051061679   -1.0049956      0.033512774   -0.89493968    -0.0064035622 
   1110000   0.050546278   -1.0058923      0.035856675   -0.89426512    -0.0045939959 
   1111000   0.048870523   -1.003878       0.034554034   -0.89606545    -0.0041866246 
   1112000   0.049350522   -1.0054657      0.035530458   -0.89595723    -0.0037301892 
   1113000   0.051390281   -1.0056582      0.03619355    -0.89242895    -0.0067356137 
   1114000   0.050775404   -1.0044445      0.034305185   -0.89402535    -0.0035880328 
   1115000   0.051285075   -1.0047912      0.036807344   -0.89110584    -0.0025549768 
   1116000   0.05073438    -1.0041384      0.034702291   -0.89338367    -0.0066705519 
   1117000   0.050474626   -1.0054391      0.035157053   -0.89461893     0.0049976073 
   1118000   0.048165817   -1.0041588      0.034687434   -0.89726923    -0.0041823265 
   1119000   0.050808475   -1.0062589      0.037649097   -0.89244626    -0.012185488  
   1120000   0.050565241   -1.0045257      0.036026242   -0.89270049     0.00093173139
   1121000   0.050032545   -1.0056277      0.035504101   -0.89512319     0.00611239   
   1122000   0.050483105   -1.0068436      0.036067377   -0.89510044     0.00028460945
   1123000   0.049582945   -1.0068164      0.036623559   -0.89586644    -0.0031212561 
   1124000   0.051172442   -1.0093305      0.036424925   -0.89619648    -0.0066031826 
   1125000   0.051634847   -1.0110048      0.037903536   -0.895699      -0.0044869795 
   1126000   0.05319376    -1.009944       0.037711735   -0.89249307     0.00044045933
   1127000   0.050087345   -1.0099793      0.036280515   -0.89861621    -0.0081026976 
   1128000   0.050043655   -1.0083975      0.034360912   -0.89901952    -0.0045995886 
   1129000   0.049213166   -1.0104841      0.035539188   -0.90117276    -0.0038952229 
   1130000   0.050509353   -1.0107309      0.035544622   -0.89947115    -0.0046667145 
   1131000   0.051091768   -1.0108557      0.035482979   -0.89878447    -0.0078515412 
   1132000   0.04998545    -1.0111815      0.036414566   -0.8998371     -0.010799007  
   1133000   0.049828955   -1.0102718      0.034338078   -0.90123856    -0.0052939154 
   1134000   0.050104412   -1.0103187      0.033762624   -0.90144795    -0.0019539617 
   1135000   0.04964901    -1.0102479      0.03477917    -0.90104328    -0.00059471644
   1136000   0.050405279   -1.0120756      0.034910998   -0.90160543    -0.0081898489 
   1137000   0.050926197   -1.0106771      0.033800578   -0.90053647     0.0057016064 
   1138000   0.048144593   -1.0110984      0.034348649   -0.90457942     0.0056818925 
   1139000   0.051005101   -1.0112869      0.03675462    -0.89807396    -0.0013349153 
   1140000   0.049720686   -1.0105897      0.033801743   -0.90225504    -0.0017239836 
   1141000   0.048951899   -1.0106434      0.036667961   -0.90059498     0.0060863183 
   1142000   0.049861117   -1.0107418      0.036706732   -0.89929164    -0.0064653383 
   1143000   0.047225765   -1.0110979      0.034081209   -0.90622375    -0.0012737503 
   1144000   0.048832966   -1.0102772      0.034852472   -0.90222249    -0.0048190585 
   1145000   0.049985238   -1.0115741      0.034900003   -0.9017446      0.0015379682 
   1146000   0.050806663   -1.0116185      0.036216292   -0.89924137     0.0052820038 
   1147000   0.050418333   -1.0117432      0.035218437   -0.90094609    -0.000872579  
   1148000   0.051050173   -1.0101379      0.034710249   -0.89890175     8.7068233e-05
   1149000   0.052863984   -1.0108121      0.036372699   -0.8951946     -0.00062489314
   1150000   0.049267667   -1.0109104      0.037236989   -0.89981957    -0.0052915966 
   1151000   0.0503331     -1.0114774      0.036107684   -0.89991875     0.0014720156 
   1152000   0.05113357    -1.0120021      0.035441204   -0.89991006     0.0016236395 
   1153000   0.051704255   -1.0147139      0.035290153   -0.90191744     0.001715637  
   1154000   0.049444762   -1.0144985      0.037421519   -0.90295774    -0.0033824785 
   1155000   0.048966499   -1.0149687      0.035629748   -0.90593661    -0.00058232319
   1156000   0.04895367    -1.0169294      0.035682892   -0.90786336    -0.0072513678 
   1157000   0.049288001   -1.0164744      0.036130227   -0.9064599     -0.0070400724 
   1158000   0.049089214   -1.0154955      0.035345863   -0.90656329    -0.0027231852 
   1159000   0.051576063   -1.0167182      0.03676959    -0.90263445    -0.0045301989 
   1160000   0.051979159   -1.0149987      0.035160366   -0.9019199      0.0018507649 
   1161000   0.049998196   -1.0163047      0.037653709   -0.90370205    -0.0066639347 
   1162000   0.048464476   -1.0146743      0.034136981   -0.90788753    -0.0026674679 
   1163000   0.049203118   -1.0160692      0.035603926   -0.90670822    -0.008597317  
   1164000   0.049055539   -1.0137534      0.036305917   -0.90391166     0.0010371103 
   1165000   0.049118605   -1.014713       0.035890095   -0.90519249    -0.0026146346 
   1166000   0.048186302   -1.0150844      0.036743292   -0.90610825    -0.0075581682 
   1167000   0.0470967     -1.0147278      0.03634219    -0.90778615     0.00018924022
   1168000   0.048719528   -1.0162112      0.035429673   -0.90774934    -0.0037572212 
   1169000   0.050055156   -1.0138237      0.035429779   -0.90335967     0.0020537731 
   1170000   0.048495111   -1.0136159      0.037722687   -0.90319743     0.0023609937 
   1171000   0.051172659   -1.0147395      0.03484618    -0.90318389    -0.0032788049 
   1172000   0.050999486   -1.0157773      0.037281131   -0.90204633    -0.0080740381 
   1173000   0.051249633   -1.0155283      0.033799834   -0.90490361    -0.0071425317 
   1174000   0.049956124   -1.0176975      0.036368645   -0.90644299    -0.0010993545 
   1175000   0.050542624   -1.0168767      0.034841375   -0.90627027    -0.00019673474
   1176000   0.049036081   -1.0178676      0.036856045   -0.90750489    -0.0012945182 
   1177000   0.049377459   -1.0174936      0.036451704   -0.90702353    -0.0047600633 
   1178000   0.050115978   -1.0191125      0.036818193   -0.90716882    -0.0098128015 
   1179000   0.049879769   -1.0183705      0.036828809   -0.90677035    -0.0046624521 
   1180000   0.049368846   -1.0178391      0.036358812   -0.90747484    -0.0020355602 
   1181000   0.049817145   -1.0177346      0.035043629   -0.90801345    -0.0032913014 
   1182000   0.049646046   -1.0169338      0.03644271    -0.90607004    -0.0047220486 
   1183000   0.04963131    -1.018751       0.037349039   -0.90700305     0.00092143303
   1184000   0.051156323   -1.0183091      0.034940087   -0.90668403    -0.0088245472 
   1185000   0.050674766   -1.0184381      0.035562419   -0.90691256     0.0062557753 
   1186000   0.051199826   -1.0184873      0.034092037   -0.90764503    -0.0062811735 
   1187000   0.051543222   -1.019447       0.035781368   -0.90640072     0.0069768991 
   1188000   0.049288455   -1.0195874      0.036342235   -0.90936021    -0.0014981427 
   1189000   0.049352856   -1.0198376      0.034472181   -0.91138385    -0.0055271232 
   1190000   0.049319848   -1.0203518      0.034985636   -0.91143409    -0.0060524411 
   1191000   0.049494856   -1.0183065      0.036555246   -0.90755691    -0.010759319  
   1192000   0.050152863   -1.0216102      0.037472662   -0.90895678    -0.0029035293 
   1193000   0.05152646    -1.020896       0.039474185   -0.90418197    -0.0040674351 
   1194000   0.050977689   -1.0209223      0.03702877    -0.90747637    -0.00065361856
   1195000   0.049742889   -1.019973       0.035893969   -0.90951288     0.0025987253 
   1196000   0.049897315   -1.022188       0.035875066   -0.91151521    -0.00046093871
   1197000   0.049976371   -1.0223366      0.036391482   -0.91102888     0.0024780792 
   1198000   0.051113281   -1.023729       0.035167698   -0.91194087    -0.001084469  
   1199000   0.049320671   -1.0230794      0.035969922   -0.91317622    -0.0023391476 
   1200000   0.047521325   -1.0234301      0.035857787   -0.91633631     0.0010120729 
   1201000   0.050419864   -1.023245       0.036477578   -0.91118642    -0.002068931  
   1202000   0.051126117   -1.0217527      0.037863118   -0.90724985     0.00087438883
   1203000   0.049996226   -1.0268181      0.039329106   -0.91254306     0.00083007375
   1204000   0.051599389   -1.0269543      0.036702893   -0.91290229    -0.0024996828 
   1205000   0.051352949   -1.0282747      0.035286688   -0.91600824     0.0077156871 
   1206000   0.050296759   -1.0317421      0.036184031   -0.92016162    -0.010935215  
   1207000   0.051340548   -1.0309569      0.036628014   -0.91736774     0.00041553875
   1208000   0.051409937   -1.0310069      0.038030253   -0.91591146    -0.0078634438 
   1209000   0.049012721   -1.0330855      0.038127897   -0.92148597     0.00040807293
   1210000   0.049959093   -1.0337498      0.038153046   -0.92070646     0.00093178593
   1211000   0.050408317   -1.0321911      0.037268292   -0.91935911    -0.0028158869 
   1212000   0.050914027   -1.0337764      0.038077604   -0.91937707    -0.0058772512 
   1213000   0.050113415   -1.0330975      0.034626391   -0.92334948    -0.0058820985 
   1214000   0.050818561   -1.0341214      0.036402446   -0.92154032    -0.0047370526 
   1215000   0.049566264   -1.0336452      0.036582829   -0.92276095     0.0046803877 
   1216000   0.049153712   -1.0338972      0.038369713   -0.92184449    -0.0064095883 
   1217000   0.051123652   -1.033044       0.038657816   -0.9177502     -0.011157427  
   1218000   0.050068605   -1.0316932      0.036505437   -0.92013333    -0.0020486024 
   1219000   0.048052958   -1.0330394      0.036132666   -0.92487377    -0.00044976117
   1220000   0.050828381   -1.0329505      0.035126437   -0.92163071     0.0037761243 
   1221000   0.051002668   -1.0333927      0.036537394   -0.9204007      0.0013455813 
   1222000   0.049684743   -1.0342009      0.036882191   -0.92283963    -0.0037584965 
   1223000   0.04873615    -1.0331837      0.035758487   -0.92436816     0.0029779748 
   1224000   0.049519064   -1.0341994      0.03743984    -0.92252884    -0.002449334  
   1225000   0.052050119   -1.0373214      0.036837938   -0.92245861    -0.0044623546 
   1226000   0.050187834   -1.0355252      0.03714107    -0.92315095    -0.00085538824
   1227000   0.052045069   -1.0364208      0.035048329   -0.92335521    -0.0029786961 
   1228000   0.050868856   -1.0378964      0.037087854   -0.92455447    -0.012500206  
   1229000   0.049332775   -1.0386633      0.036139534   -0.9285723     -0.0013997642 
   1230000   0.048822399   -1.0389408      0.036012158   -0.92974232    -0.0070868862 
   1231000   0.051169567   -1.0388657      0.036858061   -0.92530281     0.0032902096 
   1232000   0.049533858   -1.0383286      0.036984612   -0.9270911      0.0026833164 
   1233000   0.049745781   -1.0379378      0.038152999   -0.92521428    -0.0072274978 
   1234000   0.052072552   -1.0385228      0.034582596   -0.92588174     0.00063583707
   1235000   0.050038278   -1.0388194      0.036321952   -0.92748847    -0.0033686645 
   1236000   0.049855157   -1.0387856      0.037361045   -0.92669011     0.00018693184
   1237000   0.051821069   -1.0393298      0.037115411   -0.92453294    -0.0033502064 
   1238000   0.048963016   -1.0386273      0.034404744   -0.93082539    -0.0054886915 
   1239000   0.05099299    -1.0386106      0.035616317   -0.92655412    -0.010032391  
   1240000   0.052582956   -1.0388843      0.037128516   -0.92293221     0.0030101213 
   1241000   0.050915317   -1.0393264      0.037169199   -0.92583349    -0.0032514204 
   1242000   0.0496426     -1.039226       0.037076718   -0.92773345    -0.0062902418 
   1243000   0.049265751   -1.0367848      0.035231058   -0.92770276     0.0065706366 
   1244000   0.048890943   -1.0380708      0.035215846   -0.92956589    -0.001339862  
   1245000   0.049627297   -1.039251       0.036030964   -0.92882708     0.00032381933
   1246000   0.051436246   -1.0385361      0.035672599   -0.92575892    -0.007161425  
   1247000   0.049350798   -1.0388973      0.036968154   -0.92795075     0.00075387466
   1248000   0.050979328   -1.0392108      0.037011778   -0.92577933    -0.0040424816 
   1249000   0.050901915   -1.0398435      0.036616648   -0.9269232     -0.010047906  
   1250000   0.049553156   -1.0379088      0.035447919   -0.92817908    -0.0011604558 
   1251000   0.049471337   -1.0398934      0.037739563   -0.92799474    -0.0058757312 
   1252000   0.050649512   -1.0404109      0.03786093    -0.92662473     0.00072808526
   1253000   0.052130626   -1.0402671      0.036156908   -0.92596467     0.0022870847 
   1254000   0.050119803   -1.0401775      0.036932429   -0.92811382     0.00243683   
   1255000   0.050123228   -1.0406806      0.036225819   -0.9293185     -0.0018176741 
   1256000   0.051871644   -1.0429789      0.038414263   -0.92680739    -0.008628815  
   1257000   0.050516194   -1.043359       0.036863731   -0.93076988     0.0037605847 
   1258000   0.049363069   -1.0439704      0.036292375   -0.9336812     -0.0069826924 
   1259000   0.049091113   -1.0430963      0.035614657   -0.93389249    -0.00024425997
   1260000   0.050403103   -1.0428244      0.036665621   -0.93060285     0.0033033825 
   1261000   0.052069094   -1.044258       0.036248322   -0.92995638    -0.0087748505 
   1262000   0.050423603   -1.0428833      0.039656066   -0.92764064    -0.0039504388 
   1263000   0.052579239   -1.0445071      0.037853866   -0.92783528    -0.0033394347 
   1264000   0.049660433   -1.0428092      0.039012688   -0.92935391    -0.0017682575 
   1265000   0.049827765   -1.0434825      0.0367034     -0.93208565    -0.0043467222 
   1266000   0.050598076   -1.0434358      0.037530597   -0.93005705    -0.0015153588 
   1267000   0.051478254   -1.043363       0.03598789    -0.93020753    -0.010652733  
   1268000   0.051388474   -1.0453293      0.034760374   -0.93353597    -0.0065478445 
   1269000   0.048879983   -1.04434        0.038647443   -0.93241993    -0.0047448937 
   1270000   0.052205169   -1.0441102      0.037394551   -0.92845847     0.0017681634 
   1271000   0.048968185   -1.0438558      0.036785658   -0.93366529    -0.0048390925 
   1272000   0.05010804    -1.0435786      0.037802916   -0.93066215    -0.0010598001 
   1273000   0.050990828   -1.0436948      0.037416547   -0.92984137    -0.0057427095 
   1274000   0.050125077   -1.0442895      0.03879345    -0.9303569     -0.0046799309 
   1275000   0.051041979   -1.0454938      0.03761244    -0.93136778    -0.0078757241 
   1276000   0.049810034   -1.0439381      0.037970842   -0.93130037     0.0012624159 
   1277000   0.052366985   -1.0437725      0.035543863   -0.92972886    -0.0010290727 
   1278000   0.052033111   -1.0437818      0.036927321   -0.92885515    -0.0067554885 
   1279000   0.049506738   -1.0424865      0.036830367   -0.93144389     0.0042420988 
   1280000   0.051056214   -1.0437217      0.036733854   -0.93045291    -0.0058357657 
   1281000   0.050973835   -1.043958       0.03764446    -0.92990213    -0.0046601747 
   1282000   0.050513013   -1.0430947      0.037194597   -0.93017947    -0.0027359257 
   1283000   0.04997024    -1.0449579      0.035156145   -0.93489472    -0.012818026  
   1284000   0.048930612   -1.0455415      0.035476965   -0.93671592    -0.0016446903 
   1285000   0.048495344   -1.0448952      0.035887372   -0.9363117     -0.0092549497 
   1286000   0.048906583   -1.0446612      0.036018455   -0.93533025    -0.0070476146 
   1287000   0.048936315   -1.0441291      0.036892445   -0.93387956    -0.0058721308 
   1288000   0.049469695   -1.0452494      0.03543076    -0.93566195     0.0055952949 
   1289000   0.049406991   -1.0439745      0.036323702   -0.93358815    -0.0038184573 
   1290000   0.048989427   -1.0453352      0.037539683   -0.93435882     0.0047117668 
   1291000   0.049104281   -1.0473701      0.037919326   -0.93584186    -0.0081986055 
   1292000   0.048311642   -1.0464491      0.037888352   -0.93613999     8.7272747e-05
   1293000   0.050796696   -1.0469207      0.037564611   -0.93321017    -0.0060181094 
   1294000   0.050881166   -1.0474501      0.037359192   -0.93381838     0.005167374  
   1295000   0.049314893   -1.0463079      0.035865246   -0.93651807    -0.0090310025 
   1296000   0.050249957   -1.0471572      0.036974914   -0.93485601    -0.0027845641 
   1297000   0.048750702   -1.0469466      0.038609685   -0.935258      -0.00044483501
   1298000   0.050388733   -1.0471405      0.037923501   -0.93368266    -0.0051575521 
   1299000   0.051229548   -1.0457362      0.035986393   -0.93295505    -0.00099352161
   1300000   0.050142698   -1.0462953      0.036908842   -0.93422097    -0.00070511139
   1301000   0.050078542   -1.0471807      0.036463794   -0.93564751     0.00011184105
   1302000   0.047200524   -1.0463651      0.036879278   -0.93873074    -0.0086671371 
   1303000   0.049055799   -1.0471018      0.036154548   -0.93741102     0.0025327827 
   1304000   0.049154558   -1.0470714      0.038578069   -0.93480907    -0.0024776007 
   1305000   0.048869491   -1.0456918      0.036564281   -0.93587059    -0.0044449192 
   1306000   0.051183866   -1.0474058      0.037852917   -0.93282659    -0.0033758386 
   1307000   0.047946949   -1.0471224      0.03799992    -0.93724844    -0.0093538829 
   1308000   0.050642464   -1.0459124      0.037318146   -0.93267961    -0.0075808311 
   1309000   0.049211364   -1.0460366      0.036242087   -0.93602505    -0.0020490982 
   1310000   0.049095883   -1.0459052      0.038916884   -0.93339197    -0.0096202035 
   1311000   0.050513093   -1.047476       0.037458695   -0.93429654    -0.0098821072 
   1312000   0.048389623   -1.0471356      0.037388841   -0.93720913    -0.0083991567 
   1313000   0.047875146   -1.0482279      0.036157815   -0.94030371    -0.0091831582 
   1314000   0.048287047   -1.0474351      0.037236169   -0.93781506    -0.00066459526
   1315000   0.050529795   -1.0476818      0.036416846   -0.93551921     0.0010638254 
   1316000   0.050285814   -1.0451258      0.037075022   -0.93267071    -0.0089486652 
   1317000   0.050239047   -1.0493486      0.038202912   -0.93583578    -0.0065429365 
   1318000   0.050589297   -1.0483583      0.036717374   -0.93580595    -0.0084419151 
   1319000   0.052236934   -1.048004       0.036741711   -0.93295741    -0.0015683918 
   1320000   0.05135749    -1.0479538      0.037865009   -0.93310222    -0.0059821739 
   1321000   0.051248054   -1.0486124      0.037088735   -0.93470119     0.0015094014 
   1322000   0.050951635   -1.0476364      0.036907027   -0.93435127    -0.004377868  
   1323000   0.051092624   -1.0480068      0.038133374   -0.93328392    -0.0089693436 
   1324000   0.050862155   -1.0482301      0.037674002   -0.93431206    -0.0093441787 
   1325000   0.050929927   -1.0496475      0.036614384   -0.93668752    -0.0067355958 
   1326000   0.050125112   -1.048481       0.037080562   -0.9362613     -0.0026104148 
   1327000   0.051366755   -1.0477483      0.037314759   -0.93343315     0.0033547328 
   1328000   0.050919605   -1.0500562      0.038803419   -0.93492261    -0.0035741521 
   1329000   0.050780757   -1.0518888      0.037077769   -0.93868899    -0.0051436399 
   1330000   0.050034084   -1.0516552      0.037714201   -0.93893829    -0.0079302084 
   1331000   0.049642291   -1.051869       0.03683597    -0.94061766    -0.0016492956 
   1332000   0.046447598   -1.0525233      0.037104829   -0.94579203    -0.008852689  
   1333000   0.04888205    -1.0527444      0.038165171   -0.94130348    -0.0097332195 
   1334000   0.051724427   -1.0525738      0.037181004   -0.93785621    -0.0079570697 
   1335000   0.048357882   -1.0509619      0.0373341     -0.94113775    -0.0052917727 
   1336000   0.049638431   -1.0523331      0.037176427   -0.94074702    -0.010775346  
   1337000   0.049558141   -1.0527348      0.037153396   -0.94129211    -0.0013564656 
   1338000   0.051036104   -1.051504       0.035944661   -0.93905454    -0.0054362983 
   1339000   0.050492291   -1.0518372      0.035180328   -0.94096726    -0.0037712524 
   1340000   0.04971972    -1.0525601      0.035968622   -0.94206006    -0.0037947954 
   1341000   0.052692124   -1.0519209      0.037538209   -0.93539546    -0.00054093813
   1342000   0.050304522   -1.0523435      0.036812749   -0.94012262    -0.002830091  
   1343000   0.052842237   -1.0549173      0.036609952   -0.93909509    -0.0085661925 
   1344000   0.051698262   -1.0545696      0.037155599   -0.93991665    -0.014072485  
   1345000   0.051692394   -1.054622       0.036864787   -0.94026866    -0.0059520157 
   1346000   0.050401829   -1.0577867      0.039840635   -0.94239211    -0.00079159468
   1347000   0.050020318   -1.0595535      0.037496562   -0.94707484    -0.01021343   
   1348000   0.049770316   -1.0586402      0.036781219   -0.94725169    -0.00042490737
   1349000   0.049300393   -1.0604728      0.038168747   -0.94840115     0.00014262805
   1350000   0.049376721   -1.0596319      0.037945923   -0.94766872    -0.0041827166 
   1351000   0.049326053   -1.0584268      0.037549989   -0.94693551    -0.000124862  
   1352000   0.048013167   -1.0581303      0.036042788   -0.95011423    -0.0022382817 
   1353000   0.051547348   -1.0579238      0.0370091     -0.94364353    -0.0065115709 
   1354000   0.050304986   -1.0574018      0.039407668   -0.94258534    -0.021044851  
   1355000   0.049750276   -1.0594351      0.036519406   -0.94833842    -0.011136974  
   1356000   0.049760533   -1.0588549      0.036840735   -0.9474215     -0.016031551  
   1357000   0.05116488    -1.0605465      0.037781955   -0.94606676    -0.012044667  
   1358000   0.050843276   -1.0640793      0.039765377   -0.94809818    -0.012066642  
   1359000   0.049666471   -1.0633589      0.037416958   -0.95149032    -0.002610645  
   1360000   0.047973784   -1.0628626      0.035908222   -0.95504012     0.0013636445 
   1361000   0.051808265   -1.0628158      0.036769971   -0.94838357    -0.0042463357 
   1362000   0.050245584   -1.0632811      0.03839975    -0.94956155    -0.0026312843 
   1363000   0.050349167   -1.0630345      0.036257059   -0.9513024      0.00038578218
   1364000   0.051585716   -1.063704       0.035387599   -0.95098771    -0.0041185943 
   1365000   0.052146925   -1.0620763      0.039325761   -0.94458062    -0.0067826465 
   1366000   0.051111827   -1.062681       0.038723681   -0.94733899    -0.0047488122 
   1367000   0.05161689    -1.062847       0.034782592   -0.95068898    -0.012429927  
   1368000   0.049384016   -1.0624854      0.037124731   -0.95133245     0.0050560852 
   1369000   0.048819381   -1.0631519      0.038173079   -0.95179701    -0.012430455  
   1370000   0.049944009   -1.0623551      0.038697438   -0.94878998    -0.0040408961 
   1371000   0.048568252   -1.0636468      0.038179407   -0.95266202    -0.019240897  
   1372000   0.048461447   -1.0626392      0.035248079   -0.95474585     0.0054759029 
   1373000   0.050569639   -1.0627676      0.034988674   -0.9519734     -0.0010772426 
   1374000   0.047996334   -1.0622577      0.037389435   -0.95292023     0.0052307103 
   1375000   0.050516343   -1.0633945      0.037059172   -0.95060967    -0.0045785878 
   1376000   0.050952631   -1.063545       0.039932466   -0.94723289    -0.014891838  
   1377000   0.051775932   -1.0630102      0.038053466   -0.94734298    -0.00066608277
   1378000   0.05038549    -1.062771       0.035904501   -0.95133701     0.0025096355 
   1379000   0.049090589   -1.0631729      0.03653761    -0.95304695    -0.01065506   
   1380000   0.047943688   -1.0628162      0.036772612   -0.95417448     0.0042387879 
   1381000   0.050436315   -1.0620779      0.03636477    -0.95010749    -0.0044453906 
   1382000   0.050291406   -1.0630543      0.037588097   -0.9500778     -0.0046935265 
   1383000   0.051476828   -1.0632197      0.037986505   -0.94806775    -0.0043209674 
   1384000   0.05087522    -1.0622345      0.038327426   -0.9476435     -0.005761315  
   1385000   0.05114055    -1.0619212      0.038472336   -0.94678754    -0.0033080745 
   1386000   0.04850946    -1.0626625      0.039017554   -0.95092773    -0.0058547057 
   1387000   0.047492173   -1.0633576      0.03859933    -0.95356601     0.00027042365
   1388000   0.051522077   -1.062783       0.037070599   -0.9484791     -0.0025871222 
   1389000   0.049339162   -1.0624031      0.039315972   -0.9491261     -0.0045929188 
   1390000   0.049997629   -1.0641699      0.038003018   -0.95121883    -0.013976742  
   1391000   0.0488208     -1.0631586      0.036365321   -0.95360932    -0.015369825  
   1392000   0.050214168   -1.0633378      0.038368654   -0.9496965     -0.016017386  
   1393000   0.050893464   -1.062867       0.036390275   -0.95018582    -0.015692372  
   1394000   0.050032919   -1.0627695      0.039178109   -0.94859043    -0.0019780165 
   1395000   0.050971315   -1.0626293      0.037202857   -0.9490188     -0.0044812087 
   1396000   0.05167449    -1.0632947      0.035531613   -0.95030134    -0.009151468  
   1397000   0.050401866   -1.0642165      0.038077972   -0.95058449    -0.0070656887 
   1398000   0.04986886    -1.0627911      0.038683585   -0.94935248    -0.016236126  
   1399000   0.051304539   -1.062016       0.035956108   -0.94915272    -0.0034531889 
   1400000   0.050258356   -1.0636768      0.038910605   -0.94942731    -0.012957628  
   1401000   0.05171514    -1.0645823      0.039361601   -0.94769808    -0.0080343349 
   1402000   0.050341146   -1.0658921      0.037942106   -0.95248698    -0.0039167422 
   1403000   0.048624016   -1.0664106      0.038475289   -0.95504633    -0.0083317297 
   1404000   0.051096231   -1.0645472      0.036287542   -0.95166479    -0.0036077785 
   1405000   0.051086551   -1.0663494      0.038978072   -0.95079099    -0.012988773  
   1406000   0.049416025   -1.0663478      0.03786202    -0.95440954    -0.012072498  
   1407000   0.04964487    -1.064891       0.03640671    -0.95406504    -0.013462032  
   1408000   0.04991043    -1.0662403      0.038771058   -0.95265185    -0.0082400923 
   1409000   0.051272973   -1.0663353      0.039245314   -0.95023015    -0.011307506  
   1410000   0.049752134   -1.0661333      0.040049443   -0.95150383    -0.0043410404 
   1411000   0.051868002   -1.0670908      0.037357326   -0.95198167    -0.010129119  
   1412000   0.04923795    -1.065584       0.037717735   -0.95405697    -0.0089331915 
   1413000   0.051407581   -1.0648138      0.035241363   -0.9525108      0.001676332  
   1414000   0.049077084   -1.0657926      0.037180816   -0.9550437     -0.0047909318 
   1415000   0.049215889   -1.0670176      0.038509034   -0.95473239    -0.0047670708 
   1416000   0.048385707   -1.0658151      0.035663543   -0.95761978     0.0046569828 
   1417000   0.050893583   -1.0668428      0.035465398   -0.95508633    -0.0085063993 
   1418000   0.05039861    -1.0655646      0.036946403   -0.95306904    -0.01124446   
   1419000   0.049659521   -1.0661077      0.038203819   -0.95346262    -0.0082514938 
   1420000   0.049348446   -1.0660877      0.03952049    -0.95259226    -0.0067231146 
   1421000   0.048554096   -1.0660914      0.038227943   -0.95507927     0.00072008966
   1422000   0.050318903   -1.065064       0.036308033   -0.95332635    -0.0017341288 
   1423000   0.050308674   -1.0659203      0.036019934   -0.95448604    -0.01084555   
   1424000   0.048538621   -1.0658572      0.035309726   -0.95778652    -0.00025066262
   1425000   0.049895668   -1.0657666      0.036278571   -0.95469282    -0.0052268348 
   1426000   0.050098364   -1.0658908      0.036027162   -0.95476454    -0.0022902842 
   1427000   0.048118325   -1.0654375      0.039087076   -0.95421949    -0.011188674  
   1428000   0.0494934     -1.0655361      0.037380391   -0.95396348    -0.0081739029 
   1429000   0.049634877   -1.0658166      0.036197699   -0.9552146     -0.011586152  
   1430000   0.04991165    -1.0657086      0.039040991   -0.95184845    -0.0034787632 
   1431000   0.04934309    -1.0661764      0.035961644   -0.95624788    -0.0030716523 
   1432000   0.049246876   -1.0655952      0.038217131   -0.95355538    -0.0068249995 
   1433000   0.051429276   -1.0663189      0.035785851   -0.95343888     0.0047350759 
   1434000   0.049123335   -1.0652643      0.038379022   -0.95324783    -0.0041712141 
   1435000   0.05146599    -1.0656366      0.038606631   -0.94988081    -0.0093535341 
   1436000   0.052300176   -1.0650752      0.037233502   -0.94944203    -0.0068593966 
   1437000   0.050602916   -1.0665469      0.040213665   -0.95047784    -0.0073529669 
   1438000   0.051210348   -1.065391       0.037034439   -0.95159061    -0.011095378  
   1439000   0.05130494    -1.0642224      0.036579949   -0.95073473    -0.0078552877 
   1440000   0.050160672   -1.0640063      0.037577958   -0.95123585    -0.00066355777
   1441000   0.050322307   -1.0654626      0.036544468   -0.95348334    -0.0084921939 
   1442000   0.048968983   -1.0645554      0.036949621   -0.95419969    -0.011047424  
   1443000   0.05119174    -1.0660518      0.036576019   -0.95273767    -0.0049045899 
   1444000   0.050646968   -1.0654449      0.037254111   -0.95226931    -0.010439437  
   1445000   0.050020135   -1.0656827      0.03722479    -0.95347615    -0.0033843766 
   1446000   0.050423049   -1.0664926      0.036344123   -0.95456271    -0.0054374677 
   1447000   0.050019478   -1.0662168      0.039145195   -0.95209077    -0.0085910017 
   1448000   0.048721624   -1.0666348      0.037835144   -0.95576434    -0.0069188056 
   1449000   0.051227879   -1.0666882      0.035801858   -0.9540941     -0.0063140797 
   1450000   0.051331551   -1.0677049      0.037157623   -0.95359963    -0.0021651666 
   1451000   0.051171181   -1.0676266      0.037544313   -0.95337501    -0.0020341221 
   1452000   0.048351768   -1.0672822      0.037345937   -0.9574554     -0.014660945  
   1453000   0.049898902   -1.0679318      0.03689265    -0.9562391     -0.001588923  
   1454000   0.050948971   -1.0662611      0.03852439    -0.95136255    -0.005797835  
   1455000   0.050317577   -1.0662703      0.037477114   -0.95336554    -0.0021693745 
   1456000   0.052613395   -1.0677114      0.037655288   -0.9511869     -0.0099851068 
   1457000   0.050061291   -1.0673946      0.040070686   -0.95228044    -0.012026719  
   1458000   0.050084577   -1.0673057      0.039419177   -0.95280816     0.0029481662 
   1459000   0.050506962   -1.0664201      0.03811476    -0.95259382    -0.0088915628 
   1460000   0.051348653   -1.0671289      0.037214941   -0.95294071    -0.0056419738 
   1461000   0.052689492   -1.0679818      0.037323903   -0.95167462    -0.0065210496 
   1462000   0.049385844   -1.0686975      0.038591613   -0.9560749     -0.0047293806 
   1463000   0.049691739   -1.0670263      0.035816425   -0.95672031    -0.0041696224 
   1464000   0.049376964   -1.066885       0.036422431   -0.95644493    -0.0033085309 
   1465000   0.048233909   -1.0681267      0.037324596   -0.9584979     -0.0079517741 
   1466000   0.051176937   -1.067038       0.03928026    -0.9510419     -0.0036055665 
   1467000   0.052659547   -1.0680323      0.039895929   -0.949198      -8.1849018e-05
   1468000   0.049535352   -1.069496       0.039743873   -0.955497      -0.0059316575 
   1469000   0.050843486   -1.0691966      0.036143855   -0.95683674    -0.0033716581 
   1470000   0.049917726   -1.0688148      0.037844368   -0.95614218    -0.0069497503 
   1471000   0.051116359   -1.0692723      0.038667459   -0.95397979    -0.0030538779 
   1472000   0.050944955   -1.0711671      0.038644186   -0.95615479    -0.0073748175 
   1473000   0.050320441   -1.0684863      0.038840793   -0.95421351     0.00029402864
   1474000   0.051471605   -1.0681271      0.038724847   -0.95224469    -0.0058521922 
   1475000   0.052674213   -1.0692276      0.038965589   -0.95130166     0.0045326567 
   1476000   0.049615011   -1.0690339      0.039372161   -0.95528723    -0.011960685  
   1477000   0.049914377   -1.0696544      0.039763091   -0.95506808    -0.010389272  
   1478000   0.053956873   -1.0686917      0.035938929   -0.95186963    -0.0095467009 
   1479000   0.05052306    -1.071217       0.040088947   -0.95539234    -0.0084771446 
   1480000   0.053105581   -1.0706651      0.039440736   -0.95161739    -0.008637803  
   1481000   0.048882933   -1.0704529      0.039624187   -0.95755158    -0.0056535087 
   1482000   0.048403144   -1.0719614      0.038214069   -0.96118949     0.00029056916
   1483000   0.049863053   -1.0701198      0.038426492   -0.95694695    -0.010161124  
   1484000   0.051069947   -1.0696914      0.038048516   -0.95508743    -0.0054576001 
   1485000   0.046859275   -1.0711453      0.037485684   -0.96341604    -0.0084273275 
   1486000   0.049670473   -1.0697187      0.040047743   -0.95521332    -0.001732131  
   1487000   0.048837838   -1.0712277      0.040562322   -0.95745592    -0.0073212184 
   1488000   0.048687214   -1.0691822      0.039198256   -0.95700021    -0.0037596611 
   1489000   0.050024367   -1.0699952      0.038656122   -0.95635097    -0.0048032685 
   1490000   0.048296116   -1.0706945      0.041576808   -0.95672023     0.0020626903 
   1491000   0.050523868   -1.0706299      0.037800556   -0.95709246    -0.0087520352 
   1492000   0.049632595   -1.0710854      0.038948061   -0.95773646    -0.0060748618 
   1493000   0.049253785   -1.0697877      0.038674881   -0.9572798     -0.0035653548 
   1494000   0.050728639   -1.0706852      0.038773579   -0.95586778     0.0047390154 
   1495000   0.050099764   -1.070613       0.040087211   -0.95542459    -0.007216311  
   1496000   0.050323109   -1.0696642      0.040322624   -0.95390558     0.004140974  
   1497000   0.050767308   -1.0699653      0.039407726   -0.95445571    -0.0003041572 
   1498000   0.050234749   -1.0708602      0.038541582   -0.95701508    -0.0059197474 
   1499000   0.048715342   -1.0713698      0.041356397   -0.95698755    -0.011257679  
   1500000   0.050549184   -1.0704394      0.039938513   -0.95472601    -0.0083457699 
   1501000   0.049698135   -1.0685781      0.0395118     -0.95456718    -0.0094454446 
   1502000   0.050099072   -1.069886       0.040398923   -0.95438692    -0.0019555555 
   1503000   0.050328942   -1.0701472      0.040720571   -0.95398191    -0.01432893   
   1504000   0.049765486   -1.0706236      0.039285671   -0.95673785    -0.0055646425 
   1505000   0.050227829   -1.0706187      0.040889348   -0.95443624    -0.0086971146 
   1506000   0.049417486   -1.0696585      0.039269329   -0.9563108     -0.0062057372 
   1507000   0.050326484   -1.0705178      0.039358214   -0.95571854    -0.00083953158
   1508000   0.0503689     -1.069503       0.037733302   -0.95626513     0.0023944795 
   1509000   0.050611432   -1.0697087      0.039924815   -0.95391567    -0.0074607545 
   1510000   0.049806729   -1.0686922      0.040987257   -0.95304307    -0.01119058   
   1511000   0.050539139   -1.0690153      0.039729203   -0.95352627    -0.0075267628 
   1512000   0.049335186   -1.0703944      0.03841829    -0.95802105    -0.0021883308 
   1513000   0.049046656   -1.0706414      0.039588737   -0.95753013     0.00095838073
   1514000   0.049498088   -1.0701248      0.038714023   -0.95721157    -0.0057935867 
   1515000   0.050493911   -1.0712347      0.038788238   -0.95675449    -0.0054010385 
   1516000   0.050243801   -1.0708925      0.039442006   -0.9561334     -0.0032154202 
   1517000   0.049759233   -1.0692607      0.038085264   -0.95658471     0.0004197483 
   1518000   0.050794641   -1.0699002      0.037916181   -0.95584119    -0.0077021054 
   1519000   0.049060886   -1.0707805      0.040026949   -0.95720973    -0.0030684346 
   1520000   0.049946527   -1.0713041      0.039204221   -0.95722845    -0.0087633767 
   1521000   0.047868096   -1.0699666      0.037916717   -0.96029402    -0.0015971585 
   1522000   0.04949089    -1.0708043      0.039247478   -0.95736837    -0.011712298  
   1523000   0.049578715   -1.070989       0.040293162   -0.95637573    -0.0030959258 
   1524000   0.049105012   -1.0701994      0.038716338   -0.95787311    -0.004821507  
   1525000   0.050027914   -1.0705682      0.039770635   -0.95580408    -0.010335102  
   1526000   0.051461047   -1.0695179      0.039858803   -0.95251737    -0.0088232138 
   1527000   0.051219009   -1.071984       0.040942387   -0.95426262    -0.014310599  
   1528000   0.049159828   -1.0722035      0.041496475   -0.95701483     0.00083555125
   1529000   0.048828309   -1.0742252      0.040889064   -0.96014093    -0.00044975743
   1530000   0.051558267   -1.0760309      0.042551368   -0.95619203    -0.0027066884 
   1531000   0.050025805   -1.0744919      0.038079431   -0.96142222    -0.0028023587 
   1532000   0.050228801   -1.0740429      0.040981406   -0.9577669     -0.0047579999 
   1533000   0.050117526   -1.07384        0.038334783   -0.96037743    -0.020981496  
   1534000   0.050924939   -1.075911       0.039289089   -0.96028378    -0.012529628  
   1535000   0.049384812   -1.0763746      0.039350563   -0.96299458    -0.006380083  
   1536000   0.050822513   -1.0778107      0.03649329    -0.9651328     -0.003043285  
   1537000   0.050451468   -1.0785985      0.041626013   -0.96134407    -0.012749452  
   1538000   0.05023318    -1.0766476      0.039171914   -0.96217452    -0.0080665326 
   1539000   0.050351247   -1.0755363      0.040667792   -0.95939033    -0.0059407766 
   1540000   0.05099009    -1.0771933      0.041545314   -0.95921223    -0.0060757465 
   1541000   0.051489938   -1.0773224      0.039708914   -0.96042845    -0.0047544269 
   1542000   0.050165737   -1.077924       0.038353316   -0.96437059    -0.0029599361 
   1543000   0.050078874   -1.0759614      0.040896596   -0.95999492    -0.00029449911
   1544000   0.051546839   -1.0775535      0.040684715   -0.95959838    -0.006618811  
   1545000   0.050179142   -1.0774347      0.040053795   -0.96216073    -0.0062546731 
   1546000   0.051066605   -1.0767115      0.038959711   -0.96120134    -0.0062947392 
   1547000   0.049412735   -1.0785353      0.040454374   -0.9640096     -0.010202525  
   1548000   0.049511828   -1.0790802      0.040567914   -0.96429248    -0.0075105925 
   1549000   0.049945284   -1.0794185      0.040103512   -0.96444538    -0.0020876085 
   1550000   0.050749914   -1.0781946      0.040788805   -0.96133006    -0.0086299567 
   1551000   0.051244177   -1.0796032      0.04225339    -0.96053315    -0.013749638  
   1552000   0.05083651    -1.0793039      0.039643726   -0.96345456    -0.020213239  
   1553000   0.051201133   -1.0797425      0.040040182   -0.96295017    -0.0097391406 
   1554000   0.047997924   -1.0784247      0.038874694   -0.96759957    -0.0027475144 
   1555000   0.04991613    -1.0793465      0.041086116   -0.96343454    -0.014549699  
   1556000   0.050613962   -1.0787955      0.039612075   -0.96331146    -0.0051414226 
   1557000   0.049975058   -1.0811585      0.039168237   -0.96707603    -0.0015264224 
   1558000   0.050287616   -1.0821523      0.042343088   -0.96442649    -0.0023800972 
   1559000   0.048544665   -1.0819672      0.040021687   -0.96917553    -0.0082651174 
   1560000   0.04935968    -1.0811296      0.039471582   -0.96766628    -0.0024145105 
   1561000   0.051023661   -1.0810011      0.039712425   -0.96480254     0.0015712545 
   1562000   0.050368856   -1.0831031      0.043042567   -0.96455599    -0.015206551  
   1563000   0.05061226    -1.0803046      0.038383798   -0.96605144     0.010170797  
   1564000   0.048153925   -1.0806791      0.04018143    -0.96831339    -0.0049488007 
   1565000   0.049125789   -1.0820838      0.039780029   -0.96866263    -0.0018918026 
   1566000   0.050380255   -1.082074       0.038518141   -0.96803423    -0.007833326  
   1567000   0.047809226   -1.0800389      0.039433204   -0.96893808     0.00084177548
   1568000   0.050648814   -1.0815923      0.040440456   -0.96522767    -0.014405704  
   1569000   0.051518999   -1.0804763      0.038358884   -0.96488882    -0.0043131012 
   1570000   0.051257509   -1.0828592      0.041555141   -0.96446743    -0.010038035  
   1571000   0.051754805   -1.0832127      0.041214097   -0.96441649     0.0001053412 
   1572000   0.052662607   -1.0854766      0.040422561   -0.96611113    -0.023521678  
   1573000   0.049570534   -1.0851827      0.039734843   -0.97114005    -0.011754779  
   1574000   0.050672696   -1.0855768      0.03946454    -0.97015223     0.00070915958
   1575000   0.051888138   -1.085186       0.038700073   -0.96870398    -0.0080841146 
   1576000   0.048863384   -1.0838015      0.038078946   -0.97247477    -0.0088265781 
   1577000   0.049678552   -1.0846101      0.038258747   -0.97188155    -0.0037194414 
   1578000   0.049538359   -1.0845311      0.038718126   -0.97155335    -0.010204189  
   1579000   0.050066146   -1.0845808      0.038259527   -0.97127049    -0.004907014  
   1580000   0.051390997   -1.0858962      0.042811958   -0.96604744     0.0024785169 
   1581000   0.052187594   -1.0860269      0.040989913   -0.96680609    -0.020766269  
   1582000   0.052341654   -1.0842253      0.038828161   -0.96693533    -0.0061158614 
   1583000   0.052203975   -1.0836993      0.039715448   -0.96572846     0.0030440639 
   1584000   0.050435887   -1.0851545      0.039493121   -0.97005639     0.0035557902 
   1585000   0.048928823   -1.0858406      0.039674924   -0.97281979    -0.016024802  
   1586000   0.048546248   -1.0843994      0.040346686   -0.97128029    -0.0068540398 
   1587000   0.050100133   -1.0854587      0.038364245   -0.9719927     -0.0052884329 
   1588000   0.049359004   -1.0842741      0.04001831    -0.9702651     -0.00010853385
   1589000   0.049827061   -1.0868739      0.04190582    -0.97027575    -0.0020413035 
   1590000   0.050795759   -1.0893895      0.040691944   -0.97255307    -0.016258172  
   1591000   0.049845915   -1.0923978      0.042097946   -0.97557921    -0.01277722   
   1592000   0.051309952   -1.0903668      0.039570546   -0.97388101    -0.0061304228 
   1593000   0.049979636   -1.0905255      0.040025589   -0.97557884     0.00092776257
   1594000   0.050362009   -1.0918654      0.040480623   -0.97589046     0.0013197935 
   1595000   0.050444573   -1.0912244      0.039705834   -0.97590051    -0.0064783342 
   1596000   0.049612321   -1.0911055      0.038844347   -0.97789068    -0.0089300853 
   1597000   0.048872368   -1.0925354      0.038753916   -0.98052027    -0.011425366  
   1598000   0.04852124    -1.0927598      0.040017151   -0.98000775    -6.7809407e-05
   1599000   0.051000912   -1.0924052      0.041171834   -0.9747814     -0.00042609344
   1600000   0.048791445   -1.0916235      0.04107206    -0.97741146    -0.015611154  
   1601000   0.050841647   -1.0914149      0.040846659   -0.97435494    -0.0024299753 
   1602000   0.051679216   -1.0919383      0.040274526   -0.97419498     0.00068781869
   1603000   0.050323719   -1.0934786      0.04116323    -0.97687853    -7.0239106e-07
   1604000   0.051515419   -1.0935626      0.039197646   -0.97714169    -0.0089550806 
   1605000   0.050637143   -1.0918241      0.040804737   -0.97511264    -0.0089412105 
   1606000   0.049282526   -1.0915422      0.039055875   -0.9786102     -0.0073200673 
   1607000   0.049211436   -1.0911733      0.03967413    -0.97772967    -0.0032581076 
   1608000   0.051094297   -1.0920363      0.038103435   -0.9773409     -0.012999124  
   1609000   0.051546039   -1.0911549      0.038206482   -0.97567923     0.0025327354 
   1610000   0.050869161   -1.0907527      0.038722634   -0.97577553    -0.007419827  
   1611000   0.049638647   -1.0911184      0.041361979   -0.97534653    -0.0060323036 
   1612000   0.050601887   -1.091782       0.041273815   -0.97465429    -0.001759752  
   1613000   0.05117008    -1.0917176      0.040377249   -0.97463479    -0.011733998  
   1614000   0.050847066   -1.0923454      0.041053995   -0.97507004    -0.0065289966 
   1615000   0.051540046   -1.0915601      0.040921103   -0.97337882    -0.0111981    
   1616000   0.050703979   -1.0912653      0.039602632   -0.97565572    -0.00019937926
   1617000   0.048365676   -1.0921214      0.040447814   -0.97917183     0.0037154957 
   1618000   0.051090056   -1.0916192      0.039968875   -0.9750647     -0.0011296351 
   1619000   0.050813986   -1.0920567      0.040374616   -0.97551024     0.001245806  
   1620000   0.049555259   -1.091806       0.040950275   -0.97657084    -0.0023896897 
   1621000   0.050208326   -1.0915043      0.04035939    -0.97588101    -0.0095454246 
   1622000   0.049972209   -1.0923877      0.04009437    -0.97738339    -0.012804899  
   1623000   0.050501218   -1.0917559      0.040661594   -0.97539134    -0.0033166184 
   1624000   0.051951338   -1.0947363      0.041735661   -0.97512393    -0.0086849327 
   1625000   0.050192065   -1.0936063      0.039466038   -0.9789007     -0.0052218143 
   1626000   0.04959323    -1.0920453      0.039323643   -0.97837979    -0.0054962959 
   1627000   0.04901543    -1.0933415      0.037973281   -0.9818925      0.0028053134 
   1628000   0.051391902   -1.0940814      0.040115698   -0.97692763    -0.0098298517 
   1629000   0.049674868   -1.0952521      0.038894341   -0.98189356    -0.0084211024 
   1630000   0.048939104   -1.0953957      0.039357895   -0.98267649     0.0026840349 
   1631000   0.050321308   -1.0955098      0.03987332    -0.98020321    -0.011886325  
   1632000   0.050156264   -1.0942275      0.039025087   -0.98001658    -0.0018934317 
   1633000   0.049226239   -1.094485       0.040843303   -0.97984994    -0.0061809945 
   1634000   0.049714616   -1.0946114      0.040063921   -0.98002363    -0.013284927  
   1635000   0.049886407   -1.0944863      0.038853417   -0.98085154     0.0014709713 
   1636000   0.050134474   -1.095206       0.04043686    -0.97961596    -0.011558127  
   1637000   0.048464071   -1.0942898      0.040830334   -0.98081021    -0.011553856  
   1638000   0.051356568   -1.0950574      0.040329696   -0.97774255    -0.00014894369
   1639000   0.051799033   -1.0934767      0.040882838   -0.97494545    -0.0063256797 
   1640000   0.049215253   -1.0947875      0.040577574   -0.9804347     -0.0035036203 
   1641000   0.049432153   -1.0947479      0.039562684   -0.98108484    -0.00779062   
   1642000   0.049132141   -1.0946661      0.040406645   -0.98060884    -0.003049457  
   1643000   0.05163757    -1.0950804      0.040860968   -0.9768131     -0.00070851488
   1644000   0.049170467   -1.0950085      0.039194811   -0.98210554    -0.012882828  
   1645000   0.048107344   -1.0945369      0.039301136   -0.98312133    -0.016948301  
   1646000   0.049173241   -1.0957473      0.038153398   -0.98388167    -0.011911348  
   1647000   0.049863164   -1.0951084      0.040079802   -0.98028207    -0.010261758  
   1648000   0.05126752    -1.0972214      0.041404278   -0.97896548    -0.0075999093 
   1649000   0.051618824   -1.0968127      0.040701932   -0.97873253    -0.0059293268 
   1650000   0.05064947    -1.0946489      0.041553836   -0.9771699     -0.012652503  
   1651000   0.051955493   -1.0961422      0.03904947    -0.97920977    -0.0061707385 
   1652000   0.052618994   -1.0973476      0.041188035   -0.97728202    -0.014272628  
   1653000   0.052082592   -1.0964184      0.039394318   -0.97895062    -0.005330462  
   1654000   0.049161314   -1.0957869      0.040463659   -0.98162881    -0.01338268   
   1655000   0.051149765   -1.0973071      0.040969173   -0.97966274    -0.0030125596 
   1656000   0.050186013   -1.0962287      0.039171493   -0.98182671    -0.01089998   
   1657000   0.050227393   -1.096733       0.040991883   -0.98044868    -0.0036016765 
   1658000   0.049045991   -1.0959619      0.040271631   -0.98216872    -0.0038811816 
   1659000   0.049208219   -1.0959202      0.042436957   -0.97971854    -0.0029412547 
   1660000   0.049165215   -1.0983014      0.03987553    -0.9847256      0.00074378581
   1661000   0.048327001   -1.0986127      0.040038319   -0.98613065    -0.0059387481 
   1662000   0.048404642   -1.0981262      0.039047      -0.98651907    -0.0018431071 
   1663000   0.05146298    -1.1008188      0.038240069   -0.98543408    -0.012883618  
   1664000   0.048524919   -1.1011908      0.040994606   -0.98745579    -0.0086314844 
   1665000   0.049398358   -1.1009934      0.040942043   -0.98600159    -0.01150163   
   1666000   0.050062029   -1.101423       0.037657463   -0.98872092    -0.003197041  
   1667000   0.049952865   -1.1017802      0.039305029   -0.98759425    -0.0048322426 
   1668000   0.049802465   -1.104536       0.038390801   -0.99148968    -0.0082211662 
   1669000   0.049365899   -1.1037506      0.039806082   -0.98994341    -0.0033556051 
   1670000   0.051066968   -1.1058612      0.039919726   -0.98939048    -0.0089545335 
   1671000   0.049878247   -1.1044062      0.039970188   -0.9896669     -0.0068665815 
   1672000   0.049352994   -1.1055933      0.041435464   -0.99017614    -0.0119968    
   1673000   0.051401942   -1.1076656      0.040436513   -0.99017594    -0.0042870894 
   1674000   0.050505825   -1.1098812      0.042360316   -0.99181101    -0.0063546822 
   1675000   0.050472769   -1.1101358      0.041702676   -0.9927728     -0.0093241244 
   1676000   0.050402766   -1.1095234      0.040577752   -0.99339023    -0.0014061323 
   1677000   0.04987426    -1.1089084      0.041704673   -0.99244059    -0.004277065  
   1678000   0.051191708   -1.1105463      0.039909406   -0.99389892    -0.0071323515 
   1679000   0.051195018   -1.1122158      0.042826274   -0.99264656    -0.013676142  
   1680000   0.049030194   -1.1109269      0.039486801   -0.99794225    -0.0009567666 
   1681000   0.050055542   -1.1105067      0.039505033   -0.99596679     0.0023978592 
   1682000   0.049886725   -1.1098604      0.038535397   -0.99654314    -0.0072378393 
   1683000   0.050455159   -1.1107637      0.040741553   -0.99438821    -0.007872626  
   1684000   0.049562812   -1.1097814      0.039533098   -0.99595208    -0.0031161711 
   1685000   0.050815006   -1.1121175      0.039488571   -0.99645562    -0.010207213  
   1686000   0.051967149   -1.110117       0.039780425   -0.99243614    -0.0041802433 
   1687000   0.049985194   -1.1096274      0.04068731    -0.99401063    -0.0017120393 
   1688000   0.04973347    -1.1098708      0.041485281   -0.99383348    -0.011853012  
   1689000   0.051293794   -1.1114707      0.040830474   -0.99374922    -0.0033237354 
   1690000   0.050894544   -1.1101291      0.039432317   -0.99440422    -0.0070132882 
   1691000   0.049129167   -1.1114045      0.040206144   -0.99755213    -0.0094770207 
   1692000   0.049259194   -1.1114892      0.041096591   -0.99655152    -0.011472746  
   1693000   0.04961803    -1.1109043      0.039457211   -0.99706808    -0.0056081497 
   1694000   0.050223103   -1.109819       0.040539362   -0.99399357    -0.0027576648 
   1695000   0.050471756   -1.1105105      0.040752397   -0.99409932    -0.0090114429 
   1696000   0.04960693    -1.1093614      0.038223506   -0.99677551     0.003213368  
   1697000   0.049825551   -1.1098074      0.03774565    -0.99737161    -0.011769093  
   1698000   0.051474484   -1.1102217      0.039028106   -0.99403165    -0.0058729966 
   1699000   0.052217696   -1.109231       0.040113304   -0.9908417     -0.013943137  
   1700000   0.050297929   -1.1115065      0.041552132   -0.99455616    -0.0061902601 
   1701000   0.051457333   -1.109735       0.039155609   -0.99344317     0.0048688139 
   1702000   0.051626779   -1.1116743      0.040954223   -0.99332987    -0.0089494862 
   1703000   0.0509574     -1.1110068      0.038916514   -0.99570347    -0.012529493  
   1704000   0.052298456   -1.1117272      0.041343188   -0.99198699    -0.0069561026 
   1705000   0.050452825   -1.1125877      0.041545844   -0.99541147    -0.01264157   
   1706000   0.049112286   -1.1150795      0.041801239   -0.99965738    -0.012310873  
   1707000   0.050786105   -1.1125357      0.039308854   -0.99709682    -0.00039108898
   1708000   0.050414455   -1.1138769      0.039468749   -0.99883526    -0.0084131144 
   1709000   0.049453218   -1.1149458      0.040049723   -1.0007641     -0.011234903  
   1710000   0.049632974   -1.1125576      0.039127658   -0.99902847    -0.01605004   
   1711000   0.049908152   -1.114369       0.04029995    -0.99925514    -0.0027618313 
   1712000   0.050795478   -1.1143289      0.041085868   -0.99709897    -0.010541095  
   1713000   0.048473553   -1.1120085      0.041277595   -0.99806751    -0.010006207  
   1714000   0.050226067   -1.1134151      0.042032131   -0.99609243    -0.011078254  
   1715000   0.0502611     -1.1139058      0.0419808     -0.99658195     0.0028365215 
   1716000   0.050969806   -1.1142103      0.04187624    -0.99592869    -0.01111838   
   1717000   0.049488318   -1.1121788      0.040452723   -0.99754149    -0.0048092934 
   1718000   0.049681407   -1.1138664      0.040590773   -0.99880161    -0.0068459959 
   1719000   0.049326285   -1.1140737      0.041071652   -0.99906031    -0.015064107  
   1720000   0.048575261   -1.1130219      0.040596063   -0.99960999    -0.019090125  
   1721000   0.050899342   -1.1137515      0.039688162   -0.99776359    -0.016337533  
   1722000   0.051128318   -1.1145412      0.040624267   -0.99727393    -0.0043654445 
   1723000   0.050744586   -1.1143167      0.039681238   -0.99856767    -0.0037842711 
   1724000   0.049874568   -1.11594        0.039608228   -1.0015681     -0.0046106737 
   1725000   0.050840826   -1.1166551      0.042257741   -0.99818534    -0.010176751  
   1726000   0.048827586   -1.1153771      0.041101457   -1.0010816     -0.0084919072 
   1727000   0.050822598   -1.1155608      0.040130346   -0.99924577    -0.0073122054 
   1728000   0.049142249   -1.1157575      0.042829285   -0.99926239    -0.0085102591 
   1729000   0.050135875   -1.1158592      0.040849682   -0.99985426    -0.003806226  
   1730000   0.050955017   -1.1157941      0.041096591   -0.99831428    -0.0068309638 
   1731000   0.050404641   -1.1159172      0.041341535   -0.9990175     -0.010686045  
   1732000   0.048603188   -1.1164169      0.039520763   -1.0040384     -0.0099176574 
   1733000   0.049492916   -1.1162688      0.040062045   -1.0020152     -0.0020837704 
   1734000   0.050720819   -1.1153202      0.042020083   -0.99726795     0.0012906297 
   1735000   0.050311233   -1.1163332      0.041398471   -0.99951652    -0.010907539  
   1736000   0.049029297   -1.1153435      0.040663699   -1.0011833     -0.010148602  
   1737000   0.049555317   -1.116056       0.038742245   -1.0030287     -0.0095576558 
   1738000   0.048306166   -1.1160448      0.038411999   -1.0052203     -0.0090398438 
   1739000   0.049022549   -1.1165985      0.03923282    -1.0038793     -0.0069188866 
   1740000   0.050479159   -1.1161953      0.038376096   -1.0021493      0.00044881302
   1741000   0.049938126   -1.1160549      0.04098382    -1.0002122     -0.002307566  
   1742000   0.049898834   -1.1161462      0.040767182   -1.0005791     -0.0088253152 
   1743000   0.04985188    -1.1150275      0.040226059   -1.0000719     -0.0091684751 
   1744000   0.049666128   -1.1166983      0.039905973   -1.0023412     -0.0074660465 
   1745000   0.049364213   -1.1154335      0.039253057   -1.0021819     -0.010910208  
   1746000   0.050086473   -1.1161004      0.041864888   -0.99915431    -0.0054071855 
   1747000   0.050642944   -1.1161262      0.041089714   -0.99912108    -0.01421581   
   1748000   0.050772882   -1.1156788      0.039142134   -1.0004265     -0.0023945695 
   1749000   0.050504884   -1.114998       0.041503674   -0.99778591    -0.0065444255 
   1750000   0.049901309   -1.1152631      0.040865218   -0.99959423    -0.003056746  
   1751000   0.050850578   -1.1157024      0.038689641   -1.0007861     -0.006500869  
   1752000   0.049641926   -1.1155939      0.038861258   -1.0023178     -0.01063272   
   1753000   0.051354836   -1.1154602      0.040377549   -0.99810014    -0.0047606709 
   1754000   0.051407182   -1.1184955      0.040725289   -1.0007092     -0.009426454  
   1755000   0.049844066   -1.1162692      0.041612184   -0.99993916    -0.0045210398 
   1756000   0.048479142   -1.116173       0.03929334    -1.0042079     -0.0093571371 
   1757000   0.048939335   -1.1161811      0.039339257   -1.0034802      0.00034427369
   1758000   0.049377029   -1.1154915      0.039403025   -1.0020707     -0.0098449444 
   1759000   0.048442175   -1.1167975      0.040624324   -1.0035567     -0.0055708364 
   1760000   0.049977645   -1.116175       0.04097939    -1.0002775     -0.012847146  
   1761000   0.049965294   -1.1154092      0.039126951   -1.0013826     -0.0022503007 
   1762000   0.050179025   -1.1170466      0.042445441   -0.99938122    -0.0030061204 
   1763000   0.04719822    -1.1165243      0.042085289   -1.0036874     -0.005144621  
   1764000   0.050367089   -1.1167257      0.041209796   -1.000014       0.0009148363 
   1765000   0.049531484   -1.1155666      0.038695891   -1.0026214     -0.0065561317 
   1766000   0.048134498   -1.1174529      0.040448261   -1.0048495     -0.0058454159 
   1767000   0.047571449   -1.1161495      0.038647714   -1.0061906     -0.018875413  
   1768000   0.048961031   -1.116438       0.0391456     -1.0038983     -0.0096116508 
   1769000   0.048484636   -1.1168962      0.038872878   -1.0053433     -0.007144235  
   1770000   0.050533994   -1.1175825      0.039971468   -1.0018589     -0.0016277951 
   1771000   0.048836773   -1.1175741      0.0427873     -1.0015789     -0.0075952925 
   1772000   0.04937556    -1.1173119      0.04218374    -1.0011126     -0.0016375494 
   1773000   0.049590941   -1.117875       0.040775492   -1.0027611      0.0034307273 
   1774000   0.050946881   -1.1174408      0.038895002   -1.0021748     -0.0085810617 
   1775000   0.053088308   -1.1177737      0.039014252   -0.99917834    -0.0091757688 
   1776000   0.050428928   -1.118528       0.040162765   -1.0027706      0.0041030329 
   1777000   0.051158854   -1.1205576      0.038880417   -1.0049884     -0.0063949449 
   1778000   0.049821629   -1.120315       0.040173996   -1.0054567     -0.011164244  
   1779000   0.049366189   -1.1200391      0.04080356    -1.0052341     -0.017799277  
   1780000   0.050032      -1.1195016      0.041584952   -1.0029171     -0.012776365  
   1781000   0.051137865   -1.1220554      0.039826365   -1.0055717     -0.01004448   
   1782000   0.048655356   -1.121129       0.040974352   -1.0072187     -0.0013198106 
   1783000   0.048918166   -1.122256       0.039710176   -1.0092159     -0.0034224557 
   1784000   0.049200224   -1.1232345      0.040797254   -1.0086845     -0.003743691  
   1785000   0.049020806   -1.1227759      0.040284354   -1.0090078      0.0069529655 
   1786000   0.048475099   -1.1210179      0.04057099    -1.0077812     -0.0096230394 
   1787000   0.048540091   -1.1239869      0.04067113    -1.0105526     -0.0067157881 
   1788000   0.049012091   -1.1231436      0.039798301   -1.0098746     -0.001899394  
   1789000   0.050398948   -1.1226824      0.04175986    -1.0053729     -0.0090502555 
   1790000   0.0482597     -1.1222756      0.04245668    -1.0074761     -0.012662813  
   1791000   0.050495232   -1.1229198      0.040040406   -1.0071855     -0.010386585  
   1792000   0.050186429   -1.1247325      0.040783688   -1.0087177     -0.011735629  
   1793000   0.049801281   -1.1219182      0.038967652   -1.0082968     -0.0032303863 
   1794000   0.049646565   -1.122286       0.037979671   -1.0098845     -0.013578565  
   1795000   0.049992658   -1.1212155      0.039867823   -1.0064071     -0.0080162066 
   1796000   0.04965547    -1.1237031      0.039881768   -1.0093862     -0.0056303979 
   1797000   0.052532986   -1.1227906      0.039782734   -1.0042593      0.004661551  
   1798000   0.049530929   -1.1234224      0.040379523   -1.0087944     -0.0049886656 
   1799000   0.051394956   -1.1228462      0.039398852   -1.0064046     -0.0036662276 
   1800000   0.050771798   -1.1234581      0.041628293   -1.0057212     -0.010056827  
   1801000   0.050199009   -1.1236458      0.040562384   -1.0078334      0.0024403529 
   1802000   0.050365969   -1.1252758      0.042461372   -1.0073143     -0.0058512048 
   1803000   0.049682433   -1.1249889      0.041266578   -1.0092468     -0.0075775097 
   1804000   0.04886838    -1.1223661      0.040885547   -1.0082252     -0.0034170156 
   1805000   0.051863351   -1.123781       0.04069581    -1.0053404     -0.014950486  
   1806000   0.050703746   -1.122171       0.042134361   -1.0040301     -0.0073645436 
   1807000   0.049631721   -1.1232745      0.041740595   -1.0071344     -0.012362314  
   1808000   0.050418489   -1.123928       0.041959543   -1.0063895      2.6708801e-05
   1809000   0.050285958   -1.1236871      0.040323093   -1.0079838     -0.0045763659 
   1810000   0.049808111   -1.1231851      0.040079033   -1.0084421     -0.010577819  
   1811000   0.05054206    -1.1239792      0.04191485    -1.0063002     -0.0016269805 
   1812000   0.048284372   -1.1226856      0.03837648    -1.0119293     -0.0071758959 
   1813000   0.049277039   -1.1226482      0.039044847   -1.0097355     -0.018255917  
   1814000   0.051678557   -1.1243591      0.039276587   -1.0076147     -0.016154051  
   1815000   0.05129495    -1.1229746      0.041038457   -1.0050434     -0.014865237  
   1816000   0.05006946    -1.1224601      0.042082352   -1.0053221     -0.001076192  
   1817000   0.05093863    -1.1221884      0.040263177   -1.0055665     -0.0041411832 
   1818000   0.051626485   -1.1235981      0.038021711   -1.0081867     -0.0067242042 
   1819000   0.050256088   -1.1255736      0.039715644   -1.0105225     -0.015087008  
   1820000   0.048854452   -1.1228329      0.0394139     -1.0101846     -0.01015206   
   1821000   0.050765509   -1.1232023      0.03987036    -1.0072328     -0.0037280469 
   1822000   0.049927559   -1.1247285      0.04265616    -1.0072293     -0.011225193  
   1823000   0.051531822   -1.1237566      0.040181164   -1.0063276     -0.013039475  
   1824000   0.04923805    -1.1223733      0.04134549    -1.0072183     -0.0081027378 
   1825000   0.050834476   -1.1246631      0.040735806   -1.0077248     -0.0050564886 
   1826000   0.049673756   -1.1231923      0.038615499   -1.0101143     -0.006868637  
   1827000   0.048463619   -1.1232082      0.04107951    -1.0094801     -0.0097185161 
   1828000   0.049097019   -1.1230915      0.041744772   -1.0077487      0.0012160763 
   1829000   0.050602682   -1.1217662      0.041647234   -1.004264      -0.007507376  
   1830000   0.050538347   -1.1245223      0.04290814    -1.0058555     -0.0052593571 
   1831000   0.050437516   -1.1230643      0.040965585   -1.0064913     -0.0086841967 
   1832000   0.049205995   -1.123928       0.040620203   -1.0095464     -0.0079929683 
   1833000   0.049332915   -1.1237968      0.03933302    -1.0105122     -0.020415468  
   1834000   0.051104045   -1.1238489      0.039449256   -1.0077931     -0.0039879616 
   1835000   0.050439551   -1.1250531      0.041165956   -1.0082766     -0.012987863  
   1836000   0.048642797   -1.1223535      0.03927906    -1.0101573     -0.0032616218 
   1837000   0.050556862   -1.1227527      0.040893251   -1.0060731     -0.001092787  
   1838000   0.051265662   -1.1232686      0.042461796   -1.003958      -0.012624845  
   1839000   0.050728967   -1.1246949      0.042106666   -1.0065439     -0.015927873  
   1840000   0.050892187   -1.1242769      0.042387316   -1.0056006     -0.0085520482 
   1841000   0.050536256   -1.1230385      0.041181716   -1.0061013     -0.013134474  
   1842000   0.051996447   -1.1240076      0.040719333   -1.0053439     -0.0066541519 
   1843000   0.048660882   -1.1228548      0.040911864   -1.0089987     -0.0086096479 
   1844000   0.048485606   -1.1239904      0.040236084   -1.0110729     -0.010992826  
   1845000   0.050937651   -1.1229753      0.041414904   -1.0052033      0.0033592028 
   1846000   0.049392098   -1.1236151      0.040747273   -1.0088275     -0.021065011  
   1847000   0.050402052   -1.1230447      0.040409664   -1.0070808     -0.013052181  
   1848000   0.051073196   -1.1220802      0.039874797   -1.005645      -0.0011258286 
   1849000   0.050427538   -1.1234164      0.041723363   -1.0061005     -0.020642053  
   1850000   0.050486082   -1.1234833      0.041481693   -1.0063214      0.0028122523 
   1851000   0.051590136   -1.1221276      0.041824937   -1.0029674     -0.0077539338 
   1852000   0.050187283   -1.1239069      0.040948153   -1.0077264     -0.0093170048 
   1853000   0.049644412   -1.1232639      0.040449353   -1.008396      -0.010192382  
   1854000   0.049871362   -1.1236542      0.038360584   -1.0105348     -0.0049002981 
   1855000   0.049499948   -1.1242427      0.038730052   -1.0113107     -0.0049844474 
   1856000   0.04895939    -1.1239837      0.040248787   -1.0103432     -0.00585375   
   1857000   0.048843048   -1.124871       0.041414442   -1.0102392     -0.011270112  
   1858000   0.049720274   -1.1225784      0.039720389   -1.0083257     -0.0034455495 
   1859000   0.051278664   -1.1241829      0.039983329   -1.0073312     -0.0021806784 
   1860000   0.049375606   -1.1237739      0.040325439   -1.0094328     -0.0044032556 
   1861000   0.050711863   -1.1227507      0.041651679   -1.0050803      0.001010848  
   1862000   0.049807782   -1.1234571      0.043027493   -1.0057662     -0.0095020041 
   1863000   0.049642313   -1.1226455      0.040643154   -1.0075869      0.0054805167 
   1864000   0.050259734   -1.1239243      0.041741777   -1.0068416     -0.0040367988 
   1865000   0.050117909   -1.1247748      0.044177341   -1.0054691     -0.007048578  
   1866000   0.048694288   -1.1221707      0.040422388   -1.008754      -0.00099151531
   1867000   0.051488862   -1.1240503      0.03996803    -1.0068988     -0.011552894  
   1868000   0.051463408   -1.123399       0.04238752    -1.0038662     -0.0051465153 
   1869000   0.050213058   -1.1242848      0.042182656   -1.0068312     -0.014714838  
   1870000   0.050678797   -1.1248721      0.042481535   -1.0064214     -0.0098231986 
   1871000   0.049891623   -1.1252058      0.040902944   -1.0095137     -0.009165907  
   1872000   0.050753999   -1.1237395      0.040617025   -1.0070406     -0.00016933669
   1873000   0.050332501   -1.1228101      0.041290247   -1.0060698     -0.0008215019 
   1874000   0.050638653   -1.124419       0.039774201   -1.0087359     -0.0049178274 
   1875000   0.051154919   -1.1227729      0.039872962   -1.0062171     -0.01117402   
   1876000   0.050776164   -1.1232428      0.041139162   -1.0059885     -0.004006658  
   1877000   0.049922934   -1.1236766      0.039535425   -1.0093051     -0.0026246014 
   1878000   0.048731373   -1.1255202      0.041782708   -1.0106876     -0.0056917443 
   1879000   0.049971157   -1.1251741      0.041664773   -1.0086009     -0.0084979711 
   1880000   0.050459282   -1.1217758      0.038945332   -1.0071904     -0.014464946  
   1881000   0.047700977   -1.1234602      0.041535093   -1.0104198     -0.014853052  
   1882000   0.049606929   -1.1228647      0.038059964   -1.0104423     -0.0044043896 
   1883000   0.050682034   -1.1224918      0.041359682   -1.0051582      0.0005498453 
   1884000   0.049344545   -1.1236541      0.042440019   -1.007245      -0.0044058152 
   1885000   0.051637036   -1.1220129      0.03993479    -1.0046725     -0.013676235  
   1886000   0.049714542   -1.1231599      0.041469688   -1.0071665     -0.0040239354 
   1887000   0.050909733   -1.1220292      0.040747689   -1.0049662     -0.006865672  
   1888000   0.048207114   -1.1224026      0.040340564   -1.009798      -0.0053896609 
   1889000   0.049431192   -1.124011       0.041766599   -1.0081454     -0.0060054289 
   1890000   0.04892043    -1.1246631      0.042372346   -1.0089574     -0.0092646131 
   1891000   0.048750308   -1.124141       0.038714715   -1.012348      -0.00033279279
   1892000   0.049486811   -1.1217444      0.040256375   -1.0073057     -0.004226125  
   1893000   0.050070129   -1.1231936      0.042208167   -1.0059287     -0.0074506891 
   1894000   0.049869557   -1.1236629      0.041280954   -1.0076259     -0.0030821933 
   1895000   0.050609685   -1.1242121      0.040860951   -1.0074856     -0.0032751324 
   1896000   0.050086139   -1.1236172      0.040114289   -1.0084221     -0.0033695999 
   1897000   0.051153197   -1.1234173      0.042091283   -1.0046457     -0.0018084853 
   1898000   0.050484332   -1.1228628      0.042750983   -1.0044342     -0.0052527902 
   1899000   0.048907478   -1.1233411      0.040564552   -1.0094627     -0.0083676853 
   1900000   0.049623264   -1.1234203      0.041498129   -1.0075353     -0.0085382475 
   1901000   0.04958271    -1.1207422      0.042066101   -1.00435       -0.005838103  
   1902000   0.051766821   -1.1233783      0.041258651   -1.0045195     -0.011388761  
   1903000   0.051139575   -1.1239729      0.041941115   -1.0053719     -0.014696071  
   1904000   0.050195681   -1.1234776      0.04018269    -1.00805       -0.0046365658 
   1905000   0.05057878    -1.1242376      0.04130496    -1.0071134     -0.0093287804 
   1906000   0.051216656   -1.1231332      0.040717028   -1.0056408     -0.011709173  
   1907000   0.049542934   -1.1218241      0.040122052   -1.0074356      0.0035369778 
   1908000   0.051455134   -1.124007       0.042052608   -1.0048215     -0.0025455748 
   1909000   0.051625557   -1.1233712      0.041615939   -1.0043669     -0.0095029379 
   1910000   0.051306158   -1.1238837      0.040385295   -1.0065888     -0.0098245048 
   1911000   0.05076425    -1.1246389      0.041384914   -1.0071567     -0.0099321211 
   1912000   0.04940789    -1.1230584      0.040259705   -1.0087347     -0.012437563  
   1913000   0.050391798   -1.1236235      0.039270539   -1.008814      -0.0098701565 
   1914000   0.050862104   -1.1235196      0.040635228   -1.0066404     -0.017751093  
   1915000   0.049540611   -1.1225632      0.039841522   -1.0084587     -0.0060215563 
   1916000   0.048289884   -1.1239914      0.042466689   -1.0091367     -0.016332264  
   1917000   0.050227833   -1.1233423      0.04261408    -1.005435      -0.0068960437 
   1918000   0.050403434   -1.1227919      0.040330013   -1.0069055     -0.00016982807
   1919000   0.051862598   -1.1243457      0.04238992    -1.004212      -0.0012772414 
   1920000   0.051039695   -1.1227925      0.041298494   -1.0049838     -0.0016552347 
   1921000   0.051320483   -1.1239927      0.040637343   -1.0064243     -0.006095159  
   1922000   0.050227565   -1.1231114      0.040283956   -1.0075347     -0.013336317  
   1923000   0.051591965   -1.1225793      0.040648281   -1.004593       0.0022531184 
   1924000   0.053368558   -1.1239712      0.042390904   -1.0015791     -0.0051712156 
   1925000   0.050393896   -1.1226851      0.041410845   -1.0057322     -0.0046077117 
   1926000   0.050803556   -1.1247499      0.041500639   -1.0070931     -0.0093867963 
   1927000   0.049709307   -1.1243628      0.041885727   -1.0079612     -0.013388064  
   1928000   0.051964495   -1.1233885      0.040808065   -1.004684      -0.014994519  
   1929000   0.049494917   -1.1231576      0.041919505   -1.0070436     -0.012106563  
   1930000   0.049264834   -1.1223173      0.040983726   -1.007484      -0.0011473349 
   1931000   0.051013285   -1.1238768      0.042603261   -1.004803      -0.0067652766 
   1932000   0.051833167   -1.1231823      0.041110226   -1.0043725     -0.0042590375 
   1933000   0.048788354   -1.1234731      0.041419662   -1.0089181     -0.011412225  
   1934000   0.050257068   -1.1249879      0.042500657   -1.0071503     -0.016519229  
   1935000   0.048868249   -1.1224551      0.041844544   -1.0073555     -0.012490965  
   1936000   0.051339575   -1.123273       0.040990401   -1.0053229     -0.014281007  
   1937000   0.049979114   -1.1230533      0.040982764   -1.0071502      0.0034444103 
   1938000   0.050193199   -1.1234338      0.040558189   -1.0076343     -0.0080112324 
   1939000   0.049302664   -1.1224048      0.041337622   -1.0071609     -0.0048634917 
   1940000   0.051157185   -1.12303        0.041397365   -1.0049464     -0.0043559201 
   1941000   0.049436343   -1.1223397      0.041358571   -1.0068745      0.00018756952
   1942000   0.051341443   -1.1237924      0.042529381   -1.0043005     -0.0088399304 
   1943000   0.050880897   -1.12404        0.042979437   -1.0047884     -0.0085409377 
   1944000   0.051352087   -1.1229618      0.04079144    -1.0051919     -0.0020835556 
   1945000   0.051376317   -1.1234857      0.040617018   -1.0058539     -0.013500889  
   1946000   0.050371038   -1.1238968      0.041822884   -1.0065661     -0.011949694  
   1947000   0.052014202   -1.1242909      0.043573766   -1.0027461     -0.0098400432 
   1948000   0.051211344   -1.1235031      0.042575912   -1.0041597     -0.0098829431 
   1949000   0.049590983   -1.1243545      0.042344652   -1.0076714     -0.0060967207 
   1950000   0.050097054   -1.1228553      0.040455647   -1.0073026     -0.005635034  
   1951000   0.050332639   -1.1225689      0.040132255   -1.0069864     -0.015022658  
   1952000   0.051414381   -1.1251442      0.041285329   -1.0067871     -0.0027843668 
   1953000   0.049920437   -1.1227889      0.040446333   -1.0075102     -0.0004781172 
   1954000   0.049588381   -1.1249675      0.041194478   -1.0094384     -0.010724571  
   1955000   0.048873518   -1.1242153      0.040586781   -1.0103656      0.0045465376 
   1956000   0.050147413   -1.1249518      0.044348648   -1.0054305     -0.0080936809 
   1957000   0.05165662    -1.1251911      0.040537742   -1.0072184     -0.00089918883
   1958000   0.051785187   -1.1246229      0.039521058   -1.0074742     -0.010375991  
   1959000   0.050391275   -1.1243402      0.040723084   -1.008079      -0.009465384  
   1960000   0.048204548   -1.1253552      0.042718899   -1.0103761     -0.012800726  
   1961000   0.049666592   -1.1243177      0.040761385   -1.0091045     -0.01921612   
   1962000   0.049824961   -1.1243176      0.040324159   -1.0093042     -0.0084551385 
   1963000   0.050901065   -1.1263358      0.04251152    -1.0075219      0.00080141648
   1964000   0.051696761   -1.1246542      0.039503447   -1.0076556     -0.015293266  
   1965000   0.050811323   -1.1245859      0.044350156   -1.0040679     -0.0084252396 
   1966000   0.050187947   -1.1236244      0.040811754   -1.0075793     -0.014386589  
   1967000   0.049406917   -1.1248906      0.044377938   -1.0064501     -0.0012985621 
   1968000   0.050379442   -1.1243743      0.040618539   -1.0082354     -0.011890599  
   1969000   0.049984454   -1.1243056      0.040932567   -1.0084447     -0.015356275  
   1970000   0.050490551   -1.1254923      0.041120561   -1.0086848     -0.0013343644 
   1971000   0.050597216   -1.1245205      0.041156775   -1.0075169     -0.011053631  
   1972000   0.050126324   -1.125158       0.041328855   -1.0086882     -0.013121679  
   1973000   0.049594443   -1.1241567      0.039712826   -1.0101002     -0.0045149252 
   1974000   0.051415433   -1.1246351      0.040914126   -1.0066475     -0.0050785167 
   1975000   0.047411495   -1.1259418      0.041078922   -1.0137915     -0.0023770811 
   1976000   0.047961513   -1.1257363      0.042005817   -1.0118347     -0.015966165  
   1977000   0.050137847   -1.1260614      0.040840458   -1.0100627     -0.00018749263
   1978000   0.048547749   -1.1256047      0.041060301   -1.0117698     -0.0063736781 
   1979000   0.049669273   -1.1247784      0.040844842   -1.0094777     -0.0028057141 
   1980000   0.049334398   -1.1252128      0.041206918   -1.010052      -0.009459775  
   1981000   0.048598019   -1.1243686      0.039866738   -1.0116518     -0.0067968151 
   1982000   0.047979356   -1.1246858      0.038624036   -1.0141391     -0.0065976296 
   1983000   0.046999832   -1.124528       0.039929759   -1.014144      -0.023739032  
   1984000   0.048576294   -1.1253613      0.040059108   -1.0124848     -0.00040062566
   1985000   0.047721194   -1.1250686      0.040449677   -1.0130833     -0.0074441651 
   1986000   0.049801798   -1.1261765      0.039874906   -1.0116471     -0.0083965309 
   1987000   0.049750386   -1.124903       0.041018363   -1.0093072     -0.013949881  
   1988000   0.050315425   -1.1261256      0.041201372   -1.0094998     -0.0073960529 
   1989000   0.048830872   -1.1247536      0.039370741   -1.0121838     -0.0083376946 
   1990000   0.049770799   -1.125272       0.040447365   -1.0102166     -0.0050380669 
   1991000   0.051501877   -1.1249085      0.040589006   -1.0071165     -0.0051740224 
   1992000   0.05219721    -1.1240416      0.043279785   -1.0025165     -0.012318708  
   1993000   0.051628313   -1.1238781      0.042368464   -1.0041171     -0.012605058  
   1994000   0.050129399   -1.1250978      0.044538006   -1.0054142     -0.0088839376 
   1995000   0.049982975   -1.1244493      0.039520168   -1.010003      -0.0019396181 
   1996000   0.050344017   -1.1258603      0.042053294   -1.0083397     -0.004716825  
   1997000   0.049220777   -1.1249424      0.044141693   -1.0070172     -0.0080933894 
   1998000   0.05042968    -1.1252295      0.042305322   -1.0073285     -0.0089697764 
   1999000   0.051474095   -1.1258724      0.041306448   -1.0074046     -0.011735051  
   2000000   0.051219044   -1.1236526      0.041928335   -1.0049453     -0.00069767346
   2001000   0.050873328   -1.1254175      0.041180096   -1.0079766     -0.0036713642 
   2002000   0.049682115   -1.1248977      0.041817734   -1.0086049     -0.0036269795 
   2003000   0.051495676   -1.123971       0.039402019   -1.0073753     -0.0057541017 
   2004000   0.0501915     -1.1248868      0.04163941    -1.0080087     -0.0013174699 
   2005000   0.04951907    -1.1240794      0.041702148   -1.0081466     -0.0080674708 
   2006000   0.050131118   -1.1242877      0.042086693   -1.0070529     -0.01041548   
   2007000   0.050515043   -1.127097       0.042545955   -1.0088273     -0.018035365  
   2008000   0.050119377   -1.1266989      0.041426128   -1.0101423     -0.0059185075 
   2009000   0.048877312   -1.125523       0.042113988   -1.0101404      0.0039666849 
   2010000   0.05098042    -1.1266838      0.042171416   -1.0080911     -0.0030516484 
   2011000   0.049815409   -1.1268721      0.043719164   -1.008478      -0.014133062  
   2012000   0.050177018   -1.1256838      0.043804116   -1.0066628     -0.0041689883 
   2013000   0.051372869   -1.1266279      0.040390495   -1.0092278     -0.0038063242 
   2014000   0.050599365   -1.1267237      0.038822665   -1.0120509     -0.0016642521 
   2015000   0.050398784   -1.1267327      0.039376922   -1.0118063     -0.0047290964 
   2016000   0.050473266   -1.1262485      0.039889617   -1.0106978     -0.013316522  
   2017000   0.048455848   -1.1262128      0.040279277   -1.0132967     -0.0065236661 
   2018000   0.048170538   -1.1284782      0.044263725   -1.0120052     -0.0064451373 
   2019000   0.051838508   -1.1296259      0.039994272   -1.011924      -0.013102537  
   2020000   0.052097688   -1.1296995      0.042546499   -1.0090568     -0.01243422   
   2021000   0.05007097    -1.1296057      0.042033463   -1.0125142     -0.0048863459 
   2022000   0.050744892   -1.1277027      0.041522447   -1.010112      -0.0067153574 
   2023000   0.050279414   -1.1278786      0.040547127   -1.011961      -0.006742765  
   2024000   0.050456878   -1.1297261      0.041412928   -1.0126767     -0.0087668187 
   2025000   0.050181255   -1.1288555      0.039540372   -1.0140918     -0.0031292288 
   2026000   0.051639114   -1.1282091      0.042328683   -1.0084717     -0.01261021   
   2027000   0.052232452   -1.1281619      0.04074081    -1.0091229     -0.010989659  
   2028000   0.051784004   -1.1282354      0.041910643   -1.0086989     -0.010221556  
   2029000   0.051025663   -1.1284249      0.041908685   -1.0100271      0.0031277217 
   2030000   0.05040368    -1.1272193      0.042171162   -1.0094914      0.0015840885 
   2031000   0.051675732   -1.1301322      0.04026772    -1.0124009     -0.0097840941 
   2032000   0.049796219   -1.1289389      0.039519679   -1.0147731      0.0041654598 
   2033000   0.051222869   -1.1315829      0.041072646   -1.0137255     -0.0017498545 
   2034000   0.04851133    -1.1287644      0.041650245   -1.0143941     -0.0079707267 
   2035000   0.049244506   -1.1305615      0.041840479   -1.0149019     -0.0075738271 
   2036000   0.049416651   -1.1278689      0.041048679   -1.0127431     -0.008334291  
   2037000   0.04833114    -1.1290557      0.041112848   -1.0154929      0.0027112521 
   2038000   0.049138211   -1.128155       0.039628719   -1.0148666      0.0046656031 
   2039000   0.050338509   -1.1279575      0.039237985   -1.0132605     -0.0034057198 
   2040000   0.051054547   -1.1285822      0.042126047   -1.0099237     -0.0087358423 
   2041000   0.050598555   -1.127935       0.040609878   -1.0114763     -0.0065646192 
   2042000   0.049578282   -1.1279202      0.040975621   -1.0126251     -0.01741759   
   2043000   0.051444742   -1.1282682      0.040984711   -1.0101661     -0.011621762  
   2044000   0.050379451   -1.1287226      0.042609291   -1.0105929     -0.016236145  
   2045000   0.048956699   -1.129281       0.041067995   -1.0148253     -0.0030072698 
   2046000   0.050585766   -1.1297147      0.041324906   -1.0125601     -0.0083829132 
   2047000   0.050250655   -1.1276062      0.041011424   -1.0112674     -0.0086638309 
   2048000   0.051647884   -1.1290311      0.040315011   -1.0112942     -0.0059807733 
   2049000   0.051247992   -1.1295517      0.041190212   -1.0115391     -0.0038661788 
   2050000   0.049906891   -1.1291872      0.039082763   -1.0152924     -0.0049897633 
   2051000   0.049580016   -1.1295949      0.040727431   -1.0145454     -0.010128048  
   2052000   0.050134638   -1.1290716      0.039612153   -1.014306       0.0047006619 
   2053000   0.048062045   -1.1287933      0.040683098   -1.0160637      0.0024026353 
   2054000   0.051423269   -1.1293637      0.041394931   -1.0108836     -0.010407872  
   2055000   0.050699883   -1.1282837      0.040533088   -1.0117498     -0.0055427885 
   2056000   0.051263638   -1.1281578      0.039232455   -1.0120795      0.0049380319 
   2057000   0.04964452    -1.1290558      0.042260617   -1.0123765     -0.0065341859 
   2058000   0.0512305     -1.1284782      0.043014016   -1.008668       0.0018526969 
   2059000   0.05057911    -1.127245       0.039901927   -1.0115234     -9.2683378e-05
   2060000   0.050807265   -1.1277374      0.040251145   -1.0113245     -0.0004004544 
   2061000   0.048447258   -1.1292179      0.041744033   -1.0148498      0.0016266378 
   2062000   0.050364482   -1.1309014      0.040323206   -1.0150802     -0.011542814  
   2063000   0.050892579   -1.1318796      0.042053859   -1.0135361     -0.0023960187 
   2064000   0.049841652   -1.1302943      0.039815845   -1.0157642     -0.0047540145 
   2065000   0.05042799    -1.1306292      0.041764744   -1.0132712     -0.0021656409 
   2066000   0.050068434   -1.1311856      0.040606411   -1.015525      -0.013058101  
   2067000   0.050961089   -1.1304493      0.041190949   -1.012866      -0.004137406  
   2068000   0.050687871   -1.1319893      0.03944865    -1.0165579     -0.0025498265 
   2069000   0.049145983   -1.1297746      0.037935111   -1.0181681      0.0022722771 
   2070000   0.050607145   -1.1317919      0.040601915   -1.0153282     -0.0076343081 
   2071000   0.050365848   -1.1317586      0.041053558   -1.015205       0.00037244209
   2072000   0.050725446   -1.1317105      0.041202011   -1.0144694     -0.0013046099 
   2073000   0.048929329   -1.131471       0.042056675   -1.0160677     -0.0098677454 
   2074000   0.052540059   -1.1304885      0.041245628   -1.0104837     -0.0053146991 
   2075000   0.050255343   -1.1326885      0.041842502   -1.0155116     -0.010478398  
   2076000   0.049608351   -1.132326       0.043208661   -1.0147528     -0.011484835  
   2077000   0.051129074   -1.1321064      0.040754387   -1.0147079     -0.010003287  
   2078000   0.050555974   -1.1314965      0.041754726   -1.0139567     -0.0056903852 
   2079000   0.050214151   -1.1318942      0.042830863   -1.0137907     -0.0050704189 
   2080000   0.050476219   -1.1298283      0.041147865   -1.013015      -0.0077165404 
   2081000   0.050340702   -1.1317996      0.039878319   -1.0164589     -0.012338091  
   2082000   0.051109444   -1.1321387      0.041558404   -1.0139656     -0.0068950018 
   2083000   0.051167626   -1.130541       0.040147297   -1.0136918     -0.0074605569 
   2084000   0.049990922   -1.1318767      0.041184539   -1.0157541     -0.0026262368 
   2085000   0.050248374   -1.1319442      0.042704273   -1.013916      -0.0076737078 
   2086000   0.050384709   -1.1317014      0.041433806   -1.0147393     -0.01120027   
   2087000   0.048505943   -1.1297954      0.040033581   -1.0170498     -0.013198111  
   2088000   0.048723658   -1.1304284      0.039549576   -1.0178405     -0.0016192622 
   2089000   0.051083107   -1.1323246      0.041611455   -1.0141379     -0.015453744  
   2090000   0.051000133   -1.1315856      0.04186697    -1.0132678     -0.0061605677 
   2091000   0.050241874   -1.1316304      0.042130106   -1.0141861     -0.0083744709 
   2092000   0.051571964   -1.1314235      0.040527339   -1.0135881     -0.0049494443 
   2093000   0.04962938    -1.1330775      0.042859887   -1.0158216     -0.01273903   
   2094000   0.051069862   -1.1310418      0.042443871   -1.0120426     -0.0050318355 
   2095000   0.051218239   -1.1314069      0.040206213   -1.0144229     -0.011522168  
   2096000   0.050442133   -1.1343742      0.041560332   -1.0171995     -0.0029225871 
   2097000   0.050120509   -1.1318959      0.040042354   -1.0167213     -0.0091753834 
   2098000   0.052099501   -1.1340619      0.040980131   -1.0149829     -0.013750795  
   2099000   0.050532241   -1.1343073      0.041073747   -1.0174841     -0.011961689  
   2100000   0.049893752   -1.1346342      0.041315446   -1.0185264     -0.0040640726 
   2101000   0.052213085   -1.1338402      0.04016796    -1.0154031     -0.00076425519
   2102000   0.052114129   -1.1351911      0.040978942   -1.0160914     -0.010439076  
   2103000   0.050533753   -1.1361844      0.042506801   -1.0179259     -0.015559438  
   2104000   0.051040543   -1.1345608      0.040582285   -1.0174671     -0.0061961971 
   2105000   0.051714023   -1.1347128      0.040511079   -1.0166807     -0.013682942  
   2106000   0.049540893   -1.1340072      0.040909914   -1.0188339     -0.0079212181 
   2107000   0.051242817   -1.1350154      0.041486762   -1.016714      -0.0055258096 
   2108000   0.049296551   -1.1345672      0.040166155   -1.020504      -0.0077960651 
   2109000   0.048740799   -1.1341614      0.039221898   -1.0218755     -0.0015309719 
   2110000   0.049751683   -1.1333675      0.037756837   -1.0210313      0.002735477  
   2111000   0.049609942   -1.1357408      0.04074061    -1.0206332     -0.015080793  
   2112000   0.048918043   -1.1359801      0.040588733   -1.0220617     -0.0052534315 
   2113000   0.050837738   -1.1345502      0.038843795   -1.019499      -0.0019003506 
   2114000   0.048978018   -1.1329673      0.043463227   -1.0160845     -0.011541829  
   2115000   0.048725259   -1.1341747      0.040761908   -1.0203721     -0.0083823637 
   2116000   0.049204422   -1.1347553      0.040266157   -1.0207301     -0.00079278674
   2117000   0.050045121   -1.133744       0.039997875   -1.0187269     -0.0057681726 
   2118000   0.04935974    -1.1357653      0.043038612   -1.0187348     -0.011309793  
   2119000   0.049566082   -1.134642       0.041958502   -1.0183823      0.0010099029 
   2120000   0.051798767   -1.133016       0.039889135   -1.0154789     -0.0050440711 
   2121000   0.051404257   -1.1342396      0.041307034   -1.0158759     -0.0071626803 
   2122000   0.050734443   -1.1335535      0.042261133   -1.0152398     -0.00198447   
   2123000   0.050634249   -1.1322521      0.040702723   -1.015647      -0.0035614374 
   2124000   0.050284123   -1.1324874      0.039368143   -1.0177417      0.0012942076 
   2125000   0.05089052    -1.1342512      0.04114539    -1.0168193     -0.0019048162 
   2126000   0.049154605   -1.1352869      0.042586999   -1.0190156     -0.015815836  
   2127000   0.050651518   -1.1343158      0.040020832   -1.0183667     -0.0080871988 
   2128000   0.048336426   -1.1327203      0.039055814   -1.0212067     -0.0087068076 
   2129000   0.048913674   -1.135954       0.042165845   -1.020465      -0.0095865917 
   2130000   0.048436147   -1.1344828      0.041873569   -1.0200019     -0.016565276  
   2131000   0.0500224     -1.134909       0.04105285    -1.0188709     -0.0037725008 
   2132000   0.048225932   -1.1352974      0.040964084   -1.0220411      0.0044741774 
   2133000   0.051112179   -1.1380424      0.040249064   -1.0211745     -0.014127055  
   2134000   0.050106267   -1.1365589      0.042404217   -1.0190437      0.0055064854 
   2135000   0.048289284   -1.1378484      0.042503102   -1.0229581     -0.012542481  
   2136000   0.052116622   -1.1385242      0.039208616   -1.0211911     -0.0072119118 
   2137000   0.049113406   -1.1384482      0.041937149   -1.0228884     -0.0029185963 
   2138000   0.051166412   -1.138319       0.040895625   -1.0207233     -0.0099362817 
   2139000   0.050005473   -1.1375537      0.040917988   -1.0216759     -0.0096843798 
   2140000   0.051069498   -1.1396383      0.04257699    -1.0205065     -0.0050807499 
   2141000   0.04926933    -1.1379543      0.04114097    -1.022957      -0.0031883212 
   2142000   0.050710473   -1.1399887      0.042830396   -1.0211417     -0.0080219374 
   2143000   0.049087054   -1.140285       0.043023896   -1.023678      -0.0075253673 
   2144000   0.050716215   -1.1407563      0.041246723   -1.0234843     -0.0084374552 
   2145000   0.050778192   -1.1424081      0.040436328   -1.0258536     -0.0069376456 
   2146000   0.049814393   -1.1417065      0.041360268   -1.0256728     -0.0025178101 
   2147000   0.050544795   -1.1424101      0.041790277   -1.0248515     -0.0056132565 
   2148000   0.049699566   -1.1435247      0.042017119   -1.0270064     -0.0088023098 
   2149000   0.051293423   -1.1431192      0.039448955   -1.0267797      0.007351398  
   2150000   0.049135058   -1.147135       0.043793589   -1.0296864     -0.018553379  
   2151000   0.050913083   -1.1459495      0.043030091   -1.026599      -0.0087051274 
   2152000   0.049956155   -1.1458582      0.040851919   -1.0301204      0.00071850987
   2153000   0.049884019   -1.144498       0.041863261   -1.0278569     -0.013873762  
   2154000   0.050547917   -1.14549        0.042388511   -1.0273286     -0.00021524561
   2155000   0.05057282    -1.1447993      0.040551746   -1.0284372      0.0015944218 
   2156000   0.050528712   -1.1449975      0.042386661   -1.0268667     -0.011672191  
   2157000   0.051678981   -1.1453753      0.039797868   -1.028109      -0.011020622  
   2158000   0.049852429   -1.1476806      0.041915907   -1.0310343     -0.0032883124 
   2159000   0.050632753   -1.1470064      0.044165717   -1.0269406     -0.0073141508 
   2160000   0.051878313   -1.1453623      0.043244204   -1.0243508     -0.0095766537 
   2161000   0.051654606   -1.1443044      0.040634635   -1.0262379     -0.0087177334 
   2162000   0.050291232   -1.1453397      0.040984565   -1.028967      -0.0083266988 
   2163000   0.050826166   -1.1463333      0.04248834    -1.0276549     -0.013008418  
   2164000   0.050621047   -1.1456085      0.039392246   -1.0303337     -0.015522511  
   2165000   0.049311853   -1.1459684      0.043145771   -1.0289026     -0.0066519545 
   2166000   0.050276548   -1.1469517      0.041190409   -1.0303951     -0.012096214  
   2167000   0.050232459   -1.1462576      0.040951105   -1.0300064     -0.012765454  
   2168000   0.050418094   -1.1460765      0.040441526   -1.0300567     -0.016392224  
   2169000   0.049800573   -1.1462335      0.042011845   -1.029569      -0.0098859604 
   2170000   0.049513998   -1.1457082      0.041059214   -1.0304259     -0.007204265  
   2171000   0.049142777   -1.1452465      0.042737522   -1.0288423     -0.020465122  
   2172000   0.0486441     -1.1461535      0.040215473   -1.0330189     -0.015769384  
   2173000   0.049261789   -1.1461233      0.040587597   -1.0316907     -0.014947405  
   2174000   0.051341468   -1.1460171      0.042504875   -1.0265497     -0.0019045286 
   2175000   0.051655686   -1.1434742      0.041292833   -1.0247478     -0.0099447869 
   2176000   0.050561056   -1.1444513      0.04150905    -1.0271496     -0.0025438973 
   2177000   0.048488528   -1.1450382      0.043414023   -1.0289383     -0.0072912147 
   2178000   0.051043023   -1.1457154      0.039991762   -1.0292085     -0.012059279  
   2179000   0.049412121   -1.1452439      0.04075833    -1.0304152     -0.010905832  
   2180000   0.049796223   -1.1460807      0.04294701    -1.0284876     -0.020030956  
   2181000   0.048900381   -1.1452928      0.042322761   -1.0296668     -0.0047686152 
   2182000   0.048876574   -1.1455338      0.041580206   -1.030686      -0.013011944  
   2183000   0.047669297   -1.1456298      0.042566094   -1.0316059     -0.010876318  
   2184000   0.050911916   -1.1473686      0.04323249    -1.0278175     -0.011780854  
   2185000   0.049111511   -1.1453463      0.042714992   -1.0290116      0.00087987159
   2186000   0.049711898   -1.1462158      0.042668294   -1.0290277     -0.0078859347 
   2187000   0.05059496    -1.1464023      0.042804895   -1.027754      -0.015418532  
   2188000   0.050179618   -1.1448566      0.043607236   -1.0260285     -0.0202149    
   2189000   0.051098303   -1.1480325      0.043799535   -1.0276349     -0.0020675003 
   2190000   0.050671069   -1.1456353      0.03959229    -1.0300854     -0.0039949255 
   2191000   0.048551878   -1.1467647      0.042719248   -1.0312646     -0.0010798828 
   2192000   0.049215037   -1.1462484      0.041526082   -1.0309474     -0.01510975   
   2193000   0.048921134   -1.1465564      0.041475967   -1.0317461     -0.012666341  
   2194000   0.049099851   -1.146819       0.040854198   -1.0323625     -0.0010423276 
   2195000   0.050531888   -1.1466549      0.041444412   -1.0294616     -0.0040158187 
   2196000   0.052699331   -1.1455854      0.041530031   -1.0250574     -0.0075585569 
   2197000   0.04858507    -1.1451215      0.044225768   -1.0280651     -0.0094663041 
   2198000   0.049469106   -1.1472454      0.043159684   -1.0299299     -0.015484587  
   2199000   0.051327058   -1.1461067      0.040274384   -1.0288914     -4.274102e-05 
   2200000   0.050913964   -1.1481221      0.041614539   -1.0301859     -0.011677729  
   2201000   0.050331028   -1.1460759      0.042548967   -1.028079      -0.002282242  
   2202000   0.049832097   -1.1468163      0.042114474   -1.0300019     -0.0014518887 
   2203000   0.051155023   -1.1474328      0.040601858   -1.0301479     -0.010899325  
   2204000   0.048101436   -1.1479227      0.04330711    -1.03251       -0.0070222443 
   2205000   0.049630691   -1.1465151      0.042311723   -1.0298054     -0.0054887256 
   2206000   0.051633102   -1.1471007      0.042093254   -1.0276078     -0.0029505659 
   2207000   0.051102751   -1.1479902      0.042750182   -1.0286353     -0.0064523784 
   2208000   0.049966147   -1.1490818      0.044870848   -1.0293101     -0.019969024  
   2209000   0.051656421   -1.1503729      0.040907781   -1.0320305     -0.016843226  
   2210000   0.048917494   -1.1472559      0.042992391   -1.0309346     -0.0054296392 
   2211000   0.050510979   -1.1477556      0.041054393   -1.0309836     -0.0017201985 
   2212000   0.051965457   -1.1501646      0.043257821   -1.0290089     -0.015027411  
   2213000   0.050994762   -1.1513317      0.041406518   -1.0334824     -0.0042853454 
   2214000   0.051446232   -1.1489391      0.042826984   -1.0289925     -0.010363809  
   2215000   0.050552266   -1.1502588      0.04139955    -1.0330798      7.7527021e-05
   2216000   0.049478524   -1.1488194      0.041560367   -1.0330892     -0.0096625989 
   2217000   0.050421887   -1.1486663      0.041075609   -1.0320066     -0.01039549   
   2218000   0.050442479   -1.1499531      0.041436831   -1.0329013      0.0017871893 
   2219000   0.048265096   -1.1494362      0.040537876   -1.0365474     -0.0025414972 
   2220000   0.050820695   -1.1499291      0.040276316   -1.0334709     -0.007118836  
   2221000   0.051431897   -1.1512541      0.041127054   -1.033029      -0.010347937  
   2222000   0.050051122   -1.1513627      0.041586786   -1.0347476     -0.0071697287 
   2223000   0.050027912   -1.1542847      0.044024642   -1.0352666     -0.016394104  
   2224000   0.050182145   -1.1540495      0.040030282   -1.0387946     -0.0075271349 
   2225000   0.050778369   -1.1549937      0.041914884   -1.0369604     -0.0093989946 
   2226000   0.049605615   -1.1531384      0.038957328   -1.0398207     -0.00022800548
   2227000   0.048659908   -1.1539197      0.040539795   -1.0404371     -0.0020115517 
   2228000   0.048805526   -1.1530296      0.04250618    -1.0373623     -0.004977392  
   2229000   0.051461497   -1.1541763      0.040488658   -1.0365452     -0.0074850814 
   2230000   0.049550324   -1.1561338      0.042485837   -1.0393704     -0.0073197906 
   2231000   0.051222264   -1.1561808      0.042182597   -1.0372144     -0.0073297936 
   2232000   0.049316471   -1.1555658      0.044403864   -1.037235      -0.012131112  
   2233000   0.047395585   -1.154788       0.042677979   -1.0410625     -0.0033193401 
   2234000   0.050594749   -1.1547048      0.040957166   -1.0379045     -0.0043966854 
   2235000   0.050637441   -1.1541987      0.040935265   -1.0373563     -0.012143138  
   2236000   0.050944748   -1.1564107      0.041161536   -1.0388814     -0.0048736963 
   2237000   0.05081569    -1.1565857      0.042853289   -1.0375581     -0.00504393   
   2238000   0.050263864   -1.1561487      0.040449942   -1.0403516     -0.0082873197 
   2239000   0.048854077   -1.1552064      0.041134836   -1.0408377     -0.0085054074 
   2240000   0.050010513   -1.1555285      0.04434116    -1.03622       -0.011354807  
   2241000   0.049821745   -1.1552674      0.043299494   -1.0372835     -0.0040428274 
   2242000   0.049648559   -1.1538935      0.040447005   -1.0390217      0.00744039   
   2243000   0.051624353   -1.154938       0.040947765   -1.0366037     -0.01346282   
   2244000   0.049486341   -1.1561624      0.045072916   -1.0369079     -0.0052441193 
   2245000   0.050053352   -1.1557656      0.044605067   -1.036129      -0.012668425  
   2246000   0.049113194   -1.1565619      0.039741251   -1.0431983      0.0028703358 
   2247000   0.049282761   -1.1561373      0.039982462   -1.0422784     -0.0075458248 
   2248000   0.04918772    -1.1577792      0.040929035   -1.0431162     -0.0047240205 
   2249000   0.04879503    -1.1560202      0.041209611   -1.0416653     -0.01214962   
   2250000   0.051783403   -1.1566752      0.042648185   -1.0364021     -0.0045672469 
   2251000   0.050050101   -1.1577101      0.041812186   -1.0408712     -0.0024417296 
   2252000   0.050501023   -1.1571697      0.042301671   -1.0391654     -0.013076867  
   2253000   0.050154403   -1.1571538      0.040864414   -1.0411064     -0.012462662  
   2254000   0.049898518   -1.1579113      0.041725538   -1.0413863     -0.0055257339 
   2255000   0.051418474   -1.156153       0.041662482   -1.0374126     -0.00480183   
   2256000   0.049728343   -1.1560896      0.043038031   -1.0385072     -0.016375053  
   2257000   0.051282326   -1.1577769      0.041937401   -1.0389656     -0.010096329  
   2258000   0.048588489   -1.1563784      0.042531138   -1.0410116      0.010578998  
   2259000   0.051599473   -1.1574242      0.044576614   -1.0354983     -0.0082748356 
   2260000   0.049883061   -1.1571824      0.041204602   -1.0412015     -0.0025193909 
   2261000   0.050207854   -1.1571595      0.041444597   -1.0404517      7.4943817e-05
   2262000   0.049949066   -1.1560564      0.040980241   -1.0402009     -0.0062100527 
   2263000   0.049758532   -1.1562344      0.040651239   -1.0409935     -0.0059633075 
   2264000   0.050413525   -1.1562431      0.042338577   -1.0383331     -0.015327318  
   2265000   0.050909351   -1.1567902      0.043400228   -1.0370752     -0.0067379605 
   2266000   0.052173906   -1.1561678      0.041613426   -1.036344      -0.0085197161 
   2267000   0.049907972   -1.1566402      0.041196118   -1.0406305     -0.0032147233 
   2268000   0.049836246   -1.155998       0.04344383    -1.037848      -0.0033362938 
   2269000   0.052030426   -1.1564009      0.042023726   -1.0363819     -0.0061603071 
   2270000   0.052027252   -1.1566119      0.041905264   -1.0367161     -0.011608661  
   2271000   0.049162867   -1.1572937      0.04286317    -1.0407338     -0.012022924  
   2272000   0.052745659   -1.1572856      0.04106748    -1.0371507     -0.0087766461 
   2273000   0.048765981   -1.1577177      0.042415359   -1.0422006     -0.0086769632 
   2274000   0.046254319   -1.1582683      0.043061493   -1.0458701     -0.007613703  
   2275000   0.048244061   -1.1573359      0.041468589   -1.0435479     -0.0091546618 
   2276000   0.050263045   -1.1564972      0.039270005   -1.0418813     -0.010642388  
   2277000   0.050420509   -1.1584068      0.040712112   -1.0421128     -0.0068999559 
   2278000   0.049425674   -1.1583933      0.042413508   -1.0418891     -0.0067104059 
   2279000   0.04928116    -1.1572579      0.040540818   -1.042843      -0.0079704243 
   2280000   0.051818553   -1.15689        0.042905516   -1.0363068     -0.010408236  
   2281000   0.050557173   -1.1560817      0.041467704   -1.0388271     -0.0080802202 
   2282000   0.04862389    -1.1582563      0.043495818   -1.0418717     -0.016567715  
   2283000   0.050831747   -1.1555023      0.042301736   -1.0370021     -0.0065499669 
   2284000   0.050088396   -1.1558155      0.041976447   -1.0387549      0.0052582693 
   2285000   0.051077721   -1.1566684      0.042207937   -1.0378933     -0.0051318442 
   2286000   0.051156594   -1.1564193      0.044086975   -1.035647      -0.0049253795 
   2287000   0.050776379   -1.1586708      0.041673173   -1.0408822     -0.0081881463 
   2288000   0.051068585   -1.1614641      0.043008222   -1.0419025     -0.0043339448 
   2289000   0.051157177   -1.1599342      0.042590291   -1.0406577     -0.0065669436 
   2290000   0.051223132   -1.1607344      0.043606348   -1.040343      -0.011297808  
   2291000   0.05144574    -1.1616045      0.042854833   -1.0416308     -0.01645897   
   2292000   0.050218512   -1.1596548      0.042996275   -1.0413794      6.3100233e-05
   2293000   0.049472732   -1.1610624      0.043945863   -1.0429553     -0.0074647598 
   2294000   0.048741728   -1.1608607      0.041820959   -1.0459743     -0.0027326437 
   2295000   0.050115616   -1.1600485      0.040728147   -1.0441954     -0.0041406915 
   2296000   0.050744222   -1.1612413      0.043966944   -1.0412072     -0.012003814  
   2297000   0.049497755   -1.1607491      0.042078816   -1.0444716     -0.012543082  
   2298000   0.050667149   -1.1604264      0.041523923   -1.0429508     -0.0051190476 
   2299000   0.049098477   -1.159578       0.041666133   -1.0443116     -0.015687486  
   2300000   0.048266134   -1.1602644      0.041874524   -1.0460374     -0.0044319325 
   2301000   0.04890679    -1.1609994      0.041310578   -1.0463759     -0.0091940095 
   2302000   0.051089513   -1.1603512      0.04062731    -1.0431391     -0.013118706  
   2303000   0.049920181   -1.1600539      0.041351172   -1.0438708     -0.0094135178 
   2304000   0.049733561   -1.160298       0.042415992   -1.0433298     -0.0025343184 
   2305000   0.050136274   -1.160571       0.043590001   -1.0418251     -0.01252796   
   2306000   0.051448908   -1.1619901      0.041546758   -1.0433197     -0.010687963  
   2307000   0.050473571   -1.1622772      0.042245998   -1.0443697     -0.0049808251 
   2308000   0.048497111   -1.1604663      0.040936671   -1.0468309     -0.0089919669 
   2309000   0.051340991   -1.1609336      0.041971767   -1.042         -0.013959836  
   2310000   0.048801053   -1.1610793      0.041638398   -1.0462866     -0.0098791497 
   2311000   0.050809686   -1.1618194      0.04019651    -1.0454576     -0.014590509  
   2312000   0.04990819    -1.1605763      0.041928969   -1.0438334     -0.012757914  
   2313000   0.051801574   -1.1609602      0.044347954   -1.03896       -0.007441292  
   2314000   0.049759596   -1.1585829      0.043117651   -1.040874      -0.0039703805 
   2315000   0.051773343   -1.1587538      0.038691277   -1.0424526     -0.0013263073 
   2316000   0.050325944   -1.1601528      0.043443379   -1.0412692     -0.0055717867 
   2317000   0.052771205   -1.1598256      0.041737327   -1.0389825     -0.0075381902 
   2318000   0.052003725   -1.1591644      0.041826115   -1.0393831     -0.0047364924 
   2319000   0.050202936   -1.1590548      0.041861769   -1.0419372     -0.00049589549
   2320000   0.050168536   -1.1610025      0.042591004   -1.0432072     -0.019439472  
   2321000   0.049418376   -1.1611797      0.043183884   -1.0439161     -0.0070552492 
   2322000   0.050838965   -1.1607546      0.041770203   -1.0427751     -0.015351221  
   2323000   0.049406      -1.1593486      0.042018077   -1.0432693     -0.0073749524 
   2324000   0.051307644   -1.1608594      0.042596579   -1.041351      -0.0024872153 
   2325000   0.050496981   -1.1594439      0.044451485   -1.0392958     -0.0072878862 
   2326000   0.05051371    -1.1616577      0.042849471   -1.0430865     -0.0013269918 
   2327000   0.049846709   -1.160738       0.042976987   -1.0430392     -0.013028893  
   2328000   0.050044983   -1.1595294      0.043181485   -1.0413289     -0.0034781295 
   2329000   0.050402827   -1.1590473      0.042359646   -1.0411322     -0.0059505137 
   2330000   0.050399279   -1.1597438      0.042629027   -1.0415646     -0.0046265881 
   2331000   0.049144708   -1.1607733      0.041890873   -1.0452129     -0.012432088  
   2332000   0.050787371   -1.161518       0.040501962   -1.0448841     -0.0071680045 
   2333000   0.049836264   -1.1590244      0.041424454   -1.0428938     -0.0071954397 
   2334000   0.051667763   -1.1608547      0.041780564   -1.0416225     -0.0092585842 
   2335000   0.049495761   -1.1616078      0.044046815   -1.0433652     -0.016278386  
   2336000   0.051510317   -1.160949       0.042908267   -1.0408251     -0.013415291  
   2337000   0.050160164   -1.160987       0.044165414   -1.0416298     -0.012385095  
   2338000   0.051377506   -1.1605872      0.042671087   -1.0408996     -0.0076428601 
   2339000   0.049863066   -1.158739       0.041531457   -1.0424612      0.00043875764
   2340000   0.050287761   -1.1588797      0.039335983   -1.0441608     -0.019730314  
   2341000   0.050401807   -1.1619496      0.04221819    -1.0441775      0.0021599707 
   2342000   0.051119047   -1.1610713      0.042925405   -1.0415168     -0.0074173985 
   2343000   0.053162633   -1.1588602      0.042038317   -1.0371294     -0.0054910977 
   2344000   0.049308677   -1.1598661      0.044441422   -1.0415094     -0.0081772044 
   2345000   0.051880923   -1.1587682      0.042788295   -1.0382087     -0.014624975  
   2346000   0.052142357   -1.1599795      0.043703889   -1.0381126     -0.010886031  
   2347000   0.048855827   -1.1604576      0.04215081    -1.0450704     -0.0016407555 
   2348000   0.048284723   -1.1587181      0.04238726    -1.0439505     -0.0050670003 
   2349000   0.050925521   -1.1605887      0.040675726   -1.043574      -0.0099499588 
   2350000   0.04983198    -1.1598884      0.043067949   -1.0421207     -0.00016039106
   2351000   0.050413548   -1.1600238      0.042358424   -1.0420938     -0.0064928252 
   2352000   0.050510259   -1.1590611      0.041644468   -1.0417001     -0.0073221161 
   2353000   0.049553192   -1.1601597      0.041409377   -1.0444685     -3.4764901e-05
   2354000   0.051130102   -1.1592694      0.042394168   -1.0402296     -0.010380575  
   2355000   0.050720764   -1.1603832      0.041934842   -1.0424163      0.00095586131
   2356000   0.051430192   -1.1602749      0.042077184   -1.0411022     -0.0056240588 
   2357000   0.049547014   -1.1583439      0.042782732   -1.0412886     -0.0079286043 
   2358000   0.051554008   -1.1600003      0.041991658   -1.0407275     -0.01914716   
   2359000   0.050766985   -1.1592191      0.042814393   -1.0403034     -0.0083475454 
   2360000   0.050697461   -1.1613825      0.043622052   -1.0417633     -0.013859584  
   2361000   0.050053646   -1.1608405      0.043906887   -1.0419016     -0.0039449581 
   2362000   0.049327156   -1.1613201      0.043653406   -1.0437237     -0.013548716  
   2363000   0.051670056   -1.1616237      0.041446585   -1.042722      -0.0046219628 
   2364000   0.05348268    -1.1622961      0.039710463   -1.0424134     -0.014022646  
   2365000   0.051241077   -1.1630589      0.041568642   -1.0446782      0.0025617197 
   2366000   0.049938575   -1.1615945      0.041339775   -1.0453952     -0.0067024642 
   2367000   0.049237775   -1.162654       0.043166698   -1.0456782      0.00023147036
   2368000   0.052690243   -1.1623252      0.043231471   -1.0401094     -0.013384865  
   2369000   0.049333631   -1.1631008      0.044096427   -1.0450517     -0.013018749  
   2370000   0.049595811   -1.162168       0.041088263   -1.046734      -0.0063133989 
   2371000   0.049260211   -1.1635815      0.043785729   -1.0459532     -0.0057287421 
   2372000   0.050425491   -1.1637738      0.044353934   -1.0438304     -0.0068835208 
   2373000   0.050188662   -1.1651261      0.042969416   -1.0469223     -0.017117524  
   2374000   0.050836905   -1.1632365      0.042133205   -1.0448971     -0.0094649211 
   2375000   0.050242928   -1.1635691      0.041643341   -1.04661       -0.0029468788 
   2376000   0.052220079   -1.1640486      0.041350901   -1.0444181     -0.0073779215 
   2377000   0.050269583   -1.1631357      0.042701733   -1.0450782     -0.0097708328 
   2378000   0.050191837   -1.1647803      0.042823372   -1.0467178     -0.011678311  
   2379000   0.047972158   -1.1654871      0.043397062   -1.0501783     -0.020129936  
   2380000   0.049900794   -1.1642166      0.039233547   -1.0501802     -0.0057953612 
   2381000   0.047477165   -1.1619172      0.039428437   -1.051319       0.010631958  
   2382000   0.051861453   -1.16536        0.04309844    -1.0445195     -0.0049872369 
   2383000   0.051022473   -1.1641526      0.041256313   -1.046412      -0.0021168706 
   2384000   0.051880095   -1.1670982      0.042619227   -1.046709      -0.0082881168 
   2385000   0.051501321   -1.1661973      0.042717145   -1.046278      -0.011434609  
   2386000   0.049716112   -1.1663331      0.043290125   -1.048517      -0.010449242  
   2387000   0.052741013   -1.1676882      0.045418318   -1.0432094     -0.016256126  
   2388000   0.05233601    -1.1680579      0.044646256   -1.0449582     -0.0032275867 
   2389000   0.051166055   -1.1686299      0.044851449   -1.0470789     -0.011733331  
   2390000   0.050847483   -1.1679355      0.043704224   -1.0480092     -0.0071202716 
   2391000   0.049925095   -1.1660987      0.04276848    -1.0484909     -0.012924834  
   2392000   0.05103662    -1.1680876      0.04461816    -1.0469639     -0.0016361123 
   2393000   0.050758306   -1.1675752      0.0412745     -1.0502124     -0.0075165646 
   2394000   0.050708011   -1.1667533      0.043534605   -1.0472057     -0.0044737437 
   2395000   0.050874432   -1.167598       0.043205825   -1.0481297     -0.005871917  
   2396000   0.050319622   -1.1691638      0.043925334   -1.0498077     -0.011027009  
   2397000   0.048729106   -1.1685279      0.041782965   -1.0536984     -0.0017436537 
   2398000   0.04915165    -1.1692102      0.044087031   -1.0514432     -0.0060041622 
   2399000   0.051182341   -1.1690754      0.042965339   -1.0493861     -0.017950915  
   2400000   0.049254169   -1.1688232      0.041824583   -1.053165      -0.0046137886 
   2401000   0.05080688    -1.1677931      0.042491025   -1.0491409     -0.00097210077
   2402000   0.050669705   -1.1677794      0.042095273   -1.0497286      0.00057193437
   2403000   0.051211205   -1.1673189      0.04494946    -1.0456022     -0.016038156  
   2404000   0.051606929   -1.1668344      0.043305098   -1.0461688     -0.010172626  
   2405000   0.05131821    -1.1675122      0.043631751   -1.0469528     -0.014681795  
   2406000   0.049871488   -1.1684557      0.043806132   -1.0498906     -0.0074966809 
   2407000   0.05106693    -1.1688248      0.042316175   -1.0499576     -0.00078075993
   2408000   0.050534249   -1.1690055      0.043547745   -1.0497053     -0.013654457  
   2409000   0.049295335   -1.1701114      0.044034301   -1.0521818     -0.014851729  
   2410000   0.049438026   -1.1686081      0.04498766    -1.0495112     -0.0039926238 
   2411000   0.049244272   -1.1674287      0.043106925   -1.050503      -0.0035011283 
   2412000   0.050149844   -1.1685584      0.045286654   -1.0480955     -0.011060137  
   2413000   0.050442109   -1.16728        0.044003676   -1.047662      -0.010801193  
   2414000   0.050932181   -1.1672177      0.043776103   -1.0470926     -0.0046152847 
   2415000   0.049898901   -1.1662768      0.045433268   -1.0460434     -0.0091247153 
   2416000   0.050516113   -1.1668567      0.042828137   -1.0483032     -0.0071923608 
   2417000   0.050005997   -1.1680458      0.044401116   -1.0486841     -0.0095487247 
   2418000   0.04975369    -1.1675251      0.042609953   -1.0503327     -0.005999826  
   2419000   0.050817935   -1.1683755      0.041862559   -1.0503352     -0.00383124   
   2420000   0.048241552   -1.1667161      0.043487746   -1.0509127      0.00072417017
   2421000   0.050894486   -1.1679468      0.041277459   -1.0503769     -0.0071086885 
   2422000   0.052370004   -1.1703205      0.04345457    -1.0483616     -0.009859787  
   2423000   0.050217413   -1.1693463      0.043740758   -1.050328      -0.0077355959 
   2424000   0.051349608   -1.1712016      0.045244844   -1.0489821      0.0010278746 
   2425000   0.051205025   -1.170563       0.043086484   -1.0507185     -0.003957863  
   2426000   0.04918069    -1.1704772      0.042104872   -1.0546488     -0.011373999  
   2427000   0.051163517   -1.172696       0.044507268   -1.051493      -0.01008653   
   2428000   0.049347336   -1.171133       0.043986198   -1.0531735     -0.0051215596 
   2429000   0.049059689   -1.1723541      0.043602123   -1.0552099     -0.011442422  
   2430000   0.048837729   -1.1713488      0.04318731    -1.0549522     -0.0073953573 
   2431000   0.048375647   -1.1717041      0.043352201   -1.0558352     -0.0092282453 
   2432000   0.049250599   -1.1721565      0.041865629   -1.0564626     -0.0094243899 
   2433000   0.049533839   -1.1726133      0.043241769   -1.0551187     -0.0034317199 
   2434000   0.049977932   -1.1725636      0.044694024   -1.052951      -0.0019506668 
   2435000   0.049517156   -1.1710861      0.04368208    -1.0531762     -0.011153869  
   2436000   0.05043227    -1.172232       0.044071118   -1.0525613      0.00028078933
   2437000   0.049505705   -1.1715689      0.042756302   -1.0546019     -0.0050479723 
   2438000   0.051111193   -1.1719489      0.043190437   -1.0521411     -0.0051279286 
   2439000   0.053476542   -1.1729043      0.045040198   -1.0477011     -0.013675053  
   2440000   0.051703644   -1.1724305      0.045318827   -1.0496063     -0.015521789  
   2441000   0.051095849   -1.1726232      0.043303429   -1.0527254     -0.0025057245 
   2442000   0.04995596    -1.1713957      0.042043044   -1.0544671     -0.0024288892 
   2443000   0.049591843   -1.1731957      0.044202534   -1.0546534     -0.0092659521 
   2444000   0.05081242    -1.1721394      0.04442009    -1.0515498     -0.010482688  
   2445000   0.049449568   -1.1719494      0.042015303   -1.0558076     -0.010329934  
   2446000   0.048505771   -1.1723873      0.044768397   -1.0549072     -0.0038239843 
   2447000   0.049467506   -1.1733841      0.04301008    -1.0562206     -0.015077709  
   2448000   0.0493014     -1.1728618      0.040776459   -1.0581809     -0.0017733292 
   2449000   0.049245084   -1.1713153      0.042861592   -1.0546337      0.00055903771
   2450000   0.050334993   -1.1739267      0.044147736   -1.0543252     -0.014270147  
   2451000   0.050794539   -1.1725287      0.041257858   -1.0551282     -0.0084455341 
   2452000   0.049670702   -1.1716852      0.042959542   -1.0542677     -0.0086554036 
   2453000   0.051058796   -1.1718887      0.043196802   -1.0521532     -0.0055115481 
   2454000   0.052221664   -1.1710967      0.042064223   -1.0507506     -0.0054847249 
   2455000   0.049891111   -1.1729112      0.042478112   -1.0556447     -0.0050778728 
   2456000   0.048574757   -1.1726375      0.04431218    -1.0555102     -0.015509919  
   2457000   0.048725127   -1.1723898      0.043853653   -1.0554956     -0.0038410566 
   2458000   0.051808807   -1.1729347      0.041529853   -1.0537418     -0.0067564673 
   2459000   0.050208581   -1.1735583      0.044116881   -1.0541771     -0.0023568072 
   2460000   0.049298957   -1.1737614      0.043240283   -1.0566204     -0.0064241587 
   2461000   0.049962389   -1.1730925      0.043545143   -1.0546521     -0.011438026  
   2462000   0.050246706   -1.1738606      0.040280405   -1.0582588     -0.0012258816 
   2463000   0.050366578   -1.1722679      0.042624796   -1.0541419     -0.0031632431 
   2464000   0.049597415   -1.1726358      0.041765106   -1.0565226     -0.017853814  
   2465000   0.050688837   -1.1717159      0.041323859   -1.0544078     -0.0025792142 
   2466000   0.048809108   -1.1716586      0.041508645   -1.0569836      0.0037751627 
   2467000   0.051678837   -1.1732559      0.040587473   -1.0552001     -0.0068805491 
   2468000   0.049686278   -1.1739099      0.044717115   -1.0547114     -0.014435015  
   2469000   0.051371833   -1.1723379      0.040567454   -1.0547624     -0.013536851  
   2470000   0.051775294   -1.173432       0.044163375   -1.0516558     -0.012238821  
   2471000   0.050734798   -1.1716636      0.043287892   -1.0523226     -0.0067413005 
   2472000   0.050289861   -1.1727832      0.044385954   -1.0530112     -0.0058554662 
   2473000   0.05021793    -1.1726894      0.044980892   -1.0524302     -0.0077906782 
   2474000   0.050558223   -1.1726453      0.043998823   -1.0528581     -0.0140123    
   2475000   0.050736594   -1.1717369      0.045561219   -1.0501199     -0.010676468  
   2476000   0.051389067   -1.1723253      0.044414093   -1.0508774     -0.0089343978 
   2477000   0.04897569    -1.1747798      0.044458071   -1.0569056     -0.01645825   
   2478000   0.05006917    -1.172149       0.042792172   -1.0543015     -0.0079063636 
   2479000   0.049598306   -1.1725456      0.042529989   -1.0556661     -0.015637282  
   2480000   0.05152743    -1.1747228      0.043982889   -1.0534986     -0.011749309  
   2481000   0.051129702   -1.1781091      0.045598202   -1.0558658     -0.014330658  
   2482000   0.050740395   -1.1785155      0.043944718   -1.0585093     -0.011319184  
   2483000   0.049201432   -1.1769369      0.044875624   -1.0583067     -0.015141483  
   2484000   0.050509561   -1.176204       0.04348858    -1.0569999     -0.013055221  
   2485000   0.05106089    -1.1780813      0.044835531   -1.0567038     -0.014949221  
   2486000   0.048871157   -1.1767305      0.04274445    -1.0607266     -0.00023324766
   2487000   0.05049409    -1.178514       0.041600683   -1.061221      -0.020847841  
   2488000   0.05011626    -1.177083       0.044973356   -1.0569837     -0.016305811  
   2489000   0.049682667   -1.1761375      0.042920267   -1.0587413     -0.0029761177 
   2490000   0.051641811   -1.1780463      0.045078072   -1.0555555     -0.012574254  
   2491000   0.050243739   -1.1769222      0.044578385   -1.0570268     -0.0088493272 
   2492000   0.049941555   -1.1780291      0.042720106   -1.060445      -0.0013139217 
   2493000   0.050393798   -1.1791857      0.04378323    -1.0598606     -0.017213069  
   2494000   0.050647302   -1.1777435      0.044688852   -1.0571327     -0.010583474  
   2495000   0.049055933   -1.1769381      0.044141693   -1.05926       -0.003886493  
   2496000   0.05004958    -1.1777438      0.045332803   -1.0573851     -0.0038955904 
   2497000   0.050787382   -1.1776304      0.044631599   -1.0568669     -0.0046861075 
   2498000   0.050449858   -1.1772942      0.042850745   -1.0588175     -0.0096635566 
   2499000   0.049766483   -1.1785196      0.044060404   -1.0598576     -0.0037672184 
   2500000   0.049494552   -1.1764404      0.042453201   -1.0597932     -0.0053060899 
   2501000   0.050402764   -1.1767968      0.042550319   -1.0586911     -0.016721983  
   2502000   0.051636971   -1.1774581      0.045550062   -1.0545026     -0.022311023  
   2503000   0.050281737   -1.1776583      0.043825142   -1.0584592     -0.0024029747 
   2504000   0.050790465   -1.1772218      0.043440949   -1.0576444     -0.017910711  
   2505000   0.052009903   -1.1768527      0.044377073   -1.0545111     -0.0031991852 
   2506000   0.050953598   -1.1758662      0.04466643    -1.0548187     -0.014953615  
   2507000   0.052108209   -1.1779677      0.046542452   -1.0533134     -0.01476774   
   2508000   0.05019032    -1.1779322      0.043700495   -1.0589948     -0.0070021394 
   2509000   0.050552734   -1.1770585      0.042373281   -1.058905      -0.015121018  
   2510000   0.049413529   -1.1764974      0.044460445   -1.0579645      0.0022154933 
   2511000   0.049010442   -1.1759526      0.043485092   -1.0589993      0.0015228039 
   2512000   0.048827715   -1.1752999      0.043947812   -1.0581578     -0.017340615  
   2513000   0.051043761   -1.1758199      0.045581169   -1.0537225     -0.0011437396 
   2514000   0.049665051   -1.1780181      0.045250415   -1.0583181     -0.010744864  
   2515000   0.051209745   -1.1772092      0.044120616   -1.0563235     -0.013702863  
   2516000   0.04951673    -1.1757064      0.043876158   -1.0576031     -0.007673053  
   2517000   0.049830422   -1.1772426      0.044057186   -1.058488      -0.012282414  
   2518000   0.050160943   -1.1768228      0.043356645   -1.0582732     -0.020642712  
   2519000   0.049055006   -1.1765903      0.043135809   -1.0599195     -0.011688483  
   2520000   0.050923411   -1.1773322      0.042839073   -1.0581573     -0.014572753  
   2521000   0.048884122   -1.1768686      0.042231119   -1.0613586     -0.010780197  
   2522000   0.04945485    -1.1775175      0.044533173   -1.0588499     -0.010591386  
   2523000   0.048833675   -1.1761385      0.0421403     -1.0607949     -0.016687983  
   2524000   0.048871828   -1.1762083      0.044673531   -1.0582743     -0.0072286818 
   2525000   0.051174477   -1.1786663      0.045301695   -1.0566524     -0.015961627  
   2526000   0.050214363   -1.1779621      0.042710451   -1.0599787     -0.017602177  
   2527000   0.048642498   -1.1780036      0.044662224   -1.0604247     -0.011568242  
   2528000   0.050558576   -1.1756812      0.04366323    -1.056229      -0.017147539  
   2529000   0.050527104   -1.1763092      0.042322803   -1.0582446     -0.0082535592 
   2530000   0.048932462   -1.1763048      0.043021075   -1.0599323     -0.0127508    
   2531000   0.04974511    -1.1770295      0.044895362   -1.0575646     -0.015645873  
   2532000   0.049843297   -1.176701       0.044330023   -1.0576542     -0.0098225653 
   2533000   0.050319401   -1.1759964      0.043351962   -1.0572141     -0.0039467527 
   2534000   0.049725849   -1.1781744      0.043145728   -1.060488      -0.010762815  
   2535000   0.050695684   -1.1773294      0.042834724   -1.0585002     -0.0043959735 
   2536000   0.050486305   -1.1760279      0.044092164   -1.0562551     -0.0036817422 
   2537000   0.05017073    -1.1778158      0.04377046    -1.0588378     -0.015340256  
   2538000   0.049725728   -1.1775735      0.043970273   -1.0590627     -0.012657581  
   2539000   0.049832908   -1.1782024      0.044103708   -1.0593976     -0.018287424  
   2540000   0.050444315   -1.1771745      0.043249938   -1.0583069     -0.011106991  
   2541000   0.049433019   -1.1762501      0.043797605   -1.0583508     -0.013283907  
   2542000   0.051509481   -1.1767906      0.043293146   -1.056283      -0.012439993  
   2543000   0.048833177   -1.1773244      0.045379055   -1.0587429     -0.015435484  
   2544000   0.049589748   -1.1772691      0.043243852   -1.0596886     -0.0094335321 
   2545000   0.05041942    -1.1785416      0.042430537   -1.0605307     -0.0045402403 
   2546000   0.048304398   -1.1774383      0.04377157    -1.0612568     -0.0073779833 
   2547000   0.049961542   -1.1762938      0.041881416   -1.0595184     -0.0095359515 
   2548000   0.050103198   -1.1784696      0.044124306   -1.059239      -0.0067771869 
   2549000   0.050743389   -1.1763952      0.040930815   -1.0593984     -0.0082447283 
   2550000   0.050573502   -1.1776611      0.044690598   -1.0571592     -0.0079886059 
   2551000   0.050851841   -1.1770746      0.045163677   -1.0556824     -0.014538822  
   2552000   0.050325702   -1.1758012      0.042544278   -1.0578171     -0.0038406908 
   2553000   0.050311652   -1.1764557      0.043430459   -1.0576064     -0.0035380648 
   2554000   0.050249865   -1.1780645      0.044758539   -1.0579798     -0.017425096  
   2555000   0.050204583   -1.1758944      0.042164609   -1.0584715     -0.014034604  
   2556000   0.048589765   -1.1780379      0.044972986   -1.0602273     -0.0095059896 
   2557000   0.04858942    -1.1762657      0.044493138   -1.0589355     -0.005511762  
   2558000   0.049057042   -1.1782589      0.043828537   -1.0608923     -0.010884095  
   2559000   0.048746024   -1.1767841      0.04474072    -1.0589715     -0.0056466983 
   2560000   0.049035035   -1.1767686      0.045011      -1.0582525     -0.0071545298 
   2561000   0.048207954   -1.1769405      0.044810377   -1.0598648     -0.020143356  
   2562000   0.04991066    -1.1769065      0.043479818   -1.058609      -0.0040363583 
   2563000   0.050199788   -1.178043       0.042263702   -1.0605282     -0.0093702469 
   2564000   0.050896981   -1.176461       0.0435918     -1.056573      -0.015804487  
   2565000   0.051318993   -1.1767703      0.045770691   -1.0540708     -0.0079659435 
   2566000   0.049923368   -1.1793974      0.046186273   -1.0583744     -0.019333958  
   2567000   0.04767511    -1.177202       0.043468905   -1.0622666     -0.021876778  
   2568000   0.049597881   -1.1762198      0.043104506   -1.0587665     -0.0078260182 
   2569000   0.048707763   -1.1761001      0.043459284   -1.0596263     -0.01480558   
   2570000   0.050061527   -1.1757856      0.042736939   -1.0580048     -0.012954368  
   2571000   0.049346118   -1.1787277      0.045396279   -1.05936       -0.01490341   
   2572000   0.049725599   -1.1759266      0.041781138   -1.0596052     -0.0077752089 
   2573000   0.049650461   -1.1783883      0.043237708   -1.0607229     -0.018065122  
   2574000   0.050757959   -1.1771307      0.042843494   -1.0581994     -0.010044412  
   2575000   0.051360192   -1.177467       0.042647064   -1.0578294     -0.01011151   
   2576000   0.051358704   -1.1772809      0.045604996   -1.0546875     -0.015474692  
   2577000   0.051739384   -1.1757213      0.044375625   -1.0537866     -0.0046800698 
   2578000   0.052332026   -1.178051       0.043168095   -1.0564355     -0.0051568347 
   2579000   0.051703482   -1.1769059      0.044862844   -1.0545378     -0.012504181  
   2580000   0.051362137   -1.1749483      0.042557409   -1.0553974     -0.016077727  
   2581000   0.050239799   -1.1772419      0.044484865   -1.0574459     -0.012473484  
   2582000   0.048826308   -1.1758024      0.043742104   -1.0588681     -0.014881813  
   2583000   0.050566279   -1.1777806      0.043408175   -1.0585719     -0.014241137  
   2584000   0.04986299    -1.1785121      0.043823154   -1.0599427      0.0013446076 
   2585000   0.049209431   -1.1758631      0.041783983   -1.0603126     -0.0052916472 
   2586000   0.050638071   -1.1772888      0.043833743   -1.0575469     -0.0081219409 
   2587000   0.050856776   -1.1768406      0.041331598   -1.059273      -0.005717766  
   2588000   0.049560097   -1.176328       0.04319261    -1.0588432     -0.00052925842
   2589000   0.050192619   -1.1769033      0.043630812   -1.0580321     -0.010113469  
   2590000   0.050115186   -1.1766287      0.042642384   -1.058862      -0.0020290752 
   2591000   0.050091378   -1.1764276      0.043128233   -1.0582108     -0.0083764372 
   2592000   0.048797063   -1.1760721      0.042147615   -1.0607761     -0.012168696  
   2593000   0.050300779   -1.17703        0.043575137   -1.0580524     -0.0007823822 
   2594000   0.050126803   -1.1787042      0.045198346   -1.0583642     -0.0069992215 
   2595000   0.051433939   -1.1762257      0.043339658   -1.0557849      0.0015089856 
   2596000   0.051367054   -1.1770375      0.043099839   -1.0569368     -0.0076569804 
   2597000   0.049693083   -1.1774823      0.044571719   -1.058419      -0.0099097643 
   2598000   0.048760274   -1.1779324      0.045138385   -1.0597008     -0.018179803  
   2599000   0.049738586   -1.1773264      0.045496651   -1.05727       -0.0076877501 
   2600000   0.048644071   -1.176605       0.044098822   -1.0595872     -0.010484906  
   2601000   0.049718775   -1.1778733      0.043572405   -1.0597708     -0.013271135  
   2602000   0.05157762    -1.1769674      0.041907662   -1.0577432     -0.0072086034 
   2603000   0.051636433   -1.1774848      0.042848263   -1.0572319     -0.0021981884 
   2604000   0.050811758   -1.1769248      0.044329941   -1.0564264     -0.014545503  
   2605000   0.048508778   -1.1757016      0.042095042   -1.0608903     -0.0089600372 
   2606000   0.049141496   -1.1764981      0.043359338   -1.0594741      0.0009208482 
   2607000   0.050183712   -1.1760338      0.041579605   -1.0592272     -0.012311473  
   2608000   0.049233654   -1.1761074      0.043994305   -1.0583103     -0.01016863   
   2609000   0.050680237   -1.1771063      0.042764879   -1.0583701     -0.011347927  
   2610000   0.050563344   -1.1780001      0.045038006   -1.057166      -0.0071926397 
   2611000   0.04936559    -1.1769928      0.044048126   -1.0589441     -0.011842445  
   2612000   0.050965298   -1.1761938      0.041957946   -1.0578372     -0.00096533809
   2613000   0.050169063   -1.1773245      0.043153395   -1.058966      -0.0030316415 
   2614000   0.050548328   -1.178279       0.043017698   -1.0594877     -0.018766005  
   2615000   0.050069018   -1.1773047      0.042026053   -1.0602235     -0.0048309272 
   2616000   0.048789542   -1.1775046      0.04392356    -1.060444      -0.0074894333 
   2617000   0.049135379   -1.1768913      0.0438611     -1.0593746     -0.010758578  
   2618000   0.049484365   -1.1777785      0.044322199   -1.0592777     -0.00255273   
   2619000   0.050157068   -1.1769773      0.042576193   -1.0592141     -0.012473804  
   2620000   0.050798158   -1.1763928      0.04105529    -1.0591895     -0.013083459  
   2621000   0.049688555   -1.1768324      0.045433659   -1.056914      -0.0067333029 
   2622000   0.052107992   -1.1773781      0.045129978   -1.0541365     -0.0065552322 
   2623000   0.049661274   -1.1760151      0.042939856   -1.0586314     -0.0044061676 
   2624000   0.05049705    -1.1779744      0.044198473   -1.0580793     -0.017022595  
   2625000   0.048877553   -1.1751942      0.043772616   -1.0581526     -0.012213597  
   2626000   0.049217896   -1.1773852      0.043754244   -1.0598517     -0.006908273  
   2627000   0.050019174   -1.1764054      0.04225075    -1.0591742     -0.013394599  
   2628000   0.049887018   -1.1768285      0.043198704   -1.0588475     -0.01162785   
   2629000   0.049363456   -1.1779661      0.043306017   -1.0606627     -0.013461225  
   2630000   0.049184709   -1.1773478      0.042992061   -1.0606262     -0.014617077  
   2631000   0.050606847   -1.1778586      0.04480863    -1.0571887     -0.011379803  
   2632000   0.050065687   -1.1767826      0.044088823   -1.0576437     -0.019909974  
   2633000   0.050726403   -1.1781471      0.043981888   -1.0581247     -0.0049277146 
   2634000   0.050610477   -1.177081       0.044189385   -1.0570249     -0.014070824  
   2635000   0.049202098   -1.1763342      0.04581651    -1.0567621     -0.017337992  
   2636000   0.050324882   -1.1785321      0.044019909   -1.0590736     -0.010636725  
   2637000   0.05249184    -1.1779723      0.044035689   -1.0552497     -0.013218965  
   2638000   0.051578276   -1.1789658      0.043516854   -1.0581315     -0.014352902  
   2639000   0.051067582   -1.1789768      0.042105959   -1.0603189     -0.0062696879 
   2640000   0.050609133   -1.1775588      0.044261479   -1.0574326     -0.0075051918 
   2641000   0.05016652    -1.1773465      0.043782206   -1.0583631     -0.0029446197 
   2642000   0.049951204   -1.1796217      0.043925297   -1.060818      -0.021998016  
   2643000   0.051739807   -1.1791477      0.042445054   -1.059143      -0.0096523761 
   2644000   0.051039533   -1.1778664      0.041375941   -1.0599805     -0.010858493  
   2645000   0.048792784   -1.1800436      0.044639178   -1.0622625     -0.016335868  
   2646000   0.049760969   -1.1799183      0.044402858   -1.0609221     -0.012937574  
   2647000   0.050603582   -1.1789665      0.043728187   -1.0593819     -0.01119556   
   2648000   0.049795175   -1.1794594      0.042633997   -1.0621808     -0.0052583448 
   2649000   0.05047058    -1.180569       0.043402822   -1.0615091     -0.009818796  
   2650000   0.050569796   -1.1787118      0.042251472   -1.0606546     -0.0099054564 
   2651000   0.0504142     -1.1803706      0.044665122   -1.060133      -0.0032962975 
   2652000   0.050347908   -1.1804111      0.043355344   -1.0615826     -0.012560041  
   2653000   0.049757011   -1.1801896      0.043687916   -1.0619143     -0.02934249   
   2654000   0.048532226   -1.179867       0.042097179   -1.0650185     -0.014066123  
   2655000   0.050653526   -1.179883       0.044282288   -1.0596695     -0.0036311476 
   2656000   0.049154612   -1.1800513      0.043883612   -1.0624833     -0.010839738  
   2657000   0.049379333   -1.1790208      0.04199139    -1.0630081     -0.016363545  
   2658000   0.04894255    -1.1804409      0.042479709   -1.0645947     -0.019478447  
   2659000   0.049124792   -1.1801207      0.042210511   -1.0642705     -0.0082350705 
   2660000   0.050454271   -1.1818443      0.044821921   -1.0613898     -0.0094927285 
   2661000   0.051265434   -1.179762       0.045258673   -1.0576548     -0.0026572348 
   2662000   0.050030158   -1.1796541      0.044028639   -1.0606287     -0.0096051983 
   2663000   0.051981267   -1.1798958      0.044440766   -1.0575335     -0.014861417  
   2664000   0.050077038   -1.1788525      0.046390496   -1.0573949     -0.0071229713 
   2665000   0.050692437   -1.1790977      0.044326013   -1.0587821     -0.005593382  
   2666000   0.050595398   -1.1789719      0.044155045   -1.0589727     -0.010517911  
   2667000   0.048846085   -1.1789058      0.042224236   -1.0634597     -0.018102527  
   2668000   0.05055814    -1.1796732      0.040692852   -1.063192       0.0038307896 
   2669000   0.04838242    -1.1799012      0.044192003   -1.0631824     -0.010948681  
   2670000   0.051190163   -1.1800313      0.042633991   -1.0606616     -0.0088395146 
   2671000   0.050140532   -1.1790098      0.043833697   -1.0600138     -0.0069382028 
   2672000   0.051490389   -1.1799056      0.045085687   -1.0576341     -0.014520252  
   2673000   0.049676078   -1.1782439      0.042255381   -1.0615224     -0.015340535  
   2674000   0.049695062   -1.1801049      0.043851315   -1.0617591     -0.003020981  
   2675000   0.047787237   -1.1797697      0.042741121   -1.065394       0.0011205647 
   2676000   0.050340412   -1.1791855      0.042506477   -1.0612172     -0.0095742728 
   2677000   0.050187684   -1.1791225      0.042568963   -1.0613205     -0.00087370521
   2678000   0.050890034   -1.180498       0.043921287   -1.060291      -0.018639262  
   2679000   0.04893428    -1.1805564      0.042624253   -1.0645781     -0.0030964086 
   2680000   0.049959157   -1.1778251      0.043142226   -1.0597925     -0.0052511888 
   2681000   0.049342106   -1.1803498      0.042383644   -1.0640008     -0.014319732  
   2682000   0.048367154   -1.1803227      0.04594187    -1.0618769      0.0033433656 
   2683000   0.050151094   -1.181266       0.042973944   -1.063114      -0.002991193  
   2684000   0.050374318   -1.17973        0.042340831   -1.0618765     -0.0034980541 
   2685000   0.050307564   -1.1803248      0.043891257   -1.0610209     -0.0077385248 
   2686000   0.050078381   -1.1796574      0.043227271   -1.061361      -0.0079439187 
   2687000   0.051632621   -1.1797274      0.043387462   -1.058941       0.0021403459 
   2688000   0.050210624   -1.1803005      0.044175925   -1.0608572     -0.017211549  
   2689000   0.052863448   -1.1782056      0.043164063   -1.0557975     -0.0069460435 
   2690000   0.050255684   -1.1792739      0.044030062   -1.0599089     -0.008470896  
   2691000   0.050461168   -1.1797687      0.045824236   -1.0583016     -0.023369553  
   2692000   0.050747894   -1.1787835      0.042298636   -1.0604122     -0.0042402341 
   2693000   0.049750913   -1.1799913      0.043055048   -1.062358      -0.010050228  
   2694000   0.050926983   -1.1800587      0.041451379   -1.0622661     -0.0029088299 
   2695000   0.050547872   -1.1793377      0.044926992   -1.0586379     -0.0073324378 
   2696000   0.051070359   -1.1791192      0.045155734   -1.0574074     -0.020159259  
   2697000   0.052058452   -1.1795726      0.043651104   -1.0578842     -0.0017634032 
   2698000   0.050143466   -1.1800727      0.042818749   -1.0620873     -0.0037955851 
   2699000   0.049780188   -1.1786454      0.043302492   -1.0607208      0.001753456  
   2700000   0.049065926   -1.1790353      0.043003396   -1.0624805     -0.0041380352 
   2701000   0.0512571     -1.1796787      0.041555433   -1.0612872     -0.0050660327 
   2702000   0.050326916   -1.1800556      0.044742919   -1.059871      -0.0080803627 
   2703000   0.050516104   -1.1804746      0.044338103   -1.0604113     -0.0082844855 
   2704000   0.051066569   -1.1806688      0.043014645   -1.0611037     -0.0095073064 
   2705000   0.04882673    -1.1787356      0.04231245    -1.0632303     -0.013603832  
   2706000   0.050503758   -1.1792273      0.044827232   -1.0586933     -0.018823872  
   2707000   0.051100099   -1.1787182      0.044649752   -1.0574677     -0.0029789374 
   2708000   0.050500172   -1.1796746      0.044252878   -1.0597203     -1.6436455e-05
   2709000   0.050725311   -1.1790403      0.04367067    -1.0593308     -0.0051083926 
   2710000   0.050488187   -1.1801552      0.043906968   -1.0605648      0.0029136281 
   2711000   0.047147736   -1.1807794      0.045707657   -1.0643958     -0.01365931   
   2712000   0.049698236   -1.1800856      0.043605789   -1.0619805     -0.01102601   
   2713000   0.04970812    -1.1805352      0.043481193   -1.0625399     -0.0097396283 
   2714000   0.050716842   -1.1794634      0.040436282   -1.0630009     -0.0068009986 
   2715000   0.05023421    -1.1798857      0.043663813   -1.0609192     -0.016104955  
   2716000   0.050733571   -1.1784311      0.042815203   -1.0595646     -0.0091678755 
   2717000   0.049688865   -1.1801765      0.045193335   -1.060498      -0.014988693  
   2718000   0.050754471   -1.1787262      0.042403618   -1.06024       -0.0040452378 
   2719000   0.051226114   -1.1803957      0.044027063   -1.059579      -0.014168172  
   2720000   0.049400736   -1.1800585      0.044277743   -1.0617275     -0.012869431  
   2721000   0.051911878   -1.1807443      0.04364822    -1.0592784     -0.0086006408 
   2722000   0.052395063   -1.1786062      0.040817324   -1.059247      -0.0028430591 
   2723000   0.051068104   -1.180613       0.042804063   -1.0612562     -0.0058236604 
   2724000   0.048640785   -1.1797234      0.041889347   -1.06492       -0.00065154598
   2725000   0.04875315    -1.1787484      0.042440279   -1.0632256     -0.018028095  
   2726000   0.049853265   -1.1787253      0.042118746   -1.0618749     -0.00092455193
   2727000   0.05053218    -1.1806576      0.044209453   -1.0606988     -0.0042713681 
   2728000   0.050309256   -1.1790756      0.043403449   -1.060257      -0.0099667231 
   2729000   0.04904397    -1.1776707      0.04299208    -1.0611602     -0.0067534946 
   2730000   0.050373524   -1.1789002      0.042479242   -1.0609094     -0.0092630383 
   2731000   0.051375279   -1.180357       0.044323714   -1.0590201     -0.015681684  
   2732000   0.050657254   -1.1797672      0.044858641   -1.0589717     -0.0065942939 
   2733000   0.05009163    -1.1819532      0.045287174   -1.0615771     -0.018630559  
   2734000   0.050156524   -1.1796844      0.044532776   -1.0599654     -0.018163167  
   2735000   0.051041729   -1.1791767      0.044364791   -1.0582987     -0.0061311435 
   2736000   0.049866123   -1.179874       0.04278427    -1.0623388     -0.0058525793 
   2737000   0.049854955   -1.1790521      0.044651677   -1.0596662     -0.013912548  
   2738000   0.048559051   -1.1794744      0.044049144   -1.0626336     -0.011165737  
   2739000   0.049479271   -1.179869       0.042983049   -1.0627149     -0.0080534775 
   2740000   0.052083156   -1.1815912      0.045748373   -1.0577685     -0.012622569  
   2741000   0.052172912   -1.1775971      0.04178688    -1.0576013     -0.0073798563 
   2742000   0.05010009    -1.1796128      0.044148752   -1.0603624     -0.015412949  
   2743000   0.051020601   -1.1791555      0.043624156   -1.0590499     -0.0076719802 
   2744000   0.049661445   -1.1791739      0.044340664   -1.0603892     -0.012501059  
   2745000   0.04925964    -1.1789249      0.042686631   -1.0623965     -0.0061055943 
   2746000   0.049609579   -1.1803596      0.043405485   -1.0625878     -0.0056661774 
   2747000   0.050190911   -1.1785068      0.043493145   -1.0597759     -0.0059821424 
   2748000   0.050301255   -1.178784       0.042497973   -1.0608829     -0.0039523913 
   2749000   0.048019847   -1.1781141      0.044612288   -1.0615185     -0.016094021  
   2750000   0.050897982   -1.1798931      0.041665038   -1.0619303     -0.0046142347 
   2751000   0.049075378   -1.1809568      0.042592908   -1.0647984     -0.018488751  
   2752000   0.049518962   -1.1789856      0.041931851   -1.0628232     -0.01076405   
   2753000   0.05015285    -1.1797306      0.04320129    -1.0613486     -0.0021548926 
   2754000   0.050112146   -1.1812699      0.04530489    -1.0608452     -0.0085166591 
   2755000   0.049743463   -1.17953        0.042639853   -1.0623231     -0.0036084339 
   2756000   0.04950699    -1.1801546      0.042799075   -1.063143      -0.0073155726 
   2757000   0.049801552   -1.1802803      0.045299692   -1.0603264     -0.0034853178 
   2758000   0.051199625   -1.1805048      0.045173361   -1.0585815     -0.003238138  
   2759000   0.051028694   -1.1794961      0.042742832   -1.0602596     -0.006950483  
   2760000   0.050368589   -1.1792731      0.043158539   -1.0606105     -0.0043381462 
   2761000   0.049895928   -1.1794899      0.042261592   -1.0624327     -0.0054883734 
   2762000   0.050637789   -1.1788598      0.043415104   -1.059537      -0.0035802999 
   2763000   0.047764459   -1.179788       0.04329123    -1.0648963     -0.0026809355 
   2764000   0.048751501   -1.1810123      0.046543453   -1.0613888     -0.01647277   
   2765000   0.050603551   -1.1791536      0.042678014   -1.0606192     -0.014062569  
   2766000   0.049307397   -1.1793768      0.044639559   -1.0608239     -0.012327496  
   2767000   0.048148763   -1.1796478      0.04350922    -1.0639621     -0.0099590706 
   2768000   0.05117334    -1.1798928      0.042333085   -1.0608493     -0.0054556146 
   2769000   0.049472377   -1.1797178      0.043836194   -1.0617209     -0.014050404  
   2770000   0.052483592   -1.1792933      0.043879463   -1.0567392     -0.0087362092 
   2771000   0.049675701   -1.1794437      0.042949204   -1.062029      -0.006603463  
   2772000   0.049781498   -1.180427       0.044490638   -1.0613123     -0.0018047007 
   2773000   0.051425648   -1.179526       0.041312384   -1.0611249      0.001412797  
   2774000   0.050064002   -1.1807142      0.04143388    -1.0642328     -0.0080097926 
   2775000   0.046493037   -1.180282       0.042120992   -1.0684665     -0.0048459769 
   2776000   0.048364406   -1.1815634      0.042969463   -1.0660941     -0.006272602  
   2777000   0.048954063   -1.1805303      0.042247875   -1.0648987     -0.0096314754 
   2778000   0.05038819    -1.1793975      0.043800248   -1.0600637     -0.015685726  
   2779000   0.049723947   -1.1796588      0.042803192   -1.0623178     -0.0013031012 
   2780000   0.04899406    -1.178349       0.042690656   -1.0622147     -0.0073546947 
   2781000   0.051143789   -1.1784617      0.041217      -1.0605785     -0.00084952384
   2782000   0.050803987   -1.1789046      0.043620433   -1.0591273     -0.009696882  
   2783000   0.051512745   -1.1812404      0.042296105   -1.061725      -0.011022611  
   2784000   0.048669763   -1.1796638      0.044116044   -1.0625902     -0.0017856832 
   2785000   0.049754791   -1.1801677      0.04397349    -1.0616101     -0.0083946409 
   2786000   0.048079739   -1.1790151      0.044170261   -1.0627717     -0.0071874379 
   2787000   0.0491913     -1.1801871      0.043733928   -1.0627138     -0.010105969  
   2788000   0.049028385   -1.1793596      0.04373748    -1.0621269     -0.010660839  
   2789000   0.051020143   -1.1807164      0.043621394   -1.0606142     -0.0053585374 
   2790000   0.049376438   -1.1805222      0.044624716   -1.0618806     -0.017772243  
   2791000   0.049573511   -1.1805745      0.045242888   -1.0610193     -0.015120865  
   2792000   0.050038433   -1.1800754      0.04479568    -1.0602705     -0.0085053498 
   2793000   0.04984345    -1.1792013      0.044440536   -1.0600438     -0.018386718  
   2794000   0.049924461   -1.1783075      0.043319036   -1.0601501     -0.0085289705 
   2795000   0.050752541   -1.1804433      0.043229303   -1.0611343     -0.0047376041 
   2796000   0.049654626   -1.1805011      0.044999995   -1.0610672     -0.011653017  
   2797000   0.05064664    -1.1799973      0.044356393   -1.0597199     -0.0028651684 
   2798000   0.050240891   -1.1804471      0.045138545   -1.0599958      0.0010285365 
   2799000   0.050391342   -1.1804709      0.044636039   -1.0602967     -0.011911721  
   2800000   0.049511174   -1.1804858      0.042285463   -1.0639815     -0.0049231499 
   2801000   0.049263046   -1.1785214      0.042096019   -1.0625785     -0.0058357616 
   2802000   0.050965115   -1.1795128      0.042225806   -1.0608887     -0.01590734   
   2803000   0.050070095   -1.1797584      0.044543235   -1.0601585     -0.00237803   
   2804000   0.048454763   -1.1796869      0.042989818   -1.0640618      0.00088695607
   2805000   0.049080538   -1.1802122      0.043569861   -1.063069      -0.014485932  
   2806000   0.05062893    -1.1798279      0.044511365   -1.0594221     -0.010602645  
   2807000   0.051327754   -1.1792579      0.041183004   -1.0611329      0.0028506662 
   2808000   0.049198461   -1.1779         0.041615607   -1.0625344     -0.01306915   
   2809000   0.051814622   -1.1801901      0.043171705   -1.0593466     -0.0072488613 
   2810000   0.050807035   -1.1788912      0.041446758   -1.061283      -0.0092419397 
   2811000   0.050204362   -1.1781757      0.043071962   -1.0598458     -0.00085014029
   2812000   0.050979536   -1.1802008      0.043324618   -1.0604562     -0.0098762082 
   2813000   0.05170041    -1.1802564      0.043250358   -1.0595055     -0.0041400117 
   2814000   0.052236764   -1.1809127      0.044057308   -1.0585508     -0.0049672971 
   2815000   0.049433881   -1.1796145      0.041990827   -1.0635206     -0.0054294413 
   2816000   0.050335007   -1.1808431      0.042952102   -1.0624372     -0.0026826898 
   2817000   0.048316939   -1.1799442      0.043896064   -1.0636195     -0.0080123082 
   2818000   0.05153935    -1.1798359      0.041074367   -1.0615024     -0.0083897672 
   2819000   0.049708872   -1.1782575      0.042915713   -1.0608266     -0.011236721  
   2820000   0.049862211   -1.1794974      0.042209245   -1.0625431     -0.0024689365 
   2821000   0.051669436   -1.178711       0.044304921   -1.0569519     -0.0086665061 
   2822000   0.050191033   -1.1797491      0.042106526   -1.0624046     -0.0014667164 
   2823000   0.050766504   -1.1802953      0.044280259   -1.0599144     -0.012344595  
   2824000   0.050184146   -1.1783451      0.042152305   -1.0609651     -0.0087507611 
   2825000   0.049945368   -1.1789837      0.041497648   -1.0626163     -0.0058911124 
   2826000   0.051303905   -1.1804306      0.042974729   -1.0605497     -0.0071379336 
   2827000   0.050729667   -1.1800148      0.04354906    -1.0604203     -0.012315098  
   2828000   0.049735467   -1.1793976      0.042765103   -1.0620775     -0.0086246814 
   2829000   0.050826397   -1.1798259      0.043808936   -1.0598265     -0.015589501  
   2830000   0.049762978   -1.179291       0.044493435   -1.0602012     -0.0056458076 
   2831000   0.050400725   -1.1795868      0.044399      -1.0596355     -0.0056566107 
   2832000   0.051343094   -1.1784175      0.042204069   -1.0592485     -0.0043998982 
   2833000   0.049257456   -1.178631       0.044329602   -1.0604629     -0.0017169988 
   2834000   0.049906293   -1.1781877      0.043265017   -1.0601116     -0.0014181659 
   2835000   0.048019034   -1.17974        0.045123344   -1.0626345     -0.010144108  
   2836000   0.050672139   -1.1797706      0.043687528   -1.0601239     -0.0075302408 
   2837000   0.050831607   -1.1806525      0.044084234   -1.06037       -0.0014486325 
   2838000   0.049750986   -1.178682       0.0432414     -1.0608623     -0.0032345617 
   2839000   0.050345092   -1.1786786      0.043213565   -1.0599961     -0.014844077  
   2840000   0.049639688   -1.1786534      0.043451838   -1.06079       -0.012197823  
   2841000   0.051968649   -1.1799282      0.04348687    -1.0585387     -0.0093339472 
   2842000   0.049403117   -1.1784637      0.044518236   -1.0598886     -0.0071735309 
   2843000   0.050353327   -1.1794338      0.044798896   -1.0591537     -0.0088506007 
   2844000   0.05169758    -1.1798496      0.043411242   -1.058942      -0.010144316  
   2845000   0.049486031   -1.180131       0.044500886   -1.061449      -0.011261926  
   2846000   0.050555129   -1.1797832      0.042593441   -1.061406      -0.0085979184 
   2847000   0.050105744   -1.1792236      0.044168352   -1.0599451     -0.0096151574 
   2848000   0.049566226   -1.1812348      0.04394719    -1.0629862     -0.01026107   
   2849000   0.05063723    -1.1799297      0.043127288   -1.0608956     -0.013290686  
   2850000   0.048901278   -1.1785806      0.042935638   -1.0623404     -0.015958835  
   2851000   0.051118517   -1.1805812      0.044015626   -1.0599373     -0.010583335  
   2852000   0.049857616   -1.1792491      0.042819479   -1.0616914     -0.0042997034 
   2853000   0.049311904   -1.1791855      0.045180984   -1.0600844     -0.0072820487 
   2854000   0.049031901   -1.1810394      0.044395435   -1.0631435     -0.0020745191 
   2855000   0.050948594   -1.1795245      0.043472184   -1.0596787     -0.012658243  
   2856000   0.049589506   -1.1806625      0.042795464   -1.0635307     -0.00096978086
   2857000   0.051943917   -1.1787669      0.045202721   -1.0556986     -0.0094205019 
   2858000   0.048929433   -1.1793071      0.044593616   -1.0613667     -0.0051657376 
   2859000   0.053252093   -1.1804537      0.042240731   -1.0583863     -0.0098326578 
   2860000   0.050202644   -1.179564       0.045151836   -1.0591568     -0.015523811  
   2861000   0.050172158   -1.1805875      0.045129823   -1.060248      -0.020030564  
   2862000   0.050804578   -1.1801091      0.043808218   -1.0601432     -0.012696478  
   2863000   0.049278119   -1.1795644      0.045699728   -1.0599952     -0.00071644158
   2864000   0.050798348   -1.1797841      0.043091234   -1.0605446     -0.0092585235 
   2865000   0.050818896   -1.1810439      0.04585415    -1.0590106     -0.011657814  
   2866000   0.051543221   -1.1804108      0.044084297   -1.0590616     -0.014690564  
   2867000   0.050761379   -1.1790903      0.041447894   -1.0615495     -0.0024321133 
   2868000   0.048770337   -1.1792284      0.043785287   -1.0623348     -0.0091428192 
   2869000   0.049806637   -1.1797032      0.043458295   -1.0615831     -0.0031995954 
   2870000   0.049281638   -1.1808036      0.043587447   -1.0633414     -0.019369787  
   2871000   0.048485083   -1.1803459      0.041325945   -1.0663392     -0.0044345589 
   2872000   0.049066849   -1.1787105      0.043504662   -1.061653      -0.0048396045 
   2873000   0.04838068    -1.1805678      0.043886115   -1.0641574     -0.013454941  
   2874000   0.049543142   -1.1808332      0.041851672   -1.0647147     -0.0101584    
   2875000   0.049236621   -1.1807721      0.045587412   -1.0613774     -0.0093584464 
   2876000   0.051059282   -1.1783343      0.043567372   -1.0582274     -0.013399409  
   2877000   0.052006072   -1.1787606      0.042278471   -1.0585234     -0.0014864381 
   2878000   0.051562147   -1.1782537      0.045064714   -1.0558957     -0.009655863  
   2879000   0.049204321   -1.178307       0.041269437   -1.0632786     -0.011759202  
   2880000   0.051247132   -1.1807245      0.043799917   -1.0601035     -0.0059436908 
   2881000   0.049906226   -1.1784672      0.041683392   -1.0619727      0.0013829192 
   2882000   0.050437923   -1.1800296      0.044016192   -1.0604053     -0.007810813  
   2883000   0.049396733   -1.1797641      0.043892377   -1.0618244     -0.0079554959 
   2884000   0.053382514   -1.1817112      0.044706138   -1.0569829     -0.0042876675 
   2885000   0.049009487   -1.1827174      0.043698076   -1.0655525     -0.005842348  
   2886000   0.051228671   -1.1842039      0.044499115   -1.0629114     -0.0076385467 
   2887000   0.049996086   -1.1845442      0.044854315   -1.0647441     -0.0095408732 
   2888000   0.049951504   -1.1819074      0.043090494   -1.063938      -0.0026870522 
   2889000   0.04898519    -1.1839729      0.041386559   -1.069156      -0.0052259505 
   2890000   0.049504368   -1.1837995      0.045239361   -1.0643515     -0.017062258  
   2891000   0.050004429   -1.1844857      0.04424908    -1.0652783     -0.0036105018 
   2892000   0.050585082   -1.1824983      0.043701805   -1.0629679     -0.014892267  
   2893000   0.050923573   -1.1824875      0.044443352   -1.0617081     -0.0049930968 
   2894000   0.049005834   -1.1841869      0.044335584   -1.06639       -0.0033750932 
   2895000   0.050939137   -1.1824556      0.044209805   -1.0618864     -0.0094748586 
   2896000   0.048669203   -1.1814429      0.042083007   -1.0664032     -0.011568524  
   2897000   0.047534519   -1.1820442      0.043258397   -1.0675301     -0.0058823697 
   2898000   0.04966602    -1.1833536      0.043389321   -1.0655133     -0.0056961552 
   2899000   0.050241482   -1.1823655      0.043097441   -1.0639545     -0.0065723265 
   2900000   0.051157395   -1.182884       0.042689708   -1.0635077     -0.0091999171 
   2901000   0.050201076   -1.1833857      0.044489712   -1.063643      -0.0078347391 
   2902000   0.052863366   -1.182766       0.042411748   -1.0611103     -0.00012089098
   2903000   0.049527793   -1.1838094      0.045236855   -1.0643288     -0.01182465   
   2904000   0.048873234   -1.1824639      0.043268372   -1.0659329     -0.0094631694 
   2905000   0.050891642   -1.1839218      0.04475315    -1.0628804     -0.018663164  
   2906000   0.049488839   -1.181984       0.044735869   -1.0630627     -0.010498171  
   2907000   0.051740036   -1.1827663      0.044635498   -1.0605708     -0.0092900683 
   2908000   0.050674812   -1.1825679      0.044650493   -1.0619543     -0.0051149127 
   2909000   0.050153589   -1.1830172      0.042774448   -1.0650609     -0.012302219  
   2910000   0.051319259   -1.1832352      0.045094818   -1.0612112     -0.0063280763 
   2911000   0.051627812   -1.1835062      0.042724125   -1.0633903     -0.006206772  
   2912000   0.052119012   -1.1832561      0.043120902   -1.0620071     -0.0039009217 
   2913000   0.049733585   -1.1821615      0.044202645   -1.0634066     -0.011552197  
   2914000   0.049467073   -1.1823011      0.045003412   -1.063145      -0.0054128285 
   2915000   0.049259897   -1.1831964      0.044147087   -1.0652071     -0.011931175  
   2916000   0.048815056   -1.182843       0.046255081   -1.0634126     -0.01290497   
   2917000   0.051084307   -1.1829244      0.043387711   -1.0629596     -0.0010264324 
   2918000   0.049148706   -1.183155       0.043573874   -1.0659056     -0.010460108  
   2919000   0.048619491   -1.1839668      0.042923321   -1.0681613     -0.0096622788 
   2920000   0.049454726   -1.1837982      0.044686854   -1.0649771     -0.019463319  
   2921000   0.049840353   -1.1824023      0.043505365   -1.0641847     -0.011670498  
   2922000   0.050201717   -1.1831687      0.043813896   -1.0641009     -0.0059748811 
   2923000   0.050165498   -1.1825119      0.04317484    -1.0641374      0.0026039909 
   2924000   0.051614771   -1.1844394      0.044097544   -1.0629696     -0.0091657976 
   2925000   0.04943019    -1.1823041      0.045545176   -1.0626614     -0.016354659  
   2926000   0.049128584   -1.1851009      0.043340109   -1.0681155     -0.0099621558 
   2927000   0.049220417   -1.1824963      0.04176558    -1.0669477     -0.012570647  
   2928000   0.050060466   -1.1837732      0.042926239   -1.0658047      0.0011125045 
   2929000   0.049778971   -1.1847714      0.044943606   -1.0652075     -0.017312205  
   2930000   0.0503455     -1.185257       0.04299255    -1.0667949     -0.015099615  
   2931000   0.048337983   -1.1856188      0.043217257   -1.0699414     -0.0075127872 
   2932000   0.049776155   -1.1867548      0.046765814   -1.0653729     -0.01807237   
   2933000   0.048942823   -1.1848408      0.043216286   -1.0682576     -0.024779354  
   2934000   0.050770053   -1.1845668      0.043891597   -1.0645692     -0.011549712  
   2935000   0.050571552   -1.1849838      0.043846778   -1.0653287     -0.020069081  
   2936000   0.04961914    -1.183162       0.043262003   -1.0655193     -0.0081133887 
   2937000   0.049329727   -1.1844492      0.04414873    -1.0663536     -0.024670688  
   2938000   0.050586234   -1.1855629      0.045318421   -1.064414       0.003774045  
   2939000   0.050039689   -1.1850387      0.044934203   -1.0650934     -0.01395915   
   2940000   0.051597947   -1.1835201      0.044658379   -1.0615147     -0.0040897614 
   2941000   0.049947795   -1.1836046      0.043306099   -1.0654252     -0.0098797779 
   2942000   0.049799016   -1.1849088      0.043864289   -1.0663942     -0.0086331526 
   2943000   0.04975814    -1.1852615      0.043890926   -1.0667815     -0.0093211579 
   2944000   0.051243131   -1.1857918      0.042361593   -1.0666151     -0.012925407  
   2945000   0.048691253   -1.1852168      0.042135305   -1.0700917     -0.009445264  
   2946000   0.050002548   -1.1844913      0.0438413     -1.0656946     -0.013026903  
   2947000   0.052853603   -1.1841959      0.041064303   -1.0639023     -0.0070418299 
   2948000   0.049209568   -1.1833961      0.043481461   -1.0661479     -0.015375144  
   2949000   0.050657367   -1.1855236      0.04363509    -1.0659515     -0.0097197122 
   2950000   0.049517139   -1.185371       0.04499532    -1.0661479     -0.012027346  
   2951000   0.051252543   -1.1833862      0.044637396   -1.0619196     -0.0098606715 
   2952000   0.049425026   -1.184479       0.045118955   -1.0652703     -0.0033747197 
   2953000   0.048939625   -1.1846977      0.046341246   -1.0649944     -0.020297259  
   2954000   0.049198073   -1.1837024      0.04454523    -1.0654077     -0.013575574  
   2955000   0.049755697   -1.1842412      0.043613071   -1.0660427     -0.018803096  
   2956000   0.049692168   -1.1852407      0.045080411   -1.0656701     -0.014755786  
   2957000   0.04913647    -1.1847824      0.042280873   -1.0688444     -0.010828714  
   2958000   0.050311344   -1.1850098      0.044101882   -1.0654896     -0.015409421  
   2959000   0.05083468    -1.1860156      0.043345693   -1.0664671     -0.0013778762 
   2960000   0.050918998   -1.1835763      0.043314229   -1.0639329     -0.011152915  
   2961000   0.049711174   -1.1845819      0.041725199   -1.068338      -0.0062182867 
   2962000   0.049521983   -1.1848877      0.044190883   -1.0664618     -0.011863329  
   2963000   0.050687491   -1.1851235      0.042405857   -1.0667354     -0.025572493  
   2964000   0.049769865   -1.183651       0.046443101   -1.0626012     -0.016017972  
   2965000   0.050553829   -1.1839379      0.045319329   -1.0628368     -0.0080719774 
   2966000   0.050411722   -1.1838047      0.043820116   -1.0644158     -0.0102725    
   2967000   0.049677808   -1.1852495      0.045279148   -1.0655017     -0.0087359923 
   2968000   0.050689508   -1.1844795      0.045966038   -1.0625282     -0.006963     
   2969000   0.051598586   -1.1846646      0.045788964   -1.0615277     -0.017087387  
   2970000   0.050986989   -1.1841134      0.043669598   -1.0640126     -0.012835406  
   2971000   0.050816594   -1.1839722      0.042376995   -1.0654195     -0.0056698339 
   2972000   0.051096621   -1.1844755      0.04318515    -1.0646949     -0.0054957824 
   2973000   0.049304873   -1.1848704      0.043631311   -1.0673295     -0.0096224052 
   2974000   0.049216224   -1.1839679      0.04266231    -1.0675289     -0.010752104  
   2975000   0.050954819   -1.1865011      0.045174981   -1.0649432     -0.010678554  
   2976000   0.050947753   -1.1844775      0.042688731   -1.0654165     -0.010655087  
   2977000   0.051857095   -1.1841147      0.042077771   -1.0643015     -0.0038143276 
   2978000   0.051559161   -1.1837531      0.045183208   -1.061281      -0.015823903  
   2979000   0.05122315    -1.1826462      0.042713403   -1.0631476     -0.0047289958 
   2980000   0.048406771   -1.1844452      0.046862391   -1.0650195     -0.0045468592 
   2981000   0.048556647   -1.1850606      0.046316591   -1.0659561     -0.0045828705 
   2982000   0.049186618   -1.1836439      0.043746728   -1.0661649     -0.0013875659 
   2983000   0.051474452   -1.1827434      0.043534216   -1.0620473     -0.005068145  
   2984000   0.051079207   -1.1828908      0.044097583   -1.0622239     -0.017610504  
   2985000   0.051690322   -1.183832       0.043356317   -1.0629902     -0.01165274   
   2986000   0.052360536   -1.1846189      0.046201347   -1.0599275     -0.013171039  
   2987000   0.050573255   -1.1832958      0.045139722   -1.0623452     -0.0044006592 
   2988000   0.04900952    -1.1827551      0.043505448   -1.0657828     -0.010703951  
   2989000   0.048889733   -1.1853315      0.043480944   -1.0685633     -0.010294003  
   2990000   0.05053365    -1.186019       0.044389406   -1.065878      -0.006725102  
   2991000   0.049011962   -1.1844213      0.042770584   -1.0681802     -0.0070359632 
   2992000   0.051088914   -1.184799       0.043591938   -1.0646232     -0.0022334029 
   2993000   0.047848421   -1.1843894      0.042844706   -1.0698184     -0.0082809854 
   2994000   0.049630364   -1.1841878      0.043804239   -1.0659861     -0.017624999  
   2995000   0.05068369    -1.1846862      0.044729859   -1.0639798     -0.0090695389 
   2996000   0.051629774   -1.183671       0.044201913   -1.0620744     -0.017304522  
   2997000   0.051205657   -1.1850494      0.042365771   -1.0659247     -0.007500851  
   2998000   0.049785069   -1.184238       0.046177181   -1.0634313     -0.015223696  
   2999000   0.050195616   -1.1821809      0.043160463   -1.0637756     -0.011915788  
   3000000   0.048845885   -1.1855989      0.046982496   -1.0653949     -0.014085119  
   3001000   0.050688622   -1.1840319      0.042614897   -1.0654332     -0.00327791   
   3002000   0.05005022    -1.1844932      0.044083514   -1.0653828     -0.0053779475 
   3003000   0.04988637    -1.1847908      0.043685144   -1.0663244     -0.024205659  
   3004000   0.048659114   -1.185066       0.045125232   -1.0669992     -0.014824703  
   3005000   0.050400142   -1.1860937      0.041809257   -1.068733      -0.01335007   
   3006000   0.049456195   -1.1845352      0.04334835    -1.0670504     -0.017112384  
   3007000   0.05064369    -1.1854389      0.044391562   -1.0651308     -0.010388868  
   3008000   0.049106747   -1.1865639      0.043102784   -1.0698485     -0.01226535   
   3009000   0.049309207   -1.1851736      0.04242208    -1.0688354     -0.0096549795 
   3010000   0.048661432   -1.1840519      0.045269191   -1.0658377     -0.0087486416 
   3011000   0.050689607   -1.1844647      0.044363534   -1.0641158     -0.00078917089
   3012000   0.051873364   -1.18435        0.045690153   -1.0609        -0.0029528926 
   3013000   0.051204599   -1.1858044      0.045172991   -1.0638741     -0.0063619013 
   3014000   0.048775788   -1.1864839      0.043961421   -1.069406      -0.010670281  
   3015000   0.050023233   -1.1846578      0.045426585   -1.0642448     -0.010198071  
   3016000   0.050312914   -1.1832669      0.045404512   -1.0624417     -0.0090933951 
   3017000   0.050868411   -1.1831723      0.043543769   -1.0633751     -0.0054685771 
   3018000   0.05131725    -1.1842758      0.044243571   -1.063106      -0.018500955  
   3019000   0.048014486   -1.1846243      0.045420042   -1.067229      -0.02172619   
   3020000   0.04726277    -1.1831884      0.043815025   -1.0685249     -0.013075721  
   3021000   0.049904605   -1.1852404      0.044195695   -1.0662361     -0.0089206552 
   3022000   0.049718012   -1.1837584      0.044144595   -1.0650849      0.00082493184
   3023000   0.050686922   -1.1828255      0.043688384   -1.0631558     -0.0056114546 
   3024000   0.049958558   -1.1837159      0.044076615   -1.0647498     -0.016478558  
   3025000   0.050223307   -1.1834611      0.042320125   -1.0658546     -0.0050303812 
   3026000   0.051619423   -1.18468        0.044718349   -1.0625825     -0.0057840151 
   3027000   0.050815506   -1.1837598      0.045300463   -1.0622853     -0.011490587  
   3028000   0.048567734   -1.1826111      0.044487535   -1.0653189     -0.0042913837 
   3029000   0.048764087   -1.184663       0.044950321   -1.0666137     -0.0027515059 
   3030000   0.051023242   -1.1837434      0.043222423   -1.0640355     -0.0058417669 
   3031000   0.051007061   -1.1839717      0.045900903   -1.0616095     -0.0074550114 
   3032000   0.053561851   -1.1870956      0.046390665   -1.060414      -0.020798925  
   3033000   0.052850813   -1.1850273      0.045776266   -1.060026      -0.0070755262 
   3034000   0.049865975   -1.1872976      0.045421333   -1.0671255     -0.00039871139
   3035000   0.050220735   -1.1862071      0.045998277   -1.0649264     -0.013983269  
   3036000   0.048509646   -1.1860353      0.043976499   -1.0693413     -0.015268565  
   3037000   0.050835502   -1.1868828      0.043590723   -1.067088      -0.0056592131 
   3038000   0.049078616   -1.1873817      0.046065158   -1.0677461     -0.017275649  
   3039000   0.051117286   -1.1876771      0.044283399   -1.0667672     -0.01673767   
   3040000   0.049830044   -1.1861207      0.042945927   -1.0684779     -0.014847306  
   3041000   0.051221566   -1.1875141      0.043727189   -1.0670041     -0.014470168  
   3042000   0.0489521     -1.1860905      0.041594345   -1.0711154     -0.0039074892 
   3043000   0.048221142   -1.1882163      0.044299273   -1.071632      -0.0034753215 
   3044000   0.04954224    -1.1888011      0.044012871   -1.0705228     -0.011947502  
   3045000   0.052304938   -1.1911368      0.043866093   -1.0688639     -0.016907646  
   3046000   0.049296959   -1.193077       0.04573298    -1.0734463     -0.014966091  
   3047000   0.049478536   -1.1933365      0.045024636   -1.0741419     -0.016282013  
   3048000   0.050422331   -1.1930419      0.044342594   -1.0731146     -0.0052227335 
   3049000   0.051957101   -1.1912226      0.042830196   -1.0705071     -0.015359595  
   3050000   0.051184262   -1.1920014      0.04569928    -1.0695753     -0.024666534  
   3051000   0.050835156   -1.1912727      0.042575981   -1.0724932     -0.011633046  
   3052000   0.049932721   -1.1901466      0.044740294   -1.0705556     -0.0095272274 
   3053000   0.051746809   -1.1918538      0.042557346   -1.0717263     -0.0037437806 
   3054000   0.049241669   -1.1921206      0.04366001    -1.0746457     -0.0088902853 
   3055000   0.050364387   -1.1918919      0.04469484    -1.0716992     -0.0095188139 
   3056000   0.050784092   -1.1919425      0.044505303   -1.0713102     -0.0099733563 
   3057000   0.050842704   -1.1919663      0.045355104   -1.0703963     -0.0090705191 
   3058000   0.050583769   -1.1918171      0.04367191    -1.0723185     -0.0062776046 
   3059000   0.052500209   -1.1909757      0.044624217   -1.067652      -0.018730389  
   3060000   0.049797672   -1.1929896      0.045940594   -1.0724007     -0.019921786  
   3061000   0.051539245   -1.19222        0.043036239   -1.0719248     -0.017242748  
   3062000   0.050540242   -1.190842       0.045599611   -1.0694809     -0.015424912  
   3063000   0.051577133   -1.1926666      0.043870872   -1.0714799     -0.00394731   
   3064000   0.051376526   -1.1905254      0.043445877   -1.0700644     -0.014471762  
   3065000   0.050994784   -1.1925406      0.043538453   -1.0725593     -0.0018038839 
   3066000   0.051062203   -1.1906767      0.044376173   -1.0697566     -0.0065343196 
   3067000   0.049982869   -1.1918272      0.042287803   -1.0746135     -0.010689557  
   3068000   0.049340757   -1.1920086      0.044102183   -1.0739431     -0.0023638403 
   3069000   0.049107572   -1.1919696      0.045685696   -1.0726701     -0.020841763  
   3070000   0.050899063   -1.1909566      0.044683982   -1.0699733     -0.0048101369 
   3071000   0.052465239   -1.1928564      0.044524362   -1.069685      -0.0091541757 
   3072000   0.050149826   -1.1920992      0.044564608   -1.0723584     -0.012426719  
   3073000   0.050641085   -1.1915981      0.044664736   -1.0710208     -0.017446539  
   3074000   0.049877295   -1.1910275      0.044286262   -1.0719735     -0.012439395  
   3075000   0.04929866    -1.1913504      0.045278639   -1.0721715     -0.0055299123 
   3076000   0.051793292   -1.1953372      0.046126369   -1.071571      -0.0091106618 
   3077000   0.051571455   -1.1961745      0.046701605   -1.0721656     -0.0099784778 
   3078000   0.052383718   -1.1957222      0.045020232   -1.0721771      0.0010244708 
   3079000   0.049856987   -1.1958958      0.043324283   -1.0778343     -0.011318489  
   3080000   0.049949852   -1.196597       0.044943263   -1.0767773     -0.016397013  
   3081000   0.049327374   -1.1951014      0.04544321    -1.0757149     -0.015365568  
   3082000   0.0491692     -1.1970579      0.044641303   -1.0787104     -0.010465763  
   3083000   0.050005547   -1.1978189      0.045045568   -1.0778134     -0.017388636  
   3084000   0.050009472   -1.1968501      0.045929688   -1.0759546     -0.01856386   
   3085000   0.049076311   -1.1963487      0.043746145   -1.0790356     -0.013309996  
   3086000   0.050153664   -1.1965406      0.043109236   -1.0782494     -0.016717521  
   3087000   0.048322898   -1.1965986      0.044904501   -1.0792565     -0.0074783352 
   3088000   0.048585892   -1.1962878      0.043226455   -1.0802295     -0.011035484  
   3089000   0.048534489   -1.197074       0.04405044    -1.0802688     -0.0068926639 
   3090000   0.048677692   -1.1975659      0.04485032    -1.0797462      0.0036504376 
   3091000   0.049438991   -1.1964502      0.044011614   -1.0783279     -0.0020380491 
   3092000   0.049973171   -1.1970864      0.046464384   -1.0757106     -0.013565763  
   3093000   0.051817822   -1.1955748      0.04494241    -1.0729558     -0.004448181  
   3094000   0.049438275   -1.1969754      0.046211983   -1.0766538     -0.018647495  
   3095000   0.04916257    -1.1973853      0.046379169   -1.0773098     -0.017786474  
   3096000   0.05013118    -1.1948768      0.044588377   -1.0751402     -0.00663546   
   3097000   0.049748468   -1.1967464      0.043151356   -1.0790205     -0.0016583674 
   3098000   0.049594698   -1.1975659      0.044711689   -1.0785102     -0.0049342499 
   3099000   0.051527115   -1.196249       0.046228467   -1.0727797      9.4751984e-05
   3100000   0.049563108   -1.1963625      0.046353678   -1.0757121     -0.01343726   
   3101000   0.049358225   -1.1962539      0.044159785   -1.0781045     -0.012114119  
   3102000   0.050341248   -1.1949339      0.044214989   -1.0752558     -0.0094764495 
   3103000   0.05093097    -1.1965461      0.045074013   -1.0751249     -0.018919684  
   3104000   0.051343295   -1.1960485      0.046017207   -1.073066      -0.0079819485 
   3105000   0.051690242   -1.1958792      0.04542273    -1.0729711     -0.016912403  
   3106000   0.051066688   -1.1956024      0.046542107   -1.0725097      0.004621257  
   3107000   0.049239026   -1.196735       0.047283527   -1.0756406     -0.011991565  
   3108000   0.049022642   -1.1958546      0.046283688   -1.0760844     -0.016033106  
   3109000   0.050807131   -1.1943434      0.043614607   -1.0745672     -0.020471401  
   3110000   0.05026496    -1.1954114      0.044501425   -1.0755612     -0.0053155241 
   3111000   0.049548462   -1.1951916      0.045621246   -1.0752957     -0.0039030129 
   3112000   0.047864706   -1.198187       0.044912578   -1.0815237     -0.011918842  
   3113000   0.050367155   -1.1969457      0.045270224   -1.0761735     -0.0059736284 
   3114000   0.050230558   -1.1955771      0.0462604     -1.0740194     -0.0083361004 
   3115000   0.051008941   -1.1932943      0.044521169   -1.0723091     -0.0088765603 
   3116000   0.05156117    -1.1962205      0.043434316   -1.0754943     -0.0081394399 
   3117000   0.051126455   -1.1957775      0.043673393   -1.0754639     -0.0090373012 
   3118000   0.049742526   -1.1957081      0.043660111   -1.0774824     -0.0089721725 
   3119000   0.049893999   -1.1968336      0.046212625   -1.0758283     -0.027201521  
   3120000   0.050696188   -1.197341       0.043877862   -1.0774679     -0.016130773  
   3121000   0.050763435   -1.1977461      0.045058437   -1.0765916     -0.016638758  
   3122000   0.049063514   -1.1965884      0.043937169   -1.0791034     -0.020657802  
   3123000   0.051768241   -1.1967431      0.043714837   -1.075426      -0.0037176168 
   3124000   0.050584764   -1.1953998      0.044255617   -1.075316      -0.0095754686 
   3125000   0.048684457   -1.1962398      0.042755035   -1.0805052     -0.010668563  
   3126000   0.049179485   -1.1950191      0.044736011   -1.0765614     -0.0097552996 
   3127000   0.049384      -1.1967886      0.043298504   -1.0794618     -0.017436743  
   3128000   0.048705668   -1.1961103      0.04449959    -1.0785993     -0.012537596  
   3129000   0.04954929    -1.1971303      0.043914473   -1.0789398     -0.010537106  
   3130000   0.050942997   -1.1965634      0.043755433   -1.0764428     -0.015049328  
   3131000   0.049108903   -1.1958544      0.042820579   -1.079418      -0.0083364276 
   3132000   0.049510815   -1.1959562      0.042807337   -1.0789306     -0.0063455588 
   3133000   0.050258128   -1.1953526      0.042527905   -1.0774862     -0.0051909388 
   3134000   0.050649747   -1.1951943      0.043572439   -1.0756962     -0.01081978   
   3135000   0.05159168    -1.1968152      0.044073909   -1.0754037     -0.0085950169 
   3136000   0.05071284    -1.1954377      0.045585871   -1.0738317     -0.018407367  
   3137000   0.050245974   -1.1970716      0.044320629   -1.0774307     -0.011828613  
   3138000   0.051463497   -1.1967397      0.044168458   -1.0754258     -0.0057402788 
   3139000   0.050325411   -1.1953978      0.045757922   -1.0742005     -0.0021091942 
   3140000   0.050789869   -1.1948954      0.045066429   -1.0736933     -0.0039651618 
   3141000   0.049455573   -1.1955669      0.046167862   -1.0752635     -0.011517936  
   3142000   0.051531996   -1.1939862      0.044259253   -1.0724788     -0.0073730481 
   3143000   0.050729152   -1.1958309      0.044933242   -1.074853      -0.012718616  
   3144000   0.050030302   -1.1964828      0.043497458   -1.0779883     -0.012216958  
   3145000   0.048237077   -1.196576       0.043627859   -1.0806392     -0.0052475547 
   3146000   0.049171522   -1.196673       0.04322285    -1.0797404     -0.0092777344 
   3147000   0.049055835   -1.1945784      0.044888804   -1.0761533     -0.0078598191 
   3148000   0.049293686   -1.1958519      0.045306052   -1.076653      -0.010955387  
   3149000   0.050641197   -1.1967112      0.044323931   -1.0764745     -0.013869263  
   3150000   0.049353969   -1.1961761      0.045593848   -1.0765991     -0.015261988  
   3151000   0.050249999   -1.1947929      0.042579127   -1.0768874     -0.000747471  
   3152000   0.04994877    -1.1965054      0.046787607   -1.0748429     -0.0079591161 
   3153000   0.050852158   -1.1957157      0.043722738   -1.075764      -0.0015124426 
   3154000   0.050835933   -1.1972377      0.045100574   -1.0759324     -0.0070836172 
   3155000   0.050238308   -1.1970915      0.043551496   -1.0782311     -0.0037800636 
   3156000   0.05173001    -1.1979773      0.044609109   -1.0758232     -0.014422521  
   3157000   0.050362277   -1.1977427      0.043586486   -1.0786615     -0.010247166  
   3158000   0.049447424   -1.1963665      0.046419374   -1.0758239     -0.01343475   
   3159000   0.050897477   -1.1995157      0.043817753   -1.079401      -0.0059342927 
   3160000   0.05142728    -1.1974229      0.043282278   -1.0770495     -0.014794478  
   3161000   0.048674723   -1.1981921      0.045438675   -1.0797885     -0.01249541   
   3162000   0.049633691   -1.1974833      0.0430763     -1.0800045     -0.011603389  
   3163000   0.049743919   -1.1974213      0.043615009   -1.0792386     -0.010589863  
   3164000   0.050313571   -1.1975441      0.04310773    -1.0790147     -0.015199148  
   3165000   0.050982238   -1.1975051      0.043463025   -1.077618      -0.0074372857 
   3166000   0.050204779   -1.1989015      0.046197892   -1.0774451     -0.0059777741 
   3167000   0.050327196   -1.199967       0.046760844   -1.0777641     -0.022225275  
   3168000   0.050808168   -1.1982174      0.045104514   -1.0769498     -0.012864068  
   3169000   0.049491326   -1.1971646      0.044741362   -1.0782342     -0.0023951251 
   3170000   0.051755903   -1.1999102      0.045813271   -1.0765131     -0.0055260471 
   3171000   0.050158732   -1.2011308      0.044959489   -1.0809818     -0.013209285  
   3172000   0.049523667   -1.1998847      0.042879524   -1.0827676     -0.0094768342 
   3173000   0.049624031   -1.2012324      0.044631029   -1.0822133     -0.0068776426 
   3174000   0.049139137   -1.2009731      0.046185112   -1.0811268     -0.012398273  
   3175000   0.050988835   -1.2004641      0.045321683   -1.0787085     -0.0071628003 
   3176000   0.051577613   -1.2006882      0.04402269    -1.079349      -0.006978189  
   3177000   0.049530497   -1.2023379      0.045338237   -1.0827518     -0.01684817   
   3178000   0.048832153   -1.2019939      0.042871671   -1.0859212     -0.0073531544 
   3179000   0.051667618   -1.2037446      0.043364456   -1.0829287     -0.0043150669 
   3180000   0.050903014   -1.2034391      0.046333678   -1.0808002     -0.014419547  
   3181000   0.049817743   -1.2043076      0.04675571    -1.0828735     -0.02316324   
   3182000   0.049940605   -1.2046232      0.047344116   -1.0824165     -0.013282582  
   3183000   0.050590285   -1.2044929      0.044202499   -1.084454      -0.0098080829 
   3184000   0.049832737   -1.2041201      0.046973664   -1.0824455     -0.021795996  
   3185000   0.050423448   -1.2045821      0.047280679   -1.081715      -0.020132781  
   3186000   0.050174398   -1.2041191      0.047031272   -1.0818748     -0.019122031  
   3187000   0.049234632   -1.2026983      0.04292143    -1.0859726     -0.0099318424 
   3188000   0.049721319   -1.2027949      0.045299012   -1.082962      -0.0059541183 
   3189000   0.049175578   -1.203985       0.04701357    -1.0832557     -0.013841982  
   3190000   0.049233177   -1.2054049      0.046958513   -1.0846443     -0.020907499  
   3191000   0.048607207   -1.202971       0.044553337   -1.0855539     -0.019463262  
   3192000   0.04995318    -1.2034622      0.045258144   -1.0833226     -0.0084784903 
   3193000   0.048525357   -1.2035335      0.04471372    -1.0860787     -0.016123157  
   3194000   0.049842529   -1.2034529      0.045972785   -1.0827646     -0.0093849632 
   3195000   0.05017334    -1.2033363      0.046317325   -1.0818075     -0.010582907  
   3196000   0.050003173   -1.204069       0.046888975   -1.0822237     -0.024498466  
   3197000   0.051627432   -1.2029694      0.044705115   -1.0808731     -0.0098444984 
   3198000   0.048868363   -1.2031217      0.045195088   -1.0846713     -0.016216464  
   3199000   0.048218149   -1.2043437      0.04722052    -1.0848426     -0.0029009066 
   3200000   0.048861889   -1.202652       0.045380601   -1.0840259     -0.010734693  
   3201000   0.049911947   -1.2035684      0.044602668   -1.0841461     -0.0099252282 
   3202000   0.050579853   -1.2045325      0.045085938   -1.0836257     -0.014149734  
   3203000   0.051065431   -1.2027044      0.04732658    -1.078829      -0.011513832  
   3204000   0.05190241    -1.2050832      0.047128313   -1.0801515     -0.0065635244 
   3205000   0.051933461   -1.2059815      0.046302531   -1.081829      -0.016972378  
   3206000   0.052829807   -1.2080728      0.045689494   -1.0831897     -0.0051230348 
   3207000   0.049616302   -1.2066922      0.045898473   -1.0864173     -0.0030986845 
   3208000   0.051125063   -1.2073517      0.045630508   -1.0850831     -0.018630605  
   3209000   0.051618325   -1.2095419      0.046582384   -1.085582      -0.016443172  
   3210000   0.049190563   -1.2091535      0.045332032   -1.0900832     -0.013676205  
   3211000   0.049446434   -1.2079787      0.047150928   -1.0867059     -0.0065042163 
   3212000   0.048574486   -1.2083713      0.044737339   -1.0908192     -0.012035438  
   3213000   0.049324786   -1.2086755      0.047545521   -1.0871905     -0.014854901  
   3214000   0.051062069   -1.2081164      0.044884549   -1.0866882     -0.013696162  
   3215000   0.052882072   -1.2088303      0.046394326   -1.083164      -0.010365815  
   3216000   0.050587336   -1.2102868      0.046876305   -1.0875785     -0.022777441  
   3217000   0.052143618   -1.2106862      0.044982983   -1.0875383     -0.010272134  
   3218000   0.049698088   -1.2097287      0.045093528   -1.0901361     -0.0042312906 
   3219000   0.047933265   -1.2114087      0.04580828    -1.0937469     -0.0087382385 
   3220000   0.049672972   -1.2096114      0.045091488   -1.0900585     -0.013463223  
   3221000   0.050836723   -1.2114127      0.044344494   -1.0908623     -0.018385295  
   3222000   0.050315022   -1.2113484      0.045929379   -1.0899952     -0.012077788  
   3223000   0.049179083   -1.2109653      0.046233086   -1.0910112     -0.01362769   
   3224000   0.04938744    -1.2111205      0.046240073   -1.090847      -0.028430504  
   3225000   0.050566973   -1.2114073      0.045880364   -1.0897254     -0.00099703561
   3226000   0.049215423   -1.211014       0.045645249   -1.0915932     -0.011180417  
   3227000   0.050603713   -1.210412       0.043113592   -1.0914418     -0.0080994135 
   3228000   0.051080791   -1.213124       0.046408695   -1.0901435     -0.017732402  
   3229000   0.05036095    -1.2111331      0.046843784   -1.0887966     -0.010160987  
   3230000   0.049453633   -1.2118221      0.044427659   -1.0932618     -0.018749381  
   3231000   0.049616195   -1.2117601      0.044756748   -1.0926271     -0.021342846  
   3232000   0.050389113   -1.2124139      0.045684276   -1.0911948     -0.018703191  
   3233000   0.049026725   -1.212323       0.044438752   -1.0943916     -0.017115802  
   3234000   0.050071091   -1.2131948      0.046191152   -1.0919455     -0.010166828  
   3235000   0.051068762   -1.2127041      0.046038058   -1.0901123     -0.0077858295 
   3236000   0.050628944   -1.2138702      0.045335041   -1.0926407     -0.0093216185 
   3237000   0.049958647   -1.2122979      0.046497074   -1.0909112     -0.01310226   
   3238000   0.04885015    -1.212275       0.045328256   -1.0937188     -0.0014472928 
   3239000   0.051321532   -1.2141605      0.04470341    -1.0925245     -0.01294013   
   3240000   0.050084517   -1.2137806      0.045020839   -1.0936814     -0.012313846  
   3241000   0.049772303   -1.2134257      0.046651369   -1.0921641     -0.011096408  
   3242000   0.049393232   -1.2148692      0.046803665   -1.0940235     -0.012064875  
   3243000   0.052650948   -1.2139305      0.043748024   -1.091257      -0.01019667   
   3244000   0.049902009   -1.2150167      0.045103643   -1.0951084     -0.019254094  
   3245000   0.049470445   -1.2125004      0.043478144   -1.0948645     -0.01840181   
   3246000   0.050854959   -1.2133705      0.044741675   -1.0923956     -0.015628194  
   3247000   0.051529655   -1.2143223      0.044193358   -1.0928843     -0.0039452765 
   3248000   0.050366853   -1.2127263      0.045646803   -1.091578      -0.011182274  
   3249000   0.048915989   -1.215165       0.043744391   -1.0980939     -0.011805429  
   3250000   0.049189674   -1.2129959      0.04553869    -1.0937203     -0.011292827  
   3251000   0.048498002   -1.2130248      0.04668014    -1.0936446     -0.013988998  
   3252000   0.051230002   -1.2135622      0.044469851   -1.0922969     -0.005904224  
   3253000   0.050002451   -1.2123452      0.043248967   -1.0941409     -0.0075907639 
   3254000   0.05194393    -1.2126427      0.043688505   -1.0910885     -0.011888975  
   3255000   0.049322172   -1.2133856      0.044977774   -1.0944723     -0.011105882  
   3256000   0.051076      -1.2135846      0.045542235   -1.0914778     -0.01003534   
   3257000   0.052033096   -1.2144462      0.048519847   -1.087927      -0.0156799    
   3258000   0.051172812   -1.2130093      0.046272453   -1.0900272     -0.021941658  
   3259000   0.049682799   -1.214969       0.046557294   -1.0939356     -0.015385141  
   3260000   0.049734222   -1.2145693      0.045063073   -1.094953      -0.015729721  
   3261000   0.051122272   -1.2134303      0.044029032   -1.0927674     -0.016338631  
   3262000   0.051047489   -1.2133235      0.047043404   -1.0897583     -0.0046324707 
   3263000   0.050006517   -1.2131926      0.046000559   -1.0922306     -0.0043054095 
   3264000   0.050203975   -1.2125368      0.045037295   -1.0922421     -0.0085842132 
   3265000   0.050536981   -1.2137502      0.044550214   -1.0934434     -0.010189948  
   3266000   0.048921183   -1.2140658      0.046689343   -1.094042      -0.019730783  
   3267000   0.050052166   -1.2138734      0.04607294    -1.0927707     -0.014709494  
   3268000   0.050363443   -1.2142233      0.046903429   -1.0918234     -0.0030195599 
   3269000   0.048997189   -1.2137785      0.044790611   -1.0955396     -0.011619542  
   3270000   0.051775893   -1.2143628      0.047735667   -1.0890134     -0.0069985555 
   3271000   0.050319075   -1.2128955      0.046601668   -1.0908639     -0.013206795  
   3272000   0.049755242   -1.2140157      0.045327476   -1.0941035     -0.015560651  
   3273000   0.050014587   -1.2128543      0.047712138   -1.0901687     -0.016925798  
   3274000   0.052068705   -1.2116732      0.045440915   -1.0881797     -0.012686296  
   3275000   0.052201833   -1.2111441      0.04581215    -1.0870797     -0.0033080034 
   3276000   0.050897776   -1.213613       0.049191881   -1.0881237     -0.016980662  
   3277000   0.049270134   -1.2139864      0.047061557   -1.0930674     -0.014615581  
   3278000   0.049364062   -1.2149949      0.045729131   -1.0952675     -0.012630022  
   3279000   0.049251038   -1.213258       0.044886491   -1.0945426     -0.016002191  
   3280000   0.050055145   -1.2141109      0.046264117   -1.0928125     -0.020262788  
   3281000   0.050940059   -1.2131576      0.044908135   -1.0918887     -0.010660183  
   3282000   0.050538005   -1.2118233      0.044222361   -1.0918428     -0.0087117804 
   3283000   0.051538883   -1.2135939      0.046171713   -1.0901638     -0.013688517  
   3284000   0.050235723   -1.2126846      0.046545523   -1.0908341     -0.0053103259 
   3285000   0.051586075   -1.2134993      0.046801066   -1.089369      -0.011724244  
   3286000   0.050385853   -1.2136902      0.045764859   -1.0923953     -0.014677646  
   3287000   0.052333559   -1.2133745      0.04393528    -1.0909896     -0.014698695  
   3288000   0.051615889   -1.214045       0.045607993   -1.0910631     -0.018472118  
   3289000   0.049471411   -1.2132999      0.045550874   -1.0935898     -0.020569073  
   3290000   0.049736992   -1.2133751      0.044021009   -1.0947968     -0.012961541  
   3291000   0.049664241   -1.2139449      0.04508756    -1.0944091     -0.013351731  
   3292000   0.050459707   -1.2136276      0.045090398   -1.0928964     -0.011533015  
   3293000   0.050093132   -1.2153992      0.045903972   -1.094404      -0.0071722786 
   3294000   0.051839282   -1.2138868      0.044227277   -1.0919507     -0.0091671747 
   3295000   0.048942347   -1.2143191      0.045025633   -1.0959273     -0.021739452  
   3296000   0.049920104   -1.2161918      0.043721675   -1.0976383     -0.005750313  
   3297000   0.050557854   -1.2129685      0.043001898   -1.0941788     -0.018243269  
   3298000   0.051577374   -1.2142613      0.047533683   -1.0894115     -0.010622947  
   3299000   0.052752942   -1.2153882      0.044733045   -1.0915768     -0.01157199   
   3300000   0.052489444   -1.2145167      0.046372318   -1.089461      -0.013442509  
   3301000   0.050694376   -1.2144116      0.045403777   -1.0930154     -0.011539507  
   3302000   0.050791223   -1.21525        0.045285545   -1.0938268     -0.014585859  
   3303000   0.04882504    -1.2141378      0.045533519   -1.0954139     -0.0095557417 
   3304000   0.050441816   -1.2155324      0.042815331   -1.0971032     -0.02514933   
   3305000   0.049638284   -1.2138207      0.042700584   -1.0967107     -0.0049454205 
   3306000   0.048937837   -1.2139698      0.046078804   -1.0945316     -0.01611803   
   3307000   0.04844671    -1.2150485      0.047677016   -1.0947483     -0.015000096  
   3308000   0.052176547   -1.2150819      0.043920809   -1.0929468     -0.0092609715 
   3309000   0.050642369   -1.2135241      0.043708397   -1.0939012     -0.0088846412 
   3310000   0.049941394   -1.2147386      0.046488989   -1.0933858     -0.013605162  
   3311000   0.050837609   -1.2155063      0.046872559   -1.0924265     -0.011691988  
   3312000   0.049970451   -1.2139734      0.046076577   -1.0929895     -0.0056825973 
   3313000   0.049915858   -1.2136325      0.044076781   -1.0947302     -0.0067868928 
   3314000   0.051406901   -1.2146654      0.04563102    -1.0919738     -0.019083943  
   3315000   0.050116128   -1.2148729      0.045052216   -1.094695      -0.0086271485 
   3316000   0.049154407   -1.2148332      0.043841427   -1.0973078     -0.0069123145 
   3317000   0.048452587   -1.2135103      0.043815213   -1.0970631     -0.01978447   
   3318000   0.050719229   -1.2153212      0.044930818   -1.0943606     -0.014161473  
   3319000   0.048937502   -1.2137811      0.043684991   -1.0967372     -0.019630618  
   3320000   0.049536661   -1.2156595      0.045586401   -1.0958161     -0.016301183  
   3321000   0.051077607   -1.2144401      0.045803606   -1.0920695     -0.009571028  
   3322000   0.049486486   -1.2134229      0.047904778   -1.0913363     -0.013894985  
   3323000   0.050985015   -1.2130946      0.044599371   -1.0920671     -0.0068372984 
   3324000   0.051825178   -1.2153481      0.046394324   -1.0912662     -0.025288165  
   3325000   0.048470416   -1.2152564      0.046602483   -1.0959952     -0.008497862  
   3326000   0.048757047   -1.2164659      0.045430808   -1.0979467     -0.0097786753 
   3327000   0.051099923   -1.2133056      0.044091034   -1.0926141     -0.011626914  
   3328000   0.050112908   -1.2158048      0.045656362   -1.0950276     -0.018390417  
   3329000   0.050268243   -1.2171628      0.045486306   -1.0963228     -0.020149769  
   3330000   0.050981677   -1.2189629      0.045207864   -1.0973318     -0.0086173831 
   3331000   0.050597178   -1.2197759      0.047524289   -1.0964048     -0.020656968  
   3332000   0.049482319   -1.2167789      0.04659401    -1.0960093     -0.0065600287 
   3333000   0.051943183   -1.2192518      0.045365488   -1.0960218     -0.0075238784 
   3334000   0.047853293   -1.2177594      0.044807455   -1.1012183     -0.013040296  
   3335000   0.050217592   -1.2185218      0.047136243   -1.0961078     -0.015601788  
   3336000   0.053257571   -1.2195451      0.048550381   -1.0911599     -0.0096113577 
   3337000   0.051215478   -1.2171939      0.045911331   -1.0945089     -0.02087308   
   3338000   0.050141734   -1.2175969      0.046134721   -1.0962981     -0.0068815508 
   3339000   0.049166203   -1.2183424      0.045439195   -1.0992015     -0.01391508   
   3340000   0.049397835   -1.2184127      0.046552361   -1.0978114     -0.010323798  
   3341000   0.051059877   -1.2176807      0.044751682   -1.0963886     -0.0088464602 
   3342000   0.051828434   -1.2185163      0.046016676   -1.0948071     -0.018620196  
   3343000   0.050676681   -1.2197863      0.044786358   -1.099034      -0.0092886455 
   3344000   0.051121591   -1.2190259      0.046487039   -1.095906      -0.017604146  
   3345000   0.04870361    -1.2185753      0.044481629   -1.1010854     -0.011335289  
   3346000   0.0508373     -1.2202107      0.045624498   -1.0983795     -0.019064684  
   3347000   0.050871025   -1.2179052      0.043202432   -1.0984455     -0.0062736445 
   3348000   0.051527126   -1.2188305      0.046641344   -1.0949483     -0.015542337  
   3349000   0.05042569    -1.219002       0.046328625   -1.0970836     -0.015495464  
   3350000   0.051315017   -1.2198586      0.047159706   -1.095776      -0.0025971664 
   3351000   0.051674512   -1.2185979      0.045174793   -1.0959614     -0.0059186973 
   3352000   0.049816096   -1.2197874      0.044015002   -1.1010965     -0.016412531  
   3353000   0.04810615    -1.217708       0.045238799   -1.1003565     -0.0097770392 
   3354000   0.050002446   -1.2183668      0.044904849   -1.0985067     -0.0055318561 
   3355000   0.049342245   -1.218977       0.044738629   -1.1002728     -0.01120669   
   3356000   0.050841685   -1.2181627      0.044372488   -1.0975769     -0.01135987   
   3357000   0.049580862   -1.2180703      0.044487728   -1.0992593     -0.010862681  
   3358000   0.052702184   -1.2200784      0.046289084   -1.0947871     -0.014885705  
   3359000   0.051044714   -1.2184282      0.04522057    -1.0966899     -0.0050167811 
   3360000   0.050153096   -1.2174499      0.042154574   -1.1001142     -0.0037243623 
   3361000   0.051622688   -1.219169       0.045183344   -1.0966016     -0.0078856019 
   3362000   0.049505329   -1.2180545      0.043432425   -1.100412       0.0070245368 
   3363000   0.050995809   -1.2183587      0.046188623   -1.0957257     -0.015010338  
   3364000   0.050816507   -1.2183238      0.044116219   -1.098032      -0.016874055  
   3365000   0.051418444   -1.2170629      0.044952323   -1.0950327     -0.026836687  
   3366000   0.051710792   -1.2164992      0.046229358   -1.0927537     -0.013665489  
   3367000   0.048774402   -1.2162048      0.046429514   -1.0966609      0.00057163379
   3368000   0.050671056   -1.2191354      0.043924795   -1.0992531     -0.008637548  
   3369000   0.050411655   -1.2167013      0.047343284   -1.0937893     -0.018538457  
   3370000   0.052447299   -1.2164782      0.045763347   -1.0920947     -0.015896546  
   3371000   0.049028114   -1.2189609      0.046445443   -1.0990208     -0.0102724    
   3372000   0.050287619   -1.2192992      0.04856365    -1.0953528     -0.0092632061 
   3373000   0.049928201   -1.219526       0.045453673   -1.0992283     -0.014556348  
   3374000   0.04919526    -1.2171644      0.045317334   -1.0981018     -0.0044605881 
   3375000   0.051871645   -1.2190867      0.045304786   -1.0960247     -0.013634126  
   3376000   0.050102343   -1.218366       0.046701689   -1.0965593     -0.017484169  
   3377000   0.051367704   -1.2187985      0.046232815   -1.0955638     -0.015834352  
   3378000   0.051499851   -1.219206       0.044538629   -1.0974675     -0.010990403  
   3379000   0.049941738   -1.2207918      0.043187239   -1.1027403     -0.012693588  
   3380000   0.050143574   -1.2200347      0.045600743   -1.0992672     -0.01121037   
   3381000   0.049440424   -1.2186894      0.046544177   -1.0980324     -0.010347171  
   3382000   0.049337023   -1.2179206      0.043913825   -1.1000489     -0.01278248   
   3383000   0.049532567   -1.2193107      0.044696043   -1.1003637     -0.01287002   
   3384000   0.049635356   -1.2198088      0.047148711   -1.0982551     -0.018028503  
   3385000   0.050295133   -1.2205811      0.046945009   -1.0982421     -0.0077430879 
   3386000   0.050625638   -1.218122       0.044474673   -1.0977578     -0.0041624209 
   3387000   0.050797154   -1.2160393      0.044694861   -1.0951978     -0.013746715  
   3388000   0.053016534   -1.2202712      0.045297445   -1.0955003     -0.015450635  
   3389000   0.049680437   -1.2187974      0.046269165   -1.0980557     -0.012573945  
   3390000   0.050763267   -1.2186524      0.046073411   -1.0964832     -0.0062109189 
   3391000   0.051014756   -1.2182732      0.044488962   -1.0973114     -0.0066553029 
   3392000   0.049655671   -1.2193756      0.044681301   -1.1002589     -0.015441904  
   3393000   0.050734021   -1.2190245      0.043341531   -1.0996311     -0.014102693  
   3394000   0.051934531   -1.2188319      0.044705815   -1.0962746     -0.0084725358 
   3395000   0.051227506   -1.2196479      0.046031406   -1.0968249     -0.011858212  
   3396000   0.04912749    -1.2193325      0.046032694   -1.0996561     -0.011365492  
   3397000   0.049670153   -1.2196765      0.042656709   -1.1025626     -0.014277549  
   3398000   0.051155296   -1.2187988      0.045644258   -1.0964711     -0.014776918  
   3399000   0.050825472   -1.2176803      0.044059184   -1.0974321     -0.010882944  
   3400000   0.051907283   -1.2184856      0.04582737    -1.0948476     -0.016539663  
   3401000   0.049814999   -1.2193343      0.046387072   -1.0982729     -0.013687819  
   3402000   0.049912457   -1.2175694      0.045010338   -1.0977387     -0.016595328  
   3403000   0.048562294   -1.2189717      0.04616469    -1.1000106     -0.010927289  
   3404000   0.050788926   -1.219417       0.045628127   -1.0976547     -0.016249985  
   3405000   0.049972116   -1.2188107      0.047732533   -1.0961683     -0.022118125  
   3406000   0.05060861    -1.21954        0.046383988   -1.097292      -0.016712361  
   3407000   0.049367175   -1.219121       0.045938761   -1.0991793     -0.0067003893 
   3408000   0.049169593   -1.2191559      0.04503863    -1.1004105     -0.014138438  
   3409000   0.04951623    -1.2189675      0.045888135   -1.0988529     -0.013324301  
   3410000   0.050289383   -1.2191389      0.0444439     -1.0993096     -0.017064973  
   3411000   0.050383447   -1.2191634      0.047246447   -1.0963905     -0.01419857   
   3412000   0.050915244   -1.2197756      0.045119556   -1.0983325     -0.014212736  
   3413000   0.050249711   -1.2185354      0.044554865   -1.0986546     -0.01686965   
   3414000   0.050185025   -1.2185707      0.04507917    -1.0982626     -0.0067896183 
   3415000   0.050887279   -1.2191948      0.045062673   -1.0978505     -0.017591676  
   3416000   0.051214764   -1.2182578      0.044200753   -1.0972845     -0.010842751  
   3417000   0.053349749   -1.2198181      0.045914755   -1.0939304     -0.019370305  
   3418000   0.051015822   -1.2192592      0.046433248   -1.0963516     -0.014115326  
   3419000   0.050975496   -1.219374       0.046093461   -1.0968666     -0.0087044453 
   3420000   0.051278071   -1.2209547      0.046098178   -1.0979891     -0.014838395  
   3421000   0.052625759   -1.2186066      0.044785258   -1.0949337     -0.015542154  
   3422000   0.049844039   -1.2200433      0.046813168   -1.0985123     -0.014768824  
   3423000   0.051495394   -1.220926       0.045118916   -1.0986138     -0.011442576  
   3424000   0.050342435   -1.2204318      0.047277622   -1.0976892     -0.014157225  
   3425000   0.050130828   -1.2178738      0.044390297   -1.0983358     -0.012011155  
   3426000   0.049010566   -1.2197041      0.047356657   -1.098879      -0.014894501  
   3427000   0.050741326   -1.2190867      0.042548145   -1.1004756     -0.011094957  
   3428000   0.049833715   -1.2192659      0.043417      -1.1011465     -0.018567936  
   3429000   0.048599274   -1.221096       0.047415506   -1.1008286     -0.015018904  
   3430000   0.051143833   -1.2195572      0.045385057   -1.0975059     -0.021005768  
   3431000   0.049223035   -1.2185578      0.04596373    -1.0988071     -0.0053439872 
   3432000   0.049732336   -1.2173995      0.042835247   -1.1000138     -0.014049462  
   3433000   0.048729061   -1.2178179      0.044634662   -1.1001368     -0.011998282  
   3434000   0.050493849   -1.2179793      0.044299003   -1.0979884     -0.016640872  
   3435000   0.050536316   -1.2176817      0.045079786   -1.0968463     -0.017077624  
   3436000   0.049759494   -1.2183358      0.043706694   -1.100038      -0.003380958  
   3437000   0.049715495   -1.2200213      0.044782224   -1.1007139     -0.0045799189 
   3438000   0.050448785   -1.2169628      0.04312954    -1.0982089     -0.004663546  
   3439000   0.050165508   -1.2197127      0.044009007   -1.100504      -0.0098012289 
   3440000   0.051618499   -1.2201673      0.044903483   -1.097886      -0.022392736  
   3441000   0.050602815   -1.2181792      0.046311239   -1.0960127     -0.011165045  
   3442000   0.050072105   -1.2177293      0.047399387   -1.0952702     -0.021752834  
   3443000   0.050175371   -1.2183482      0.044735537   -1.0983982     -0.008911308  
   3444000   0.050678201   -1.2200312      0.044857139   -1.0992058     -0.012880251  
   3445000   0.051004127   -1.2194753      0.046126679   -1.0968918     -0.022624822  
   3446000   0.050168167   -1.2189629      0.044798648   -1.0989605     -0.019631559  
   3447000   0.049305116   -1.2192833      0.046568028   -1.0988053     -0.027250207  
   3448000   0.050116889   -1.2190066      0.044206767   -1.099673      -0.020167124  
   3449000   0.05049017    -1.2193937      0.044761137   -1.0989462     -0.015904681  
   3450000   0.049087375   -1.2181078      0.045039685   -1.0994845     -0.017326658  
   3451000   0.05164862    -1.2186953      0.044652484   -1.0966198     -0.012178049  
   3452000   0.049988211   -1.2185589      0.046297703   -1.0973273     -0.007019058  
   3453000   0.050287968   -1.2177914      0.045571094   -1.096837      -0.0079961864 
   3454000   0.049923787   -1.2191812      0.04466769    -1.0996761     -0.0096669085 
   3455000   0.048315386   -1.2185892      0.045289414   -1.1008735     -0.0095883487 
   3456000   0.049321146   -1.2192679      0.044860308   -1.1004736     -0.014940832  
   3457000   0.050549841   -1.2200212      0.04723754    -1.0970079     -0.0071272988 
   3458000   0.049684721   -1.2189408      0.044565205   -1.0998966     -0.0074773456 
   3459000   0.050309291   -1.2190045      0.045105812   -1.0984835     -0.011958679  
   3460000   0.050291882   -1.2173531      0.046001116   -1.0959629     -0.012617465  
   3461000   0.0502217     -1.2186968      0.044735859   -1.098677      -0.0059065764 
   3462000   0.049673232   -1.2190667      0.045221546   -1.0993833     -0.0089335179 
   3463000   0.050551613   -1.2192764      0.044380669   -1.0991172     -0.017479973  
   3464000   0.050483715   -1.2191771      0.04652208    -1.0969783     -0.010211095  
   3465000   0.050568232   -1.2199425      0.046149016   -1.0979901     -0.027529285  
   3466000   0.048624281   -1.2179676      0.047181784   -1.0978964     -0.015127593  
   3467000   0.049802607   -1.2183697      0.044340648   -1.0993733     -0.013373865  
   3468000   0.049599291   -1.2200451      0.043901683   -1.1017925     -0.021185122  
   3469000   0.051217455   -1.2185196      0.0443445     -1.0973984     -0.013361547  
   3470000   0.052040923   -1.2170867      0.044287849   -1.0947878     -0.011585959  
   3471000   0.050224536   -1.2188242      0.045474757   -1.0980612     -0.021304868  
   3472000   0.049219028   -1.2176434      0.045549152   -1.0983133     -0.01625176   
   3473000   0.050014642   -1.2181248      0.046404623   -1.0967467     -0.015690322  
   3474000   0.050074074   -1.2202124      0.044924951   -1.1002248     -0.0093131316 
   3475000   0.049473872   -1.2200415      0.046384778   -1.0994938     -0.015093466  
   3476000   0.050198638   -1.2181411      0.045226113   -1.0976656     -0.019291014  
   3477000   0.049733086   -1.2178816      0.045874248   -1.0974559     -0.015294793  
   3478000   0.049727462   -1.2200883      0.045152447   -1.1003927     -0.017724001  
   3479000   0.049779215   -1.2189698      0.045034514   -1.0993146      0.0012480296 
   3480000   0.049650149   -1.219621       0.045890599   -1.0993032     -0.012430075  
   3481000   0.051121252   -1.2196593      0.046329596   -1.0966973     -0.010413454  
   3482000   0.050591713   -1.2187494      0.045514771   -1.0973961      0.00047220441
   3483000   0.050965816   -1.2190407      0.046174824   -1.0964664     -0.0089714336 
   3484000   0.047521621   -1.2170901      0.045497842   -1.1003559     -0.0053742787 
   3485000   0.050947687   -1.2186574      0.047327653   -1.0949575     -0.0035695097 
   3486000   0.051220932   -1.2181583      0.044977774   -1.0963987     -0.016534578  
   3487000   0.050981287   -1.2191713      0.045328921   -1.0974198     -0.0033360011 
   3488000   0.05143786    -1.2189137      0.046206888   -1.0955998     -0.0076483774 
   3489000   0.050718615   -1.2168267      0.046147557   -1.0946503     -0.01609505   
   3490000   0.048519      -1.2175722      0.047521606   -1.097319      -0.015998406  
   3491000   0.050572366   -1.2195472      0.047313455   -1.0964242     -0.0094117071 
   3492000   0.050270429   -1.2184086      0.045738201   -1.0973134     -0.017560821  
   3493000   0.050737128   -1.219201       0.04696179    -1.0961826     -0.020758231  
   3494000   0.050285349   -1.2165009      0.044847857   -1.0962737      0.00041373813
   3495000   0.051299555   -1.216241       0.045090104   -1.0942512     -0.0098276685 
   3496000   0.049089213   -1.2173521      0.045648575   -1.0981172     -0.015412038  
   3497000   0.050886826   -1.2185188      0.044140043   -1.0980978     -0.014596248  
   3498000   0.050448729   -1.217577       0.045576491   -1.0963762     -0.00024266363
   3499000   0.050614862   -1.21983        0.046069661   -1.0978871     -0.016190691  
   3500000   0.050356016   -1.2166646      0.044857228   -1.0963221     -0.0093970013 
   3501000   0.048262171   -1.2168342      0.044545023   -1.0999426     -0.025933221  
   3502000   0.050130841   -1.218866       0.047130748   -1.0965875     -0.0049844862 
   3503000   0.050155504   -1.2183784      0.046830258   -1.0963634     -0.021195856  
   3504000   0.050306697   -1.2187061      0.045228218   -1.0980665     -0.018465861  
   3505000   0.048552425   -1.2173122      0.044907366   -1.0996232     -0.00068099156
   3506000   0.050097061   -1.2179637      0.046252572   -1.0966141     -0.011624442  
   3507000   0.04885035    -1.2178273      0.045968667   -1.0986304     -0.0083433495 
   3508000   0.051246923   -1.2186599      0.046519465   -1.0953196     -0.016103584  
   3509000   0.048430343   -1.2183567      0.045120981   -1.100637      -0.0077354041 
   3510000   0.049913632   -1.2178563      0.044123005   -1.0989112     -0.016329644  
   3511000   0.04914897    -1.2198111      0.045917607   -1.1002176     -0.01212035   
   3512000   0.049771757   -1.2167038      0.044865135   -1.0972292     -0.0091750496 
   3513000   0.048130794   -1.2178135      0.045804034   -1.0998599     -0.0090675888 
   3514000   0.050896921   -1.2188395      0.043611159   -1.0989322     -0.015919278  
   3515000   0.048880134   -1.2169068      0.046061261   -1.0975726     -0.00086629911
   3516000   0.049509116   -1.2183776      0.043646976   -1.1005148     -0.0012699068 
   3517000   0.050501509   -1.2182843      0.045590721   -1.0969902     -0.010968686  
   3518000   0.052058857   -1.217308       0.045587686   -1.0936824     -0.012755795  
   3519000   0.050146145   -1.2171541      0.043012039   -1.0989714     -0.012456575  
   3520000   0.050581163   -1.2191839      0.046378503   -1.0969826     -0.017660223  
   3521000   0.050202757   -1.2191966      0.045004479   -1.0989366     -0.011922469  
   3522000   0.049554675   -1.2168714      0.045492319   -1.097095      -0.014203722  
   3523000   0.049473231   -1.218434       0.045558953   -1.098713      -0.010844111  
   3524000   0.048862664   -1.2181148      0.045750191   -1.0991179     -0.014140266  
   3525000   0.04968801    -1.2198584      0.047621572   -1.0977529     -0.018267883  
   3526000   0.050682209   -1.2180638      0.045191661   -1.0968979     -0.013960198  
   3527000   0.0503798     -1.2187021      0.044922337   -1.0982589     -0.010550598  
   3528000   0.04946436    -1.2185273      0.046197961   -1.0981807     -0.017719718  
   3529000   0.05102631    -1.2185418      0.044647663   -1.097404      -0.014946591  
   3530000   0.051036162   -1.2189971      0.044782233   -1.09771       -0.0064186566 
   3531000   0.050651342   -1.2180122      0.043329542   -1.0987547     -0.010503392  
   3532000   0.049308548   -1.2178775      0.046438242   -1.0975242     -0.011867596  
   3533000   0.050376114   -1.2165821      0.043547426   -1.0975192      0.0014297172 
   3534000   0.049460669   -1.2190538      0.042940034   -1.1019706     -0.017925213  
   3535000   0.04994442    -1.2178551      0.045491615   -1.0974952     -0.0083053394 
   3536000   0.052050381   -1.2194182      0.046181776   -1.0952112     -0.020301036  
   3537000   0.050297956   -1.2185614      0.042939918   -1.1002233     -0.015893027  
   3538000   0.049742625   -1.2198481      0.044586888   -1.1006954     -0.0033642271 
   3539000   0.05041499    -1.2202251      0.044655743   -1.0999956     -0.023004169  
   3540000   0.052136905   -1.2184246      0.046732472   -1.0935373     -0.014535207  
   3541000   0.05330843    -1.2187775      0.044236312   -1.0946301     -0.0089193296 
   3542000   0.048101382   -1.2183301      0.045566435   -1.1006581     -0.013771271  
   3543000   0.048051068   -1.2169458      0.042444747   -1.102471      -0.0021202856 
   3544000   0.049358208   -1.2182706      0.046693148   -1.0975879     -0.024023613  
   3545000   0.048772651   -1.2194024      0.045034956   -1.1012557     -0.015106558  
   3546000   0.05125033    -1.2188592      0.044719277   -1.097314      -0.018527506  
   3547000   0.051877736   -1.217782       0.046055014   -1.0939605     -0.010578985  
   3548000   0.048733173   -1.2185284      0.047489265   -1.0979865     -0.0089285079 
   3549000   0.051968358   -1.2189352      0.044745617   -1.0962873     -0.0043948474 
   3550000   0.049647862   -1.2194617      0.045554221   -1.0994837     -0.019707703  
   3551000   0.05022409    -1.2202209      0.046376079   -1.0985573     -0.019495516  
   3552000   0.050595666   -1.2184295      0.045539364   -1.0970456     -0.020347211  
   3553000   0.051256879   -1.2185217      0.047404195   -1.0942818     -0.012066403  
   3554000   0.050511292   -1.2178997      0.045711524   -1.0964701     -0.017810742  
   3555000   0.050353384   -1.2197692      0.046124502   -1.0981634     -0.015190786  
   3556000   0.050017606   -1.2191953      0.045587506   -1.0986298     -0.014947837  
   3557000   0.050942489   -1.21851        0.046906308   -1.0952392     -0.017462536  
   3558000   0.048204529   -1.2187612      0.046921515   -1.0995796     -0.013479445  
   3559000   0.049616571   -1.2186514      0.045262277   -1.0990123     -0.011835343  
   3560000   0.05137049    -1.2181706      0.044587585   -1.096577      -0.016020244  
   3561000   0.05071303    -1.2184621      0.046386483   -1.0960551     -0.011903417  
   3562000   0.049597687   -1.2172521      0.043611723   -1.0992918     -0.012394053  
   3563000   0.049630026   -1.2174767      0.047150919   -1.0959288     -0.018759001  
   3564000   0.051683912   -1.2189178      0.048719324   -1.0927226     -0.025727963  
   3565000   0.049343146   -1.21858        0.046919626   -1.0976934     -0.019625191  
   3566000   0.051320687   -1.2196125      0.046125684   -1.0965554     -0.0070757319 
   3567000   0.051130023   -1.2177148      0.045734158   -1.0953351     -0.013586557  
   3568000   0.050412611   -1.219248       0.04596181    -1.0977161     -0.016091233  
   3569000   0.051692899   -1.2174459      0.04376783    -1.0961888     -0.0043381063 
   3570000   0.051076076   -1.2172987      0.043273595   -1.0974604     -0.0035869865 
   3571000   0.048588908   -1.2179109      0.042752964   -1.1023216     -0.0131396    
   3572000   0.048193678   -1.2181235      0.045540019   -1.1003396     -0.0074457796 
   3573000   0.049446382   -1.2181354      0.045291138   -1.0987225     -0.013740408  
   3574000   0.050868619   -1.2177557      0.043117715   -1.0983843     -0.0041411706 
   3575000   0.050313153   -1.219539       0.045711709   -1.0984063     -0.011262645  
   3576000   0.050634737   -1.2197657      0.045179132   -1.0986835     -0.010875309  
   3577000   0.049337555   -1.2186968      0.045457445   -1.0992807     -0.017382982  
   3578000   0.049006244   -1.217792       0.043079434   -1.1012507     -0.014989359  
   3579000   0.048696135   -1.2206974      0.045210322   -1.10249       -0.003421251  
   3580000   0.048917133   -1.2202729      0.04480007    -1.1021444     -0.016147304  
   3581000   0.049935478   -1.2207432      0.045852007   -1.1000363     -0.011162333  
   3582000   0.050114765   -1.2174227      0.046223739   -1.0960753     -0.01308242   
   3583000   0.049653579   -1.2190994      0.046327464   -1.0983396     -0.0046887438 
   3584000   0.049105785   -1.2194808      0.046587492   -1.0992821     -0.016458946  
   3585000   0.049643933   -1.2174637      0.044105683   -1.0989402     -0.024227856  
   3586000   0.049883677   -1.2193716      0.044560779   -1.1000335     -0.011855909  
   3587000   0.050791763   -1.2187452      0.042960672   -1.0996461      0.0044091852 
   3588000   0.049655152   -1.2182571      0.044395785   -1.0994266     -0.0062066075 
   3589000   0.051011625   -1.217156       0.044248695   -1.0964393     -0.0073390204 
   3590000   0.048085219   -1.2185062      0.041622428   -1.1048025     -0.0075020346 
   3591000   0.048204357   -1.2188413      0.045033812   -1.1015476     -0.015634579  
   3592000   0.05100946    -1.2167574      0.044097159   -1.0961954      0.0022268931 
   3593000   0.048982364   -1.2190671      0.046540096   -1.0991008     -0.020487086  
   3594000   0.050287008   -1.2186635      0.046740683   -1.096541      -0.012238161  
   3595000   0.050880127   -1.2188886      0.04529127    -1.0973263     -0.0060936577 
   3596000   0.050516661   -1.2182567      0.044391054   -1.0981395     -0.011774782  
   3597000   0.049453586   -1.2185009      0.046939904   -1.0974285     -0.0011314738 
   3598000   0.04904112    -1.2180253      0.047598875   -1.0969122     -0.015603031  
   3599000   0.05091132    -1.2182012      0.047097698   -1.0947858     -0.0098772758 
   3600000   0.049397895   -1.2180135      0.044962969   -1.0990015     -0.0083126293 
   3601000   0.050498097   -1.2172796      0.045530917   -1.0960504     -0.0096991108 
   3602000   0.049533131   -1.2178966      0.043965695   -1.0996791      0.0044404995 
   3603000   0.049229211   -1.2187671      0.046999509   -1.0979714     -0.010260835  
   3604000   0.050998949   -1.2173854      0.045788716   -1.0951476     -0.014554145  
   3605000   0.05177573    -1.2185933      0.045443634   -1.0955362     -0.005258398  
   3606000   0.048917406   -1.2184613      0.045524972   -1.0996076     -0.017064722  
   3607000   0.050145064   -1.2180051      0.044583816   -1.0982522     -0.010644902  
   3608000   0.049878951   -1.2187328      0.044272498   -1.0996902     -0.015108122  
   3609000   0.049497889   -1.2192869      0.046243056   -1.0988449     -0.0069164673 
   3610000   0.050265046   -1.2199118      0.043494931   -1.1010679     -0.012657851  
   3611000   0.050373531   -1.2196866      0.046913261   -1.0972618     -0.016303213  
   3612000   0.051160579   -1.2189144      0.0469462     -1.0952768     -0.00032790106
   3613000   0.050889969   -1.2185507      0.046647356   -1.0956176     -0.0071443546 
   3614000   0.052093375   -1.2184782      0.043572984   -1.0968155     -0.010730336  
   3615000   0.050722094   -1.2200702      0.044964924   -1.0990712     -0.01187464   
   3616000   0.049446016   -1.2185468      0.045050053   -1.0993755     -0.013472689  
   3617000   0.050584602   -1.2190408      0.044631655   -1.0985812     -0.018245425  
   3618000   0.051662306   -1.2191145      0.045163145   -1.0965079     -0.015042572  
   3619000   0.049826332   -1.2172497      0.046392906   -1.0961656     -0.011804941  
   3620000   0.050788072   -1.2197458      0.044354018   -1.0992588     -0.012050421  
   3621000   0.050622725   -1.2186199      0.046878343   -1.0958565     -0.0093167907 
   3622000   0.048596332   -1.2186135      0.046519598   -1.0992465     -0.01138485   
   3623000   0.048850888   -1.2187936      0.045840528   -1.099724      -0.0023198218 
   3624000   0.05010329    -1.2198983      0.043525938   -1.1012659     -0.0053380811 
   3625000   0.049276206   -1.2188977      0.046272221   -1.0987589     -0.0099486563 
   3626000   0.048403829   -1.2193926      0.047004929   -1.0998287     -0.0090414151 
   3627000   0.047401391   -1.2169673      0.043262182   -1.1026489     -0.0014089553 
   3628000   0.048936831   -1.2190817      0.044044884   -1.1016789     -0.016582222  
   3629000   0.049057026   -1.2178159      0.046247282   -1.0980306     -0.019242297  
   3630000   0.049890451   -1.2191716      0.045738258   -1.0986459     -0.019849227  
   3631000   0.049977375   -1.2198476      0.045188197   -1.0997417     -0.011367842  
   3632000   0.049991797   -1.2181384      0.046117291   -1.0970818     -0.012620533  
   3633000   0.049459849   -1.217686       0.046693999   -1.0968501     -0.0051919321 
   3634000   0.048609665   -1.2172152      0.046762926   -1.0975849     -0.016698701  
   3635000   0.049547023   -1.2186631      0.046025643   -1.0983648     -0.0096227462 
   3636000   0.050941741   -1.218545       0.045743982   -1.0964377     -0.015131372  
   3637000   0.051121331   -1.2190426      0.044228214   -1.0981819     -0.018832127  
   3638000   0.049592799   -1.2175452      0.047551923   -1.0956521     -0.017880284  
   3639000   0.050472637   -1.2188312      0.045527977   -1.0976431     -0.015599399  
   3640000   0.049620912   -1.219035       0.045282972   -1.0993686     -0.0097163118 
   3641000   0.051308347   -1.2175969      0.044656788   -1.0960273     -0.013164411  
   3642000   0.052373497   -1.2189758      0.045302317   -1.0951639     -0.017859391  
   3643000   0.051173609   -1.2182096      0.045034848   -1.0964638     -0.022331743  
   3644000   0.051631289   -1.2192121      0.044486242   -1.0973289     -0.0091050348 
   3645000   0.04827357    -1.2192532      0.046320196   -1.1005694     -0.018875178  
   3646000   0.050615692   -1.2198603      0.045967199   -1.0980185     -0.023239969  
   3647000   0.051007021   -1.2195273      0.04788898    -1.0951771     -0.0079031076 
   3648000   0.051892931   -1.219583       0.044870835   -1.096923      -0.012805714  
   3649000   0.051462697   -1.2197984      0.044862      -1.0977921     -0.011931154  
   3650000   0.051220156   -1.2195136      0.044597712   -1.0981352     -0.016128776  
   3651000   0.053036457   -1.220127       0.043640325   -1.0969833     -0.011049945  
   3652000   0.051574173   -1.2201062      0.044247872   -1.098547      -0.017750772  
   3653000   0.051007979   -1.2201263      0.046450215   -1.0972135     -0.011574003  
   3654000   0.048398467   -1.2204456      0.045015901   -1.1028788     -0.014807649  
   3655000   0.052294479   -1.2222132      0.046027005   -1.0977951     -0.00870044   
   3656000   0.052022159   -1.2202979      0.046103738   -1.0962112     -0.010547858  
   3657000   0.050015517   -1.2199436      0.046856325   -1.0981124     -0.014930497  
   3658000   0.05126453    -1.2217292      0.046595635   -1.0982864     -0.018344982  
   3659000   0.051992941   -1.2197119      0.04439551    -1.0973773     -0.0090150651 
   3660000   0.051471438   -1.2222029      0.048198753   -1.0968468     -0.0093075559 
   3661000   0.053321203   -1.2233095      0.046940164   -1.0964391     -0.015873374  
   3662000   0.05006027    -1.2234707      0.045771692   -1.1026571     -0.014659032  
   3663000   0.049265507   -1.2218252      0.045825649   -1.102149      -0.0040943061 
   3664000   0.049932268   -1.2247558      0.045531267   -1.1043744     -0.012770076  
   3665000   0.048935694   -1.2232109      0.044840535   -1.1050142     -0.013871641  
   3666000   0.048165809   -1.2229383      0.043746633   -1.1069895     -0.0066739731 
   3667000   0.051012123   -1.2222903      0.047634292   -1.0981872     -0.0049566314 
   3668000   0.051483207   -1.2225854      0.044232756   -1.1011776     -0.00827463   
   3669000   0.051033139   -1.2231824      0.048763972   -1.0979181     -0.01407737   
   3670000   0.050806528   -1.2224792      0.045259237   -1.1010593      0.0010236869 
   3671000   0.049914039   -1.2244533      0.04560753    -1.104023      -0.011535813  
   3672000   0.049675476   -1.2236772      0.043767369   -1.1054447     -0.0095674127 
   3673000   0.04861665    -1.2257618      0.046683007   -1.1062009     -0.014767205  
   3674000   0.048709345   -1.2229771      0.044596853   -1.1053633     -0.0063577111 
   3675000   0.048883942   -1.2230686      0.043958113   -1.1058319     -0.0089660809 
   3676000   0.050350248   -1.2231519      0.04571996    -1.1019553     -0.0059041962 
   3677000   0.049301091   -1.2221314      0.044972218   -1.1032552     -0.0056015539 
   3678000   0.050884725   -1.2227642      0.04379692    -1.1026895     -0.0022620424 
   3679000   0.05169804    -1.2239631      0.048426049   -1.09804       -0.011128862  
   3680000   0.053159945   -1.2245953      0.046104666   -1.0988021     -0.017748728  
   3681000   0.05027928    -1.2226898      0.044523467   -1.1027961     -0.017324891  
   3682000   0.049015561   -1.2237553      0.045003089   -1.1052763     -0.013614568  
   3683000   0.050305471   -1.2244266      0.045197802   -1.1038193     -0.015585008  
   3684000   0.04993353    -1.2228609      0.044815137   -1.1031938     -0.021057933  
   3685000   0.051195341   -1.2240902      0.047849102   -1.0994976     -0.018323543  
   3686000   0.05169798    -1.222844       0.045735552   -1.0996115     -0.013076958  
   3687000   0.051366304   -1.2243106      0.047162235   -1.1001486     -0.019354718  
   3688000   0.051334229   -1.2246318      0.045859194   -1.1018209     -0.017911265  
   3689000   0.050396004   -1.2244587      0.046022301   -1.1028911     -0.021628037  
   3690000   0.049685253   -1.2226267      0.045260141   -1.1028867     -0.010464692  
   3691000   0.051074693   -1.2236807      0.044116244   -1.1030019     -0.0027641613 
   3692000   0.05014745    -1.2227988      0.045325012   -1.1023012     -0.013874127  
   3693000   0.049863276   -1.2224623      0.046029474   -1.1016861     -0.015008118  
   3694000   0.050580728   -1.223935       0.047133215   -1.1009796     -0.011483194  
   3695000   0.049672025   -1.2219479      0.047360125   -1.1001278     -0.013620984  
   3696000   0.051361966   -1.2227024      0.046102191   -1.099607      -0.0085277022 
   3697000   0.050938853   -1.221862       0.047171799   -1.0983312     -0.010324867  
   3698000   0.049862333   -1.2222215      0.044453      -1.1030233     -0.015685358  
   3699000   0.051586004   -1.2220173      0.045387966   -1.0993003     -0.007993929  
   3700000   0.050907552   -1.2249153      0.048776467   -1.0998268     -0.010663486  
   3701000   0.049001053   -1.2242495      0.046213834   -1.1045815     -0.011809673  
   3702000   0.050332524   -1.2235408      0.043922484   -1.1041682     -0.014709635  
   3703000   0.049157681   -1.2226312      0.047471582   -1.1014706     -0.0051592784 
   3704000   0.048740981   -1.2228472      0.048782311   -1.1010006     -0.011662577  
   3705000   0.050563423   -1.2240115      0.04615602    -1.1020593     -0.010311493  
   3706000   0.048781211   -1.2238387      0.046631498   -1.1040826     -0.020021354  
   3707000   0.048184181   -1.2233324      0.047160041   -1.1039428     -0.012551008  
   3708000   0.051120367   -1.2226745      0.044176782   -1.1018666     -0.018347147  
   3709000   0.051959976   -1.2244761      0.046468305   -1.1001182     -0.025533722  
   3710000   0.05030727    -1.2234186      0.045871473   -1.1021349     -0.017955998  
   3711000   0.051620911   -1.2230003      0.048220182   -1.0973987     -0.021368826  
   3712000   0.052359149   -1.2232132      0.0450438     -1.0996813     -0.0062976398 
   3713000   0.051051514   -1.2229424      0.04694099    -1.0994736     -0.0086317789 
   3714000   0.050579775   -1.2243549      0.04773765    -1.1007965     -0.011563349  
   3715000   0.050122393   -1.2238819      0.047067877   -1.1016789     -0.019338003  
   3716000   0.051704941   -1.223376       0.047884221   -1.0979844     -0.0148951    
   3717000   0.050779403   -1.2225384      0.04570262    -1.1007158     -0.0066298879 
   3718000   0.049697727   -1.223157       0.044552894   -1.1041056     -0.012958571  
   3719000   0.049841907   -1.2239649      0.044746971   -1.1045033     -0.0089122689 
   3720000   0.050262677   -1.224144       0.04438954    -1.1044091     -0.016200517  
   3721000   0.048366052   -1.2233181      0.045034232   -1.1057816     -0.011537869  
   3722000   0.049954997   -1.2224533      0.042587683   -1.1049815     -0.017380494  
   3723000   0.048894934   -1.2256236      0.04503605    -1.1072924     -0.018069514  
   3724000   0.050007911   -1.2218367      0.044939818   -1.1019334     -0.012306763  
   3725000   0.051446367   -1.2232627      0.045436808   -1.1007061     -0.018980261  
   3726000   0.051385367   -1.223916       0.046872129   -1.1000155     -0.016599736  
   3727000   0.049642044   -1.2234839      0.046778477   -1.1022904     -0.01366863   
   3728000   0.050118242   -1.2240814      0.045357767   -1.1035947     -0.0092656586 
   3729000   0.049073644   -1.2232625      0.044086069   -1.1056134     -0.0060285592 
   3730000   0.04992993    -1.2235758      0.046241854   -1.1024874     -0.010003483  
   3731000   0.050823227   -1.2210914      0.045110846   -1.0997949     -0.01489329   
   3732000   0.051962108   -1.2238903      0.044366411   -1.1016311     -0.0093767679 
   3733000   0.051209934   -1.2239728      0.047210665   -1.0999968     -0.015892095  
   3734000   0.050647934   -1.2234185      0.048611694   -1.0988839     -0.018588502  
   3735000   0.051172975   -1.2243498      0.046995859   -1.100644      -0.0067447771 
   3736000   0.050377996   -1.225318       0.047958015   -1.1018417     -0.011170682  
   3737000   0.051855154   -1.2258174      0.046568379   -1.1015165     -0.018945396  
   3738000   0.049904095   -1.2266922      0.044573146   -1.1073112     -0.014643726  
   3739000   0.05132578    -1.226598       0.04593108    -1.1037279     -0.017766264  
   3740000   0.051960006   -1.2265425      0.046989148   -1.1016636     -0.014082601  
   3741000   0.0497584     -1.2246327      0.044479419   -1.1055638     -0.013286927  
   3742000   0.049602127   -1.2259303      0.046001408   -1.1055737     -0.0084114937 
   3743000   0.050186594   -1.2261576      0.046505446   -1.1044209     -0.0030411839 
   3744000   0.049267366   -1.2264014      0.048015572   -1.1045324     -0.014810696  
   3745000   0.051004768   -1.2263928      0.046083796   -1.1038512     -0.002142664  
   3746000   0.050064855   -1.2266817      0.045166404   -1.1064664     -0.011062461  
   3747000   0.050282785   -1.2285682      0.04860669    -1.104586      -0.011358931  
   3748000   0.048844498   -1.2283359      0.046218115   -1.1088983     -0.022838048  
   3749000   0.048622365   -1.2256872      0.047041434   -1.1057593     -0.019060087  
   3750000   0.051179181   -1.2266722      0.047405726   -1.1025472     -0.0078616125 
   3751000   0.050651196   -1.2265433      0.045847718   -1.1047678     -0.013531768  
   3752000   0.050779994   -1.2259086      0.046873485   -1.1029143     -0.01408961   
   3753000   0.049987053   -1.2252838      0.0451301     -1.1052215     -0.011388017  
   3754000   0.050883764   -1.2252493      0.045886047   -1.1030869     -0.013701137  
   3755000   0.050323253   -1.2252657      0.045425662   -1.1044039     -0.012531637  
   3756000   0.049417744   -1.2259193      0.04521258    -1.1066279     -0.021015895  
   3757000   0.049784422   -1.22543        0.046395727   -1.1044058     -0.010454266  
   3758000   0.048161962   -1.2265402      0.047340355   -1.1070036     -0.014161292  
   3759000   0.050024613   -1.2264416      0.046676565   -1.1047765     -0.013897888  
   3760000   0.04953034    -1.226325       0.04680861    -1.1052688     -0.0052800573 
   3761000   0.050044328   -1.2257397      0.045811551   -1.1049101     -0.012062164  
   3762000   0.050542441   -1.2262153      0.045915316   -1.1045352     -0.012802452  
   3763000   0.050866057   -1.2271448      0.048712606   -1.1021823     -0.0079429953 
   3764000   0.051680233   -1.2266971      0.048032194   -1.1011946     -0.0085813558 
   3765000   0.050403065   -1.2249341      0.047622889   -1.1017554     -0.0058306624 
   3766000   0.049962268   -1.2252708      0.044504648   -1.1058711      0.0011990334 
   3767000   0.049635686   -1.226765       0.045848779   -1.1065107     -0.015471951  
   3768000   0.049606209   -1.2279092      0.047015531   -1.1065324     -0.021419014  
   3769000   0.049668965   -1.2244786      0.045439144   -1.1045841     -0.010568463  
   3770000   0.050332686   -1.2266162      0.04652259    -1.1046433     -0.015439356  
   3771000   0.051195563   -1.2254897      0.04747504    -1.1012708     -0.014102098  
   3772000   0.051521726   -1.2279185      0.046749993   -1.1039358     -0.0091374952 
   3773000   0.049829386   -1.2262092      0.044868534   -1.1066448     -0.017682651  
   3774000   0.049840679   -1.2263618      0.047581262   -1.1040677     -0.024628351  
   3775000   0.048496617   -1.2243144      0.046601225   -1.1050152     -0.0093494786 
   3776000   0.051659716   -1.2261464      0.045133817   -1.103573      -0.022617122  
   3777000   0.050952688   -1.2250271      0.045417826   -1.1032296     -0.00080032419
   3778000   0.051923675   -1.2261932      0.045570078   -1.1027879     -0.016539608  
   3779000   0.051494616   -1.225345       0.045877292   -1.1022756     -0.01259857   
   3780000   0.051716426   -1.2265576      0.044923753   -1.1041093     -0.0038314622 
   3781000   0.050913791   -1.2257653      0.046085704   -1.1033582     -0.014385333  
   3782000   0.049538104   -1.227414       0.046032363   -1.1071224     -0.022594969  
   3783000   0.049143588   -1.2276327      0.043956677   -1.1100082     -0.013173138  
   3784000   0.052813722   -1.2282729      0.047549044   -1.1015544     -0.0060122083 
   3785000   0.052750908   -1.2301557      0.046778071   -1.1043023     -0.014958508  
   3786000   0.050852402   -1.2299225      0.047049015   -1.1066441     -0.0051876531 
   3787000   0.048930798   -1.2304464      0.04615542    -1.1109421     -0.014747721  
   3788000   0.05113765    -1.2308923      0.045194538   -1.1090408     -0.014200609  
   3789000   0.049593529   -1.2290974      0.045742748   -1.1090124     -0.014032608  
   3790000   0.05087582    -1.2303102      0.046066361   -1.1079794     -0.0087058348 
   3791000   0.050753774   -1.2314729      0.045895691   -1.1094957     -0.0089483111 
   3792000   0.049285953   -1.2296183      0.046061332   -1.1096757     -0.008370463  
   3793000   0.05098425    -1.2308247      0.044760079   -1.1096376     -0.0065513804 
   3794000   0.051001077   -1.2307067      0.046828151   -1.1074263     -0.0081134758 
   3795000   0.050685412   -1.2298699      0.04578495    -1.1081058     -0.010155972  
   3796000   0.051899842   -1.2314134      0.046871788   -1.1067421     -0.0083291486 
   3797000   0.04895182    -1.2303782      0.046393614   -1.1106043     -0.016527044  
   3798000   0.05026446    -1.228801       0.041932796   -1.1115202     -0.002253643  
   3799000   0.051492678   -1.2306339      0.04552424    -1.1079204     -0.0087046534 
   3800000   0.050733865   -1.2294098      0.045565186   -1.1077929     -0.010992616  
   3801000   0.050189268   -1.2302617      0.046560887   -1.1084654     -0.011407207  
   3802000   0.052477407   -1.2315938      0.047687541   -1.105241      -0.0044927735 
   3803000   0.050469303   -1.2316317      0.045692164   -1.1102844     -0.014155981  
   3804000   0.050671619   -1.2315253      0.044835638   -1.1107313     -0.015587926  
   3805000   0.049311296   -1.2310582      0.045627887   -1.111511      -0.020614159  
   3806000   0.049584026   -1.2298113      0.044564611   -1.1109187     -0.0020049867 
   3807000   0.050748208   -1.2289634      0.044867429   -1.1080228     -0.0036327803 
   3808000   0.050297355   -1.2303843      0.046149903   -1.1088371     -0.0017622849 
   3809000   0.050466464   -1.2295698      0.044738412   -1.1091805     -0.0080240533 
   3810000   0.050091776   -1.230383       0.044018162   -1.1112757      0.0046272487 
   3811000   0.051558802   -1.2296183      0.045082364   -1.1072477     -0.0011824257 
   3812000   0.049267182   -1.2310979      0.044332171   -1.1129126     -0.0086168298 
   3813000   0.049513334   -1.2308431      0.045131902   -1.1114892     -0.0099569862 
   3814000   0.050174928   -1.2308981      0.041854514   -1.1138297     -0.009014217  
   3815000   0.050152847   -1.2309529      0.041097608   -1.1146746     -0.0065894838 
   3816000   0.049659009   -1.2308536      0.047163915   -1.1092493     -0.0092394534 
   3817000   0.051604067   -1.2309324      0.044195462   -1.1093808      0.00040845094
   3818000   0.05007288    -1.2302267      0.046926993   -1.1082388     -0.017243865  
   3819000   0.051157026   -1.2300496      0.046429795   -1.1069338     -0.019764678  
   3820000   0.051030066   -1.2297815      0.045366665   -1.1079191     -0.0094450213 
   3821000   0.052617875   -1.2311394      0.045167895   -1.1070956     -0.0045467744 
   3822000   0.048780473   -1.2317674      0.045408222   -1.1132357     -0.015647574  
   3823000   0.049622172   -1.2316488      0.043949974   -1.1133136     -0.019056674  
   3824000   0.049284585   -1.2306914      0.045842126   -1.1109701     -0.0059632931 
   3825000   0.050442487   -1.2304616      0.044371871   -1.1104748     -0.0019756522 
   3826000   0.049593819   -1.2302642      0.046289796   -1.1096317     -0.011913534  
   3827000   0.050402774   -1.2289909      0.045188272   -1.1082473     -0.0064102356 
   3828000   0.051442862   -1.2311867      0.046891607   -1.1071806     -0.00061753656
   3829000   0.053723394   -1.232354       0.046219765   -1.1056011     -0.0064646212 
   3830000   0.05386278    -1.2313572      0.044852908   -1.1057622     -0.0029047293 
   3831000   0.051370441   -1.2353278      0.047560647   -1.1107612     -0.007818039  
   3832000   0.051413379   -1.2344619      0.046813752   -1.1105778     -0.010824497  
   3833000   0.050690041   -1.2340531      0.046883431   -1.1111836     -0.011609702  
   3834000   0.050916765   -1.2362734      0.046946657   -1.1130008     -0.0033541322 
   3835000   0.049602656   -1.23602        0.04743685    -1.1142271     -0.012617178  
   3836000   0.048931522   -1.235852       0.044589328   -1.1179127     -0.018427969  
   3837000   0.049905968   -1.2355761      0.04391044    -1.116855      -0.01961788   
   3838000   0.049306346   -1.234671       0.045780226   -1.114979      -0.017084711  
   3839000   0.049900755   -1.2351109      0.049535254   -1.1107728     -0.019936321  
   3840000   0.051703026   -1.2347201      0.047811649   -1.109404      -0.012958955  
   3841000   0.050406969   -1.2341285      0.04596486    -1.112602      -0.015287155  
   3842000   0.050825344   -1.2362096      0.047228439   -1.1127924     -0.013408562  
   3843000   0.05026559    -1.2349563      0.047792008   -1.1118145     -0.015051472  
   3844000   0.048900515   -1.2353453      0.046333491   -1.1157084     -0.012825337  
   3845000   0.047750095   -1.2346218      0.047152428   -1.1158905     -0.0044601371 
   3846000   0.050044934   -1.2349234      0.046770287   -1.1131342     -0.013683562  
   3847000   0.048525572   -1.2354955      0.045445947   -1.1173082     -0.013845329  
   3848000   0.048960655   -1.2354115      0.04745368    -1.1145642     -0.010867996  
   3849000   0.050208726   -1.2359644      0.047108903   -1.113591      -0.0060200584 
   3850000   0.049909422   -1.2358518      0.048155379   -1.1128806     -0.010507059  
   3851000   0.051553407   -1.2363866      0.045007877   -1.1140985     -0.0055190216 
   3852000   0.04854008    -1.2360913      0.045018649   -1.1183095     -0.006123808  
   3853000   0.050069216   -1.2349902      0.042907496   -1.1170273     -0.014597093  
   3854000   0.048806163   -1.2354702      0.046202938   -1.1161052     -0.0097861185 
   3855000   0.050607198   -1.2347118      0.046092207   -1.1127577     -0.0098394332 
   3856000   0.050786599   -1.2339916      0.045744774   -1.112116      -0.01567069   
   3857000   0.050945385   -1.234939       0.046091155   -1.1124791     -0.0064070752 
   3858000   0.050346157   -1.2345756      0.048376022   -1.1107291     -0.010924364  
   3859000   0.052281787   -1.2350318      0.046215991   -1.1104437     -0.00823543   
   3860000   0.051801181   -1.2350309      0.050108198   -1.107271      -0.010130516  
   3861000   0.051520983   -1.2343355      0.04644658    -1.1106574     -0.010681417  
   3862000   0.050394979   -1.2359943      0.048178544   -1.112272      -0.013091054  
   3863000   0.051017356   -1.2349911      0.046086211   -1.1124282     -0.010953383  
   3864000   0.051811687   -1.2366707      0.045359965   -1.1136434     -0.012663511  
   3865000   0.049860142   -1.235161       0.047095637   -1.1133234     -0.0093906955 
   3866000   0.050367381   -1.2341008      0.047586527   -1.111012      -0.017327656  
   3867000   0.050788815   -1.2345198      0.045912313   -1.1124734     -0.011225426  
   3868000   0.050928093   -1.237013       0.045305564   -1.1153646     -0.023819944  
   3869000   0.050798211   -1.2357424      0.046901285   -1.112693      -0.004845186  
   3870000   0.05215756    -1.2359885      0.044434421   -1.1133682     -0.013613309  
   3871000   0.049733319   -1.2345401      0.048534781   -1.1114534     -0.0089689638 
   3872000   0.050210087   -1.2375479      0.048289187   -1.1139922     -0.020036769  
   3873000   0.049791342   -1.234872       0.047172962   -1.1130602     -0.007857648  
   3874000   0.051397291   -1.2362377      0.048821858   -1.1103697     -0.013237662  
   3875000   0.050787781   -1.2336556      0.044470738   -1.1130523     -0.0087565562 
   3876000   0.051204846   -1.2334233      0.046037027   -1.1106285     -0.018420894  
   3877000   0.050291019   -1.2348326      0.047737689   -1.111707      -0.0087133618 
   3878000   0.050705805   -1.2352705      0.043972789   -1.115288      -0.0088550896 
   3879000   0.04934675    -1.2349841      0.047036431   -1.1139753     -0.014850616  
   3880000   0.049065237   -1.2347976      0.046089716   -1.1151575     -0.013343293  
   3881000   0.050466974   -1.2357006      0.046238156   -1.1138108     -0.0098340999 
   3882000   0.050189704   -1.2351762      0.047432071   -1.1125081     -0.015159221  
   3883000   0.052095976   -1.2350375      0.046266832   -1.1106771     -0.014676784  
   3884000   0.050351325   -1.2360152      0.047442858   -1.1130941     -0.016492487  
   3885000   0.048655225   -1.2350023      0.048346757   -1.1137198     -0.011233187  
   3886000   0.050829064   -1.2349824      0.046332368   -1.1124556     -0.014455858  
   3887000   0.050454437   -1.2345774      0.046229062   -1.1127155     -0.0090424407 
   3888000   0.051163108   -1.2342474      0.047145084   -1.1104072     -0.0066206957 
   3889000   0.052520336   -1.2349789      0.045426163   -1.110823      -0.0080056138 
   3890000   0.05188366    -1.2349257      0.046505392   -1.1106451     -0.008494333  
   3891000   0.051252823   -1.23589        0.04778232    -1.111278      -0.012191881  
   3892000   0.050993998   -1.2357805      0.048674715   -1.1106642      0.0013473508 
   3893000   0.051353054   -1.2361406      0.048622346   -1.1105384     -0.010815421  
   3894000   0.050988388   -1.2354632      0.048265346   -1.1107647     -0.021318869  
   3895000   0.050252716   -1.2356361      0.045994037   -1.1143117     -0.018197975  
   3896000   0.051025638   -1.2346644      0.049561111   -1.1086142     -0.015441361  
   3897000   0.05119834    -1.2355874      0.048766279   -1.1100732     -0.014489271  
   3898000   0.050585817   -1.2359795      0.048144767   -1.1120049     -0.018944328  
   3899000   0.051826995   -1.2360695      0.047834407   -1.1105448     -0.021553119  
   3900000   0.050692779   -1.23407        0.047856484   -1.1102234     -0.010561813  
   3901000   0.050149334   -1.2346084      0.047826983   -1.111606      -0.020715197  
   3902000   0.050773051   -1.2344103      0.045121108   -1.1131788     -0.011894438  
   3903000   0.049221135   -1.235937       0.046503416   -1.1156495     -0.01511753   
   3904000   0.047546884   -1.2346334      0.044128963   -1.1192301      0.00016891906
   3905000   0.047988527   -1.2347726      0.044653597   -1.1181826     -0.021172033  
   3906000   0.048775424   -1.2348785      0.046997906   -1.1147646     -0.0047358787 
   3907000   0.049501059   -1.2337893      0.045884045   -1.1137016     -0.015241073  
   3908000   0.050330981   -1.2359981      0.045439418   -1.1151109     -0.0055779495 
   3909000   0.049473631   -1.2371159      0.04723126    -1.1157221     -0.015344394  
   3910000   0.049949898   -1.2356127      0.04597702    -1.1147592     -0.010069181  
   3911000   0.049671611   -1.2356779      0.045583682   -1.1156349     -0.013689862  
   3912000   0.0502885     -1.236817       0.048297442   -1.1131355     -0.011673328  
   3913000   0.047619387   -1.2359703      0.048728934   -1.1158584     -0.010413809  
   3914000   0.051258556   -1.236641       0.047279527   -1.1125232     -0.0052743242 
   3915000   0.050127311   -1.2354308      0.045304191   -1.1149842     -0.017044127  
   3916000   0.049335427   -1.2361795      0.047409859   -1.1148143     -0.021655557  
   3917000   0.05017718    -1.2342509      0.04662818    -1.1124055     -0.014071359  
   3918000   0.0503091     -1.2357104      0.047489077   -1.1128063     -0.015785274  
   3919000   0.0512567     -1.2357387      0.044940212   -1.1139631     -0.0011500809 
   3920000   0.050444609   -1.235303       0.047075603   -1.1126093     -0.013167715  
   3921000   0.050041108   -1.2361075      0.044892497   -1.1162018     -0.013481239  
   3922000   0.049407698   -1.2363969      0.047527867   -1.1148053     -0.016054008  
   3923000   0.04990651    -1.2356262      0.049574182   -1.1112406     -0.016775929  
   3924000   0.051611337   -1.2363573      0.04555911    -1.1134311      0.00085635213
   3925000   0.050474411   -1.2361165      0.047303537   -1.1131502     -0.010342741  
   3926000   0.049906485   -1.2347062      0.04650502    -1.1133897     -0.011691594  
   3927000   0.050833677   -1.2351726      0.04766735    -1.1113039     -0.0036361686 
   3928000   0.050446955   -1.2355888      0.048189933   -1.1117773     -0.0089019431 
   3929000   0.051636333   -1.2365072      0.047910574   -1.1111921     -0.013226198  
   3930000   0.051226395   -1.2344133      0.046371177   -1.1112521     -0.011677909  
   3931000   0.050089335   -1.2340114      0.043856899   -1.115069      -0.0068685193 
   3932000   0.048876563   -1.2357152      0.048462659   -1.113985      -0.018517056  
   3933000   0.048243926   -1.2364914      0.04571708    -1.1184551      0.0015372365 
   3934000   0.049940651   -1.2374195      0.046893136   -1.1156637     -0.012654079  
   3935000   0.050305672   -1.2362445      0.047750821   -1.1130839     -0.0032360919 
   3936000   0.049542866   -1.2336467      0.045834452   -1.1135458     -0.0026614847 
   3937000   0.050671656   -1.2345941      0.048112186   -1.1105235     -0.010252217  
   3938000   0.052502692   -1.2356271      0.046199494   -1.1107244     -0.016348827  
   3939000   0.04909621    -1.2339124      0.047600292   -1.1127153     -0.013735368  
   3940000   0.050695518   -1.2345404      0.047410354   -1.1111358     -0.017249487  
   3941000   0.049964923   -1.2349958      0.045351707   -1.114745      -0.015914853  
   3942000   0.050903372   -1.2330717      0.04565964    -1.1111063     -0.0029864169 
   3943000   0.050776914   -1.2340873      0.048354049   -1.109617      -0.01290424   
   3944000   0.049209165   -1.2349184      0.046536201   -1.1146161     -0.00772622   
   3945000   0.050191168   -1.2349832      0.046038094   -1.1137069     -0.010520613  
   3946000   0.049303792   -1.2340557      0.046473226   -1.1136745     -0.0026277783 
   3947000   0.04885556    -1.2344026      0.046197977   -1.1149685     -0.0099804171 
   3948000   0.049721493   -1.2345756      0.046034737   -1.1140068     -0.0074276186 
   3949000   0.049412951   -1.2360965      0.047401294   -1.1146236     -0.010943715  
   3950000   0.049931253   -1.2340891      0.048305339   -1.1109352     -0.0070839829 
   3951000   0.051445781   -1.2342569      0.048130515   -1.1090075     -0.007780934  
   3952000   0.05048533    -1.2358215      0.046551386   -1.113591       0.0035349972 
   3953000   0.049780572   -1.2346429      0.046551485   -1.1134687     -0.0030069832 
   3954000   0.048742339   -1.2344556      0.046531688   -1.1148576     -0.013296546  
   3955000   0.0507733     -1.2347268      0.047768437   -1.1108475     -0.012456486  
   3956000   0.050988397   -1.2354192      0.048480668   -1.1105053     -0.0021800114 
   3957000   0.050503208   -1.234446       0.04654567    -1.1121944     -0.010531742  
   3958000   0.049306694   -1.2340927      0.046372405   -1.113808      -0.0056248272 
   3959000   0.049413983   -1.2355857      0.046507924   -1.1150046     -0.012949943  
   3960000   0.050976264   -1.2366264      0.04705036    -1.113161      -0.018305395  
   3961000   0.050258533   -1.2358801      0.045915179   -1.1146258     -0.012125659  
   3962000   0.049001387   -1.2359512      0.045028549   -1.117468      -0.018054635  
   3963000   0.048960764   -1.2357036      0.046018088   -1.1162918     -0.016397351  
   3964000   0.050887078   -1.2374532      0.047350172   -1.1138216     -0.015879453  
   3965000   0.04860436    -1.2342524      0.04562435    -1.1157686     -0.0082907768 
   3966000   0.050980944   -1.2362791      0.047096701   -1.1127604     -0.0029722882 
   3967000   0.048489032   -1.2364843      0.04637944    -1.1174183     -0.016666017  
   3968000   0.050600525   -1.2357794      0.047573033   -1.1123546     -0.0096829019 
   3969000   0.051804233   -1.235165       0.048031816   -1.109477      -0.012971515  
   3970000   0.051443072   -1.2350037      0.049361553   -1.1085273     -0.018341366  
   3971000   0.049621854   -1.2342175      0.047180734   -1.112652      -0.0077955101 
   3972000   0.051629521   -1.2362755      0.048842939   -1.1100382     -0.012828019  
   3973000   0.05072703    -1.2362504      0.048431599   -1.1117773     -0.013205102  
   3974000   0.049381808   -1.2361312      0.046829493   -1.1152768     -0.014161477  
   3975000   0.049112975   -1.2359532      0.046318109   -1.1160132     -0.01137031   
   3976000   0.050237025   -1.2351761      0.047597864   -1.1122713     -0.0088860774 
   3977000   0.050678181   -1.2330861      0.046598846   -1.110519      -0.014062796  
   3978000   0.050106979   -1.2334921      0.048873332   -1.1095068      0.0016686341 
   3979000   0.049893096   -1.2344962      0.047705161   -1.1119997     -0.017502759  
   3980000   0.050419408   -1.23499        0.047472395   -1.1119373     -0.011040528  
   3981000   0.049828718   -1.2354876      0.047782476   -1.1130103     -0.013108314  
   3982000   0.048640957   -1.2361466      0.048484847   -1.1147473     -0.013547849  
   3983000   0.049176048   -1.2358618      0.048714341   -1.113431      -0.010528846  
   3984000   0.04954055    -1.2352405      0.046544482   -1.1144332     -0.0094733312 
   3985000   0.04812602    -1.2350429      0.05030179    -1.1125987     -0.013798279  
   3986000   0.050803451   -1.232989       0.04580751    -1.1110254     -0.0044299793 
   3987000   0.049706831   -1.2358876      0.048903673   -1.1124718     -0.018624929  
   3988000   0.052684055   -1.2351237      0.04797463    -1.1081739     -0.024936653  
   3989000   0.050243786   -1.2349765      0.048422357   -1.1112371     -0.016496653  
   3990000   0.050777834   -1.2355549      0.047399087   -1.1120382     -0.019078237  
   3991000   0.049780173   -1.2343829      0.048297863   -1.1114629     -0.0078953909 
   3992000   0.049823822   -1.2361172      0.047027233   -1.1144024     -0.011860217  
   3993000   0.050799002   -1.235427       0.047594163   -1.1116835     -0.021621578  
   3994000   0.049371062   -1.2362206      0.04597372    -1.1162381     -0.020192073  
   3995000   0.051534582   -1.2365132      0.047674391   -1.1115868     -0.0073912053 
   3996000   0.051518214   -1.2357256      0.049326349   -1.1091718     -0.019957878  
   3997000   0.050403299   -1.2369088      0.049783606   -1.111569      -0.017451675  
   3998000   0.051514261   -1.2359822      0.048349782   -1.1104109     -0.02018917   
   3999000   0.051662161   -1.2346039      0.048945942   -1.1082147     -0.016675703  
   4000000   0.051970046   -1.2352814      0.048198597   -1.109178      -0.023669787  
Loop time of 1162.28 on 8 procs for 3500000 steps with 1550 atoms

Performance: 260179.153 tau/day, 3011.333 timesteps/s, 4.668 Matom-step/s
93.3% CPU use with 8 MPI tasks x 1 OpenMP threads

MPI task timing breakdown:
Section |  min time  |  avg time  |  max time  |%varavg| %total
---------------------------------------------------------------
Pair    | 143.24     | 190.79     | 266.96     | 306.6 | 16.42
Bond    | 32.215     | 38.425     | 45.6       |  87.1 |  3.31
Neigh   | 0.61206    | 0.61343    | 0.6146     |   0.1 |  0.05
Comm    | 127.02     | 210.64     | 263.86     | 328.7 | 18.12
Output  | 7.4566     | 7.6137     | 7.7285     |   3.4 |  0.66
Modify  | 702.41     | 703.58     | 704.7      |   2.7 | 60.53
Other   |            | 10.61      |            |       |  0.91

Nlocal:         193.75 ave         385 max          56 min
Histogram: 1 1 2 0 1 1 0 1 0 1
Nghost:        559.625 ave         713 max         454 min
Histogram: 2 2 0 1 0 0 1 1 0 1
Neighs:              0 ave           0 max           0 min
Histogram: 8 0 0 0 0 0 0 0 0 0
FullNghs:      6239.75 ave       15937 max        1263 min
Histogram: 1 2 1 1 2 0 0 0 0 1

Total # of neighbors = 49918
Ave neighs/atom = 32.205161
Ave special neighs/atom = 2.1612903
Neighbor list builds = 1367
Dangerous builds = 0

# Write data for deformation

write_restart ${Dir}/${file6_name}
write_restart /home/franvt/GitRepos/molDynLammps/polymericGels/gel-bonds-1/data/0.050.30.05500-2026-01-27-123757/${file6_name}
write_restart /home/franvt/GitRepos/molDynLammps/polymericGels/gel-bonds-1/data/0.050.30.05500-2026-01-27-123757/data.hydrogel
System init for write_restart ...
WARNING: Using a manybody potential with bonds/angles/dihedrals and special_bond exclusions (src/pair.cpp:250)
Hybrid pair style last /omp style table/omp
Last active /omp style is angle_style harmonic/omp
Total wall time: 0:21:44
