LAMMPS (22 Jul 2025)
OMP_NUM_THREADS environment is not set. Defaulting to 1 thread.
  using 1 OpenMP thread(s) per MPI task
package omp 0
using multi-threaded neighbor list subroutines
# Input Script of lammps for assembly simulation of polimeric network.
# Main code is based on: https://github.com/PipeB62/Hydrogel-Simulation
# Patchy particles are with bond style.

# Felipe Benavides modified by Fco. Vazquez

# Initialization
units lj
dimension 3
boundary p p p

# Styles of atoms and that stuff
atom_style full
bond_style harmonic
angle_style harmonic
pair_style hybrid/overlay zero 0.0 lj/cut/omp 1.12 table/omp linear 5000000 threebody/table

newton on

# Create simulaiton box
region simulation_box block -$L $L -$L $L -$L $L
region simulation_box block -9.796741 $L -$L $L -$L $L
region simulation_box block -9.796741 9.796741 -$L $L -$L $L
region simulation_box block -9.796741 9.796741 -9.796741 $L -$L $L
region simulation_box block -9.796741 9.796741 -9.796741 9.796741 -$L $L
region simulation_box block -9.796741 9.796741 -9.796741 9.796741 -9.796741 $L
region simulation_box block -9.796741 9.796741 -9.796741 9.796741 -9.796741 9.796741
# N-atom-types region-ID keyword value Is necesesary the extra/special/per/atom (# of special neighbors per atom)
create_box 4 simulation_box     bond/types 1     angle/types 2     extra/bond/per/atom 10     extra/angle/per/atom 6     extra/special/per/atom 10
Created orthogonal box = (-9.796741 -9.796741 -9.796741) to (9.796741 9.796741 9.796741)
  2 by 2 by 2 MPI processor grid

# Atom types
mass 1 1.0      # CL
mass 2 1.0      # MO
mass 3 0.1      # PA
mass 4 0.1      # PB

# Coefficients
include potential.in
# Script with the pair-wise interaction and bonds between particles

bond_coeff 1 100.0 0.45
angle_coeff 1 100.0 180
angle_coeff 2 100.0 109.4712
pair_coeff 1 3 zero 0.5
pair_coeff 1 4 zero 0.5
pair_coeff 2 3 zero 0.5
pair_coeff 2 4 zero 0.5
pair_coeff 3 3 zero 0.5
pair_coeff 1 1 lj/cut/omp 1.0 1.0 1.12
pair_coeff 2 2 lj/cut/omp 1.0 1.0 1.12
pair_coeff 1 2 lj/cut/omp 1.0 1.0 1.12
pair_coeff 3 4 table/omp sysFiles/pachTab.table POT 0.6 # sw/omp sysFiles/patchyPot.sw NULL NULL PA PB
Reading pair table potential file sysFiles/pachTab.table with DATE: 2024-07-08
WARNING: 7 of 1000000 force values in table POT are inconsistent with -dE/dr.
WARNING:  Should only be flagged at inflection points (src/pair_table.cpp:469)
pair_coeff 4 4 table/omp sysFiles/pachTab.table POT 0.6 # sw/omp sysFiles/patchyPot.sw NULL NULL PA PB
Reading pair table potential file sysFiles/pachTab.table with DATE: 2024-07-08
WARNING: 7 of 1000000 force values in table POT are inconsistent with -dE/dr.
WARNING:  Should only be flagged at inflection points (src/pair_table.cpp:469)
pair_coeff * * threebody/table swapMech.3b NULL NULL PA PB
pair_modify pair lj/cut/omp shift yes


# Molecules
include molecules.in
# Script with all molecule information and create groups for computes

# Read the molecule information
molecule CL sysFiles/molecule.patchy.CL
Read molecule template CL:
# Patchy Cross-Linker
  1 molecules
  0 fragments
  0 bodies
  5 atoms with max type 3
  4 bonds with max type 1
  6 angles with max type 2
  0 dihedrals with max type 0
  0 impropers with max type 0
molecule MO sysFiles/molecule.patchy.MO
Read molecule template MO:
# Patchy Monomer
  1 molecules
  0 fragments
  0 bodies
  3 atoms with max type 4
  2 bonds with max type 1
  1 angles with max type 1
  0 dihedrals with max type 0
  0 impropers with max type 0

# Introduce the molecules
# ID style args keyword arg
region spawn_box block -$L $L -$L $L -$L $L
region spawn_box block -9.796741 $L -$L $L -$L $L
region spawn_box block -9.796741 9.796741 -$L $L -$L $L
region spawn_box block -9.796741 9.796741 -9.796741 $L -$L $L
region spawn_box block -9.796741 9.796741 -9.796741 9.796741 -$L $L
region spawn_box block -9.796741 9.796741 -9.796741 9.796741 -9.796741 $L
region spawn_box block -9.796741 9.796741 -9.796741 9.796741 -9.796741 9.796741

# create_atoms type style args keyword values
# style_random: N seed region-ID
# keyword_mol: template-ID seed
# keyword_overlap: overlap value = only insert if at least this distance from all existing atoms
# keyword_maxtry: maxtry value = number of attempts to insert a particle before failure
create_atoms 0 random ${NCL} ${seed1} spawn_box mol CL ${seed1} overlap 1.0 maxtry 5000 #xls
create_atoms 0 random 25 ${seed1} spawn_box mol CL ${seed1} overlap 1.0 maxtry 5000 
create_atoms 0 random 25 3234 spawn_box mol CL ${seed1} overlap 1.0 maxtry 5000 
create_atoms 0 random 25 3234 spawn_box mol CL 3234 overlap 1.0 maxtry 5000 
Created 125 atoms
  using lattice units in orthogonal box = (-9.796741 -9.796741 -9.796741) to (9.796741 9.796741 9.796741)
  create_atoms CPU = 0.010 seconds
create_atoms 0 random ${NMO} ${seed2} spawn_box mol MO ${seed2} overlap 1.0 maxtry 5000 #mon
create_atoms 0 random 475 ${seed2} spawn_box mol MO ${seed2} overlap 1.0 maxtry 5000 
create_atoms 0 random 475 6321 spawn_box mol MO ${seed2} overlap 1.0 maxtry 5000 
create_atoms 0 random 475 6321 spawn_box mol MO 6321 overlap 1.0 maxtry 5000 
Created 1425 atoms
  using lattice units in orthogonal box = (-9.796741 -9.796741 -9.796741) to (9.796741 9.796741 9.796741)
  create_atoms CPU = 0.009 seconds

# Create patchy particles
group CrossLinker type 1 3
125 atoms in group CrossLinker
group Monomer type 2 4
1425 atoms in group Monomer
group Patches type 3 4
1050 atoms in group Patches
group CL type 1
25 atoms in group CL
group MO type 2
475 atoms in group MO
group PA type 3
100 atoms in group PA
group CM type 1 2
500 atoms in group CM

# Neighbor list
neighbor 1.8 bin # extra-distance style
#neigh_modify delay 0 every 1 check no
#neigh_modify exclude molecule/intra CrossLinker
#neigh_modify exclude molecule/intra Monomer

# COMPUTES

# Compute global kinetic and potential energy and temperature
compute t all temp
compute p all pressure t
compute ep all pe
compute ek all ke
variable eT equal etotal
variable eB equal ebond
variable eA equal eangle
variable eM equal emol
variable ec equal ecouple
variable eC equal econserve

# Potencial energy per pair-wise interaction
compute wcaPair all pair lj/cut/omp epair
compute patchPair all pair table/omp epair
compute swapPair all pair threebody/table epair

# Compute the pressure
compute press all pressure t ke virial
compute pressVirial all pressure t virial
compute pressVirialMod all pressure t pair bond angle

# Computes for the stress
compute cstress all stress/atom t ke pair bond angle
compute cstressVirial all stress/atom t virial
compute cstressVirialMod all stress/atom t pair bond angle
compute stress all reduce sum c_cstress[*]
compute stressVirial all reduce sum c_cstressVirial[*]
compute stressVirialMod all reduce sum c_cstressVirialMod[*]

# Displacement of the central particles
compute disp CM displace/atom
compute redDisp CM reduce ave c_disp[*] # All, because yes

# Get the number of central particles per cluster
compute clusters all aggregate/atom 0.6                             # Create the clusters
compute Nclpart CM chunk/atom c_clusters compress yes discard yes   # Get the number of clusters
compute clsize CM property/chunk Nclpart count                      # Counts the atoms in each chunk
compute idcl CM property/chunk Nclpart id                           # Get the ids of the clusters

# DUMPS and FIXES

thermo ${NsaveStress}
thermo 1000

# Save global energies and temperature
fix Energy all ave/time 1 ${Nsave} ${Nsave} c_t c_wcaPair c_patchPair c_swapPair c_ep c_ek v_eT v_ec v_eC c_p v_eB v_eA v_eM c_redDisp[*] file ${Dir}/${file1_name}
fix Energy all ave/time 1 1000 ${Nsave} c_t c_wcaPair c_patchPair c_swapPair c_ep c_ek v_eT v_ec v_eC c_p v_eB v_eA v_eM c_redDisp[*] file ${Dir}/${file1_name}
fix Energy all ave/time 1 1000 1000 c_t c_wcaPair c_patchPair c_swapPair c_ep c_ek v_eT v_ec v_eC c_p v_eB v_eA v_eM c_redDisp[*] file ${Dir}/${file1_name}
fix Energy all ave/time 1 1000 1000 c_t c_wcaPair c_patchPair c_swapPair c_ep c_ek v_eT v_ec v_eC c_p v_eB v_eA v_eM c_redDisp[*] file /home/franvt/GitRepos/molDynLammps/polymericGels/gel-bonds-1/data/0.050.30.05500-2026-01-20-121005/${file1_name}
fix Energy all ave/time 1 1000 1000 c_t c_wcaPair c_patchPair c_swapPair c_ep c_ek v_eT v_ec v_eC c_p v_eB v_eA v_eM c_redDisp[*] file /home/franvt/GitRepos/molDynLammps/polymericGels/gel-bonds-1/data/0.050.30.05500-2026-01-20-121005/system_assembly.fixf

# Save Pressure and Stress tensor
fix fixStress5 all ave/time 1 ${NsaveStress} ${NsaveStress} c_p c_press[*] c_pressVirial[*] c_pressVirialMod[*] c_stress[*] c_stressVirial[*] c_stressVirialMod[*] file ${Dir}/${file2_name}
fix fixStress5 all ave/time 1 1000 ${NsaveStress} c_p c_press[*] c_pressVirial[*] c_pressVirialMod[*] c_stress[*] c_stressVirial[*] c_stressVirialMod[*] file ${Dir}/${file2_name}
fix fixStress5 all ave/time 1 1000 1000 c_p c_press[*] c_pressVirial[*] c_pressVirialMod[*] c_stress[*] c_stressVirial[*] c_stressVirialMod[*] file ${Dir}/${file2_name}
fix fixStress5 all ave/time 1 1000 1000 c_p c_press[*] c_pressVirial[*] c_pressVirialMod[*] c_stress[*] c_stressVirial[*] c_stressVirialMod[*] file /home/franvt/GitRepos/molDynLammps/polymericGels/gel-bonds-1/data/0.050.30.05500-2026-01-20-121005/${file2_name}
fix fixStress5 all ave/time 1 1000 1000 c_p c_press[*] c_pressVirial[*] c_pressVirialMod[*] c_stress[*] c_stressVirial[*] c_stressVirialMod[*] file /home/franvt/GitRepos/molDynLammps/polymericGels/gel-bonds-1/data/0.050.30.05500-2026-01-20-121005/stress_assembly.fixf

# Save the global cluster information
fix 1 CM ave/time 1 1 ${Ndump} c_idcl c_clsize file ${Dir}/${file3_name} mode vector
fix 1 CM ave/time 1 1 1000 c_idcl c_clsize file ${Dir}/${file3_name} mode vector
fix 1 CM ave/time 1 1 1000 c_idcl c_clsize file /home/franvt/GitRepos/molDynLammps/polymericGels/gel-bonds-1/data/0.050.30.05500-2026-01-20-121005/${file3_name} mode vector
fix 1 CM ave/time 1 1 1000 c_idcl c_clsize file /home/franvt/GitRepos/molDynLammps/polymericGels/gel-bonds-1/data/0.050.30.05500-2026-01-20-121005/clust_assembly.fixf mode vector

# Save atom positions with cluster id
dump dumpID all custom ${Ndump} ${Dir}/traj/${file5_name} id mol c_clusters type x y z vx vy vz
dump dumpID all custom 1000 ${Dir}/traj/${file5_name} id mol c_clusters type x y z vx vy vz
dump dumpID all custom 1000 /home/franvt/GitRepos/molDynLammps/polymericGels/gel-bonds-1/data/0.050.30.05500-2026-01-20-121005/traj/${file5_name} id mol c_clusters type x y z vx vy vz
dump dumpID all custom 1000 /home/franvt/GitRepos/molDynLammps/polymericGels/gel-bonds-1/data/0.050.30.05500-2026-01-20-121005/traj/traj_assembly.*.dumpf id mol c_clusters type x y z vx vy vz
dump_modify dumpID pbc yes # remap atoms via periodic boundary conditions

# RUN SIMULATION

# Brownian Dynamics using Langevin Thermostat

timestep ${tstep}
timestep 0.001

fix VelVerlet all nve # Use Velocity Verlet integrator

# First elevate the temperature
fix ThermoLng all langevin 0.0 ${temp} ${damp} ${seed3} # Brownian Dynamics: langevin + nve
fix ThermoLng all langevin 0.0 0.05 ${damp} ${seed3} 
fix ThermoLng all langevin 0.0 0.05 1 ${seed3} 
fix ThermoLng all langevin 0.0 0.05 1 2010 
run ${stepsheat}
run 500000
WARNING: Using a manybody potential with bonds/angles/dihedrals and special_bond exclusions (src/pair.cpp:250)
Hybrid pair style last /omp style table/omp
Last active /omp style is angle_style harmonic/omp
Neighbor list info ...
  update: every = 1 steps, delay = 0 steps, check = yes
  max neighbors/atom: 2000, page size: 100000
  master list distance cutoff = 2.92
  ghost atom cutoff = 2.92
  binsize = 1.46, bins = 14 14 14
  7 neighbor lists, perpetual/occasional/extra = 6 1 0
  (1) pair zero, perpetual, skip from (7)
      attributes: half, newton on, omp
      pair build: skip/omp
      stencil: none
      bin: none
  (2) pair lj/cut/omp, perpetual, skip from (7)
      attributes: half, newton on, omp
      pair build: skip/omp
      stencil: none
      bin: none
  (3) pair table/omp, perpetual, skip from (7)
      attributes: half, newton on, omp
      pair build: skip/omp
      stencil: none
      bin: none
  (4) pair threebody/table, perpetual, skip from (6)
      attributes: full, newton on, omp
      pair build: skip/omp
      stencil: none
      bin: none
  (5) compute aggregate/atom, occasional, copy from (6)
      attributes: full, newton on, omp
      pair build: copy
      stencil: none
      bin: none
  (6) neighbor class addition, perpetual
      attributes: full, newton on, omp
      pair build: full/bin/omp
      stencil: full/bin/3d
      bin: standard
  (7) neighbor class addition, perpetual, half/full from (6)
      attributes: half, newton on, omp
      pair build: halffull/newton/omp
      stencil: none
      bin: none
Per MPI rank memory allocation (min/avg/max) = 19.65 | 19.65 | 19.65 Mbytes
   Step          Temp          E_pair         E_mol          TotEng         Press     
         0   0              0.00041490155  0.15480456     0.15521947    -0.21361809   
      1000   0.017876509    0              0.030955285    0.057752749   -0.0873399    
      2000   0.013939615    0              0.00033202702  0.02122796    -0.0029197643 
      3000   0.0033590418   0              0.0030852648   0.0081205769   0.026995229  
      4000   0.00036701341  0              0.0029466633   0.0034968283   0.025430898  
      5000   0.00064137453  0              0.00098857199  0.0019500131   0.013048493  
      6000   0.00077718336  0              0.00035972533  0.0015247483   0.002450137  
      7000   0.00069096179  0              0.00045140299  0.001487177   -0.002543474  
      8000   0.00074537223  0              0.00051913047  0.0016364675  -0.0033111761 
      9000   0.00081222975  0              0.00056484854  0.0017824071  -0.0021627654 
     10000   0.00091783603  0              0.00062536606  0.0020012319  -0.00054981401
     11000   0.0010404822  -5.1616387e-08  0.00067772054  0.0022373853   8.6787916e-05
     12000   0.0017075752  -0.0031917957   0.0013647913   0.00073270586  1.5088899e-06
     13000   0.0013610207  -0.0031577185   0.00097887038 -0.00013863421  0.00071969075
     14000   0.0013837385  -0.0032101766   0.00095410395 -0.00018180397  0.00035009515
     15000   0.0014498331  -0.0032167593   0.00094509228 -9.8320422e-05  0.00050379217
     16000   0.0023270255  -0.0062812656   0.0016514918  -0.0011414875   0.00042509826
     17000   0.0019621263  -0.0064488992   0.0012938743  -0.0022137343   0.00020344107
     18000   0.0017776316  -0.0064479888   0.0013463368  -0.0024369249   1.9388709e-05
     19000   0.0021486198  -0.0080026565   0.0012919477  -0.0034898584  -0.00026999954
     20000   0.0033224298  -0.014227531    0.0027333614  -0.0065137399  -0.00066881483
     21000   0.0026164039  -0.014351049    0.0017232274  -0.008705748    0.0011990056 
     22000   0.0032211317  -0.016072968    0.001766278   -0.0094781092   0.00076982657
     23000   0.0028791438  -0.017501336    0.0016803426  -0.011505064    0.0005898143 
     24000   0.0025939329  -0.01768488     0.0017199919  -0.012076499    0.0005685485 
     25000   0.0026590794  -0.018981223    0.0020909505  -0.012904226    0.00012910721
     26000   0.0027407821  -0.020575212    0.0023201038  -0.014146588   -0.00083482625
     27000   0.0029243936  -0.022285808    0.0025722619  -0.015329786   -5.0902212e-05
     28000   0.0028759949  -0.022552788    0.0019226872  -0.016318891    0.0002095556 
     29000   0.0031062589  -0.024131152    0.0024169682  -0.017057802   -0.00021292321
     30000   0.0038338101  -0.02758193     0.0031578934  -0.018677031   -0.0015389068 
     31000   0.0034407965  -0.028846876    0.0026171115  -0.021071899    0.00046325488
     32000   0.0041823666  -0.033557147    0.0035684586  -0.023719186   -0.00051053928
     33000   0.0038345295  -0.033824753    0.0025261327  -0.025550536    0.00025222466
     34000   0.0037636956  -0.035338016    0.0027032356  -0.02699288     0.0010476148 
     35000   0.0035737822  -0.035406169    0.0024698829  -0.027579072    0.00020027171
     36000   0.0054304688  -0.044511573    0.0040592351  -0.03231189     0.00027552271
     37000   0.0047832028  -0.047818923    0.0034554703  -0.037193277    0.00040679468
     38000   0.0046062334  -0.049523565    0.0031198442  -0.039498829   -0.0012996406 
     39000   0.0040361925  -0.049879225    0.0030027455  -0.040826097    0.00063223573
     40000   0.0047345799  -0.054506036    0.0036771626  -0.043731585    0.00014774488
     41000   0.0047317295  -0.057638126    0.0036595893  -0.046885521    0.00035095278
     42000   0.0048045281  -0.060911061    0.0037018537  -0.050007065   -0.00061953081
     43000   0.0049028446  -0.062139428    0.0032521543  -0.051537751   -2.7651165e-05
     44000   0.0057895474  -0.067515244    0.003780909   -0.055055616    0.00084588548
     45000   0.0047018924  -0.067525183    0.0033911253  -0.057085769    0.0014381187 
     46000   0.0050994446  -0.069088535    0.0032916939  -0.058152609   -0.00031411964
     47000   0.0055660251  -0.070844672    0.0037078326  -0.058793188    0.0013633416 
     48000   0.0060595579  -0.074020194    0.0040233564  -0.060913364    0.0019702637 
     49000   0.0074302921  -0.082912176    0.0050075799  -0.066766349    0.00024957522
     50000   0.0068878686  -0.087290852    0.0050064448  -0.071959269   -0.00018082634
     51000   0.0060664672  -0.090872845    0.0050490808  -0.076729934   -0.00047430372
     52000   0.0063853669  -0.094017562    0.0042921412  -0.08015355     0.0011170737 
     53000   0.0062403833  -0.097626803    0.0048805506  -0.083391716    0.00052970181
     54000   0.0066194386  -0.100528       0.0043465111  -0.086258736   -0.0015807026 
     55000   0.0070180963  -0.10589075     0.0047719443  -0.090598451    0.0012002955 
     56000   0.0065743397  -0.10886142     0.0041825601  -0.094823713   -0.00016180918
     57000   0.0057485313  -0.10941481     0.004278871   -0.096518709    0.00048136054
     58000   0.0062345792  -0.11108711     0.0041873307  -0.097553945    0.00049062519
     59000   0.0069459266  -0.11648211     0.0050346568  -0.10103529     6.3251345e-05
     60000   0.0073424225  -0.12223951     0.0051624658  -0.10607051     0.00058517362
     61000   0.0072293563  -0.12627161     0.0047183224  -0.11071625    -0.00058307832
     62000   0.0067830187  -0.12986384     0.0050017997  -0.11469407     0.0013560055 
     63000   0.0080538942  -0.13583374     0.005541039   -0.11821965     0.00047055811
     64000   0.0069640884  -0.13742181     0.0055132419  -0.12146917     9.6667454e-05
     65000   0.0071243883  -0.13997546     0.0055278973  -0.12376787    -0.00071782079
     66000   0.0077482959  -0.1443734      0.0057457106  -0.12701274     0.00010247383
     67000   0.0081443202  -0.14609248     0.0060951361  -0.12778875     0.0081446816 
     68000   0.0083577595  -0.15049501     0.0055450815  -0.13242137     0.0039292569 
     69000   0.0075904495  -0.15256283     0.0051855903  -0.13599891     0.00078800718
     70000   0.0080417746  -0.15589202     0.0055097832  -0.13832736     0.001532814  
     71000   0.0078298869  -0.15885221     0.0053334466  -0.14178151     0.0012875085 
     72000   0.0082052323  -0.16328577     0.0065721592  -0.1444137      0.00076562874
     73000   0.0094493166  -0.17048847     0.0060983012  -0.15022534     0.0012691005 
     74000   0.009063447   -0.17473621     0.0062001314  -0.15494968     0.0023798284 
     75000   0.009042606   -0.17871094     0.0070737271  -0.15808206     0.0017944177 
     76000   0.0081528666  -0.17924193     0.0055310033  -0.16148951     0.0013724409 
     77000   0.0083823494  -0.18240867     0.0061667891  -0.16367646     0.00059036668
     78000   0.0089504687  -0.18720224     0.0063240531  -0.16746114    -4.924315e-05 
     79000   0.0085588371  -0.19045439     0.0067365584  -0.17088785    -0.00054050694
     80000   0.0088455185  -0.19384543     0.0069784152  -0.17360729    -0.00026131514
     81000   0.0080731171  -0.19399797     0.0058624665  -0.17603364     0.00043158439
     82000   0.0094052286  -0.19863621     0.0064851619  -0.17805231    -8.9278368e-05
     83000   0.0084219147  -0.19880179     0.0063311041  -0.17984596     0.0016785918 
     84000   0.009867637   -0.20322084     0.0068580392  -0.18157089     0.0003642384 
     85000   0.0093918679  -0.20476112     0.0064319742  -0.18425043     0.0026960446 
     86000   0.009102588   -0.20666698     0.0063029564  -0.18671895     0.0015144878 
     87000   0.01079528    -0.21273535     0.0078149681  -0.1887379      0.0001176948 
     88000   0.010158292   -0.21506948     0.0064944953  -0.19334738     0.0013820333 
     89000   0.00901004    -0.21491784     0.0062286297  -0.19518287     0.00081346517
     90000   0.0094755791  -0.21789942     0.0068221966  -0.19687302     0.00054596862
     91000   0.0093433658  -0.21811749     0.0063180686  -0.19779342     0.0005033066 
     92000   0.010578787   -0.22118214     0.0068635882  -0.19846061    -0.0015561692 
     93000   0.010389738   -0.22480624     0.0074981163  -0.20173357     0.0016124978 
     94000   0.010843145   -0.22903079     0.0078517753  -0.20492479    -0.00062757761
     95000   0.010970739   -0.23234472     0.0074789014  -0.20842033     0.0014218522 
     96000   0.010693976   -0.23787354     0.0082191707  -0.21362375     0.0013926565 
     97000   0.0107259     -0.2413234      0.0082942372  -0.21695069    -0.0020152405 
     98000   0.010504725   -0.24289347     0.0082892083  -0.21885734     0.002900391  
     99000   0.01028091    -0.24448211     0.007020224   -0.22205047     0.0013689527 
    100000   0.011089909   -0.24774431     0.0073377531  -0.22378242     0.0045829245 
    101000   0.011083582   -0.25208761     0.0079738699  -0.22749909    -0.0011286778 
    102000   0.011524492   -0.25754247     0.0075025029  -0.23276438     0.0012271187 
    103000   0.011639134   -0.2630965      0.0089000986  -0.23674897     0.0015039603 
    104000   0.011140479   -0.26646209     0.0084754635  -0.24128669     0.0036347877 
    105000   0.011798111   -0.26867151     0.0080760483  -0.24290972     0.0020310975 
    106000   0.012061172   -0.27302359     0.008467132   -0.24647637     0.0021186521 
    107000   0.011943266   -0.27796529     0.0088236057  -0.25123835     0.00020340863
    108000   0.01200629    -0.28119203     0.0087291004  -0.25446511     0.00053146064
    109000   0.012740315   -0.28523483     0.0082344881  -0.2579022      0.0020242901 
    110000   0.012041804   -0.28708174     0.0082991897  -0.2607315     -0.00076873651
    111000   0.012813861   -0.29071298     0.0089629066  -0.26254168    -9.536309e-06 
    112000   0.011756885   -0.29067032     0.0086490802  -0.26439729     0.0017184609 
    113000   0.012276497   -0.29369748     0.0082106348  -0.26708398     0.0021657644 
    114000   0.012970015   -0.29648649     0.0084103918  -0.26863363     0.0007869583 
    115000   0.013246886   -0.30002938     0.0089776487  -0.27119422     0.00044401915
    116000   0.013785433   -0.30433937     0.010583401   -0.27309116     0.00013681946
    117000   0.014320537   -0.30885445     0.010820012   -0.2765675      0.0026913373 
    118000   0.01343254    -0.3120563      0.0096110821  -0.28230941    -0.0025344744 
    119000   0.013073557   -0.31663423     0.010444852   -0.28659169    -0.0018114484 
    120000   0.013433435   -0.32048745     0.0099254809  -0.29042482    -0.0019711665 
    121000   0.013372513   -0.32392668     0.0091853908  -0.29469546     0.00079573657
    122000   0.013266335   -0.32715712     0.009009068   -0.29826138    -0.00072347302
    123000   0.014525645   -0.33127828     0.0094743515  -0.30002951     0.0013837543 
    124000   0.014736781   -0.33938004     0.0098823794  -0.30740675    -0.0011411114 
    125000   0.013712166   -0.34447567     0.010069231   -0.31385146     0.0039325645 
    126000   0.014331421   -0.34903449     0.009509112   -0.31804212     0.0031825196 
    127000   0.014350896   -0.35343291     0.010208227   -0.32171223     0.0022897144 
    128000   0.015360687   -0.35585036     0.011187502   -0.32163669     0.0018773958 
    129000   0.01392862    -0.35898901     0.010693776   -0.32741578    -0.002461436  
    130000   0.014066708   -0.35975938     0.0097211591  -0.32895177     0.0011970323 
    131000   0.014705931   -0.36177177     0.010215308   -0.3295118      8.5411108e-05
    132000   0.015308491   -0.36481214     0.010450121   -0.33141409    -0.0021126792 
    133000   0.014934681   -0.36762003     0.010254056   -0.3349784     -0.00095017838
    134000   0.01411952    -0.36991847     0.010251462   -0.33850139    -4.3623945e-05
    135000   0.015938271   -0.37477082     0.01007271    -0.34080613    -0.00024857076
    136000   0.016987352   -0.37951852     0.010894701   -0.34315923    -0.0022702506 
    137000   0.016419735   -0.38607014     0.012991498   -0.34846493     0.0016850652 
    138000   0.014729492   -0.3867617      0.010149238   -0.35453247     0.00057602106
    139000   0.014649803   -0.38710851     0.0094742026  -0.35567378     0.00013567893
    140000   0.014068591   -0.38871457     0.0094614593  -0.35816384     6.8401064e-05
    141000   0.015044127   -0.39283673     0.010734831   -0.35955027    -0.0022549437 
    142000   0.01439054    -0.39338412     0.010194385   -0.36161785     0.00084708241
    143000   0.015212984   -0.39635297     0.010292085   -0.36325613     0.0018709717 
    144000   0.015231085   -0.39801531     0.010715897   -0.36446752     0.0004575971 
    145000   0.015827493   -0.40143731     0.010370745   -0.36734065     0.0009749314 
    146000   0.015007116   -0.40233169     0.010354319   -0.36948122     0.0026767926 
    147000   0.015780168   -0.40587696     0.011465088   -0.37075689     0.00069149527
    148000   0.015830856   -0.4102167      0.010877798   -0.37560794     0.0023574911 
    149000   0.015600941   -0.41225383     0.011094879   -0.37777264    -0.00050831416
    150000   0.015244127   -0.41224871     0.010337781   -0.37905949    -0.0029498586 
    151000   0.015721029   -0.41625568     0.012177391   -0.38051196    -0.000488955  
    152000   0.01607691    -0.41780345     0.010976813   -0.38272683     0.0021045752 
    153000   0.01670412    -0.42094759     0.011560906   -0.38434667     0.004485771  
    154000   0.015849336   -0.42325188     0.011446051   -0.38804716     0.0029989265 
    155000   0.015953647   -0.4233121      0.01127172    -0.38812535     2.5259008e-05
    156000   0.015125124   -0.42331323     0.010929175   -0.38971101    -0.0041451955 
    157000   0.015726977   -0.42483273     0.011519406   -0.38973808     0.0019057152 
    158000   0.017239801   -0.42988768     0.01271497    -0.39132969    -0.0010288756 
    159000   0.017245554   -0.43193567     0.011948571   -0.39413546     0.0023162936 
    160000   0.016797902   -0.434993       0.01309499    -0.39671742     0.0019177966 
    161000   0.020008722   -0.43863933     0.012490389   -0.39615522     0.0014472019 
    162000   0.017126583   -0.44087899     0.012576651   -0.40262904     0.0027153267 
    163000   0.016812215   -0.44245977     0.012216779   -0.40504093    -0.00063741419
    164000   0.01702202    -0.44563824     0.012275327   -0.40784635     0.0025815499 
    165000   0.017860747   -0.45198632     0.013077865   -0.41213462     0.0045336745 
    166000   0.01773143    -0.45350103     0.01274475    -0.41417629     0.00030250583
    167000   0.017928109   -0.45494441     0.012013632   -0.41605597     0.0028262395 
    168000   0.018065358   -0.45855387     0.012834085   -0.41863923     0.004851913  
    169000   0.016930189   -0.4597768      0.012499664   -0.42189824     0.001909531  
    170000   0.018192107   -0.46177033     0.013127645   -0.42137213    -0.0018928106 
    171000   0.018940587   -0.4662959      0.013437279   -0.42446607     0.0019381396 
    172000   0.018372355   -0.4680055      0.013208623   -0.42725612    -0.0019571509 
    173000   0.018547107   -0.47146851     0.013516101   -0.43014969     0.0027525997 
    174000   0.017698192   -0.47158854     0.012018723   -0.43303965     0.0031744691 
    175000   0.019387127   -0.47792294     0.014377298   -0.43448372     0.0028708866 
    176000   0.019694855   -0.4789704      0.013395109   -0.43605207     0.0057906553 
    177000   0.018536926   -0.48008462     0.012014156   -0.44028301     0.0036223486 
    178000   0.018275406   -0.48115481     0.012992001   -0.44076738     0.00050744373
    179000   0.017953346   -0.48215763     0.012980553   -0.44226443     0.001058049  
    180000   0.018528478   -0.48277962     0.013025221   -0.44197961     0.0023584859 
    181000   0.019606836   -0.48600067     0.01387127    -0.44273812     0.00041559751
    182000   0.018522541   -0.48643237     0.01313826    -0.44552822     0.0023334678 
    183000   0.01824477    -0.48649656     0.012858991   -0.44628807     0.0020542889 
    184000   0.018934791   -0.48750269     0.013174701   -0.44594413     0.002788003  
    185000   0.01833771    -0.48754938     0.01294824    -0.44711232     0.0034386122 
    186000   0.018845755   -0.49073101     0.013188055   -0.44929256     0.00029614735
    187000   0.018962622   -0.4909894      0.013223568   -0.44934025    -0.0030717578 
    188000   0.020097599   -0.49340044     0.014114642   -0.44915885    -0.0003699613 
    189000   0.021208793   -0.49845641     0.015713552   -0.45095019     0.0017150638 
    190000   0.021806931   -0.5026792      0.015729764   -0.45426015    -0.0026022631 
    191000   0.020484991   -0.50217455     0.014244681   -0.4572222      0.0026876469 
    192000   0.019882779   -0.50096989     0.013451102   -0.45771386    -0.0012634159 
    193000   0.020589101   -0.50015341     0.014052116   -0.45523757     0.0010788361 
    194000   0.021435905   -0.50469521     0.014064643   -0.45849746     0.0017387477 
    195000   0.020175616   -0.50502451     0.014049623   -0.46073099    -0.00083365336
    196000   0.020020819   -0.50579835     0.014342858   -0.46144364     0.0064970628 
    197000   0.020607282   -0.50834894     0.014614105   -0.46284386     0.0029702638 
    198000   0.021297639   -0.51205194     0.015434753   -0.46469133     0.0026109105 
    199000   0.021110877   -0.51567281     0.015340596   -0.46868633    -7.8572001e-05
    200000   0.020458224   -0.51652586     0.014164725   -0.4716936     -0.0019661583 
    201000   0.020903007   -0.51683515     0.014106042   -0.47139482     0.00040788794
    202000   0.02218846    -0.52074569     0.015279644   -0.47220482    -0.00091819466
    203000   0.021888217   -0.52210985     0.015465354   -0.47383335     0.0053703775 
    204000   0.021598829   -0.52378622     0.014903361   -0.47650552     0.0052935656 
    205000   0.021185696   -0.52519381     0.015646473   -0.47778929     0.0056261787 
    206000   0.021939079   -0.52836498     0.016254268   -0.47922333     0.0046973521 
    207000   0.020945429   -0.52828649     0.01509721    -0.4817914      0.0077858914 
    208000   0.022291734   -0.52790064     0.014687097   -0.47979751     0.011587503  
    209000   0.022653505   -0.52977395     0.015141595   -0.48067402     0.013981722  
    210000   0.021785326   -0.52955119     0.01524789    -0.4816464      0.0069422112 
    211000   0.021421366   -0.53268406     0.015856127   -0.48471661     0.0037754357 
    212000   0.022767092   -0.53590849     0.015007232   -0.48677265     0.00066078332
    213000   0.021980532   -0.53580418     0.015606327   -0.48724833     0.0003413025 
    214000   0.0224336     -0.53915001     0.014842398   -0.49067892     0.0028153615 
    215000   0.021815251   -0.53913544     0.015701802   -0.49073188     0.0045630387 
    216000   0.022406133   -0.54075733     0.015516405   -0.49165341    -0.00065997718
    217000   0.02235784    -0.54095409     0.0148895     -0.49254947    -0.0034578426 
    218000   0.021258666   -0.54079728     0.015136689   -0.49379316    -0.0010626734 
    219000   0.02254941    -0.54259486     0.01547526    -0.4933173     -0.00051703906
    220000   0.023662171   -0.54383052     0.01504459    -0.49331557     0.0010490322 
    221000   0.023753187   -0.54542211     0.015446956   -0.49436836     8.4940016e-05
    222000   0.022968379   -0.54688984     0.016678967   -0.49578053     0.0054372655 
    223000   0.023839343   -0.55215523     0.017847016   -0.49857227     0.0047844957 
    224000   0.024252577   -0.55412957     0.017613198   -0.50016098     0.0061022494 
    225000   0.023860824   -0.55670837     0.017643468   -0.50329676     0.0035774851 
    226000   0.024190348   -0.55897125     0.016277042   -0.50643209     0.0016828411 
    227000   0.023449644   -0.55841281     0.016750274   -0.50651076     0.0035773018 
    228000   0.023859288   -0.56025916     0.015434439   -0.50905888     0.0035475204 
    229000   0.024063174   -0.56214271     0.015888033   -0.5101832      0.0094275973 
    230000   0.02350723    -0.56608334     0.017618056   -0.51322719     0.0073516997 
    231000   0.02450252    -0.56899331     0.017798826   -0.51446441    -0.00031246294
    232000   0.0243121     -0.5695984      0.017036154   -0.51611762     0.0077131359 
    233000   0.024877517   -0.57368569     0.017737068   -0.51865642     0.0096491419 
    234000   0.024357262   -0.57437245     0.016384593   -0.52147554     0.0047750963 
    235000   0.024443843   -0.5768518      0.017980121   -0.52222957     0.012556445  
    236000   0.025417146   -0.58011877     0.016176262   -0.52584139     0.002412212  
    237000   0.02358892    -0.5803451      0.016927009   -0.52805754     0.0046299896 
    238000   0.024913252   -0.58177489     0.016874291   -0.52755483     0.0052857516 
    239000   0.024105663   -0.58202007     0.017752753   -0.52813215     0.0045995616 
    240000   0.024651892   -0.58357243     0.01749305    -0.5291254     -0.0038150979 
    241000   0.024910398   -0.58358614     0.017231177   -0.52901347    -0.0012501926 
    242000   0.025401658   -0.5858028      0.017611169   -0.53011373     0.00093473907
    243000   0.025173991   -0.58577472     0.017048102   -0.53098999    -0.0013168746 
    244000   0.025820036   -0.58706982     0.018057504   -0.53030725    -0.00068364051
    245000   0.025154538   -0.5871806      0.017764097   -0.53170904     0.0049889807 
    246000   0.026246455   -0.58455972     0.017696994   -0.52751844     0.0061074663 
    247000   0.026233513   -0.58479797     0.01763575    -0.52783734     0.0048750574 
    248000   0.026584107   -0.58779098     0.018269447   -0.52967109     0.0026840946 
    249000   0.024933695   -0.58782195     0.017678813   -0.53276672     0.0014694973 
    250000   0.026278964   -0.59058054     0.017723082   -0.53346444     0.0082208511 
    251000   0.02515014    -0.59107421     0.017398358   -0.53597498    -0.0032837311 
    252000   0.026258784   -0.59144207     0.017436634   -0.53464267     0.00113551   
    253000   0.026558507   -0.59235329     0.0182741     -0.53426713     0.0040312047 
    254000   0.025365369   -0.59218673     0.01834461    -0.53581862     0.0033853427 
    255000   0.025493202   -0.5926456      0.017126385   -0.53730408    -0.0016073318 
    256000   0.025938732   -0.59232979     0.017705085   -0.53574171     0.0033030867 
    257000   0.025546301   -0.59276134     0.019160374   -0.53530624     0.0054028228 
    258000   0.027310211   -0.59697364     0.018224018   -0.53781074     0.00052482495
    259000   0.026197394   -0.59753529     0.019412134   -0.53885242     0.0022564347 
    260000   0.026855999   -0.59868491     0.019074468   -0.53935244     0.0071473355 
    261000   0.026644292   -0.60091575     0.019182748   -0.54179235     0.0039198487 
    262000   0.025846825   -0.60152324     0.017443031   -0.54533499     0.0050206095 
    263000   0.025695043   -0.60114578     0.017718628   -0.54490945     0.0006313767 
    264000   0.025725059   -0.60219109     0.019385972   -0.54424243     0.005351853  
    265000   0.028691739   -0.60756946     0.020314942   -0.54424467     0.011909132  
    266000   0.029383314   -0.60997264     0.019504006   -0.5464221      0.0075269101 
    267000   0.027992502   -0.61103766     0.019981471   -0.54909453     0.0013340492 
    268000   0.027887486   -0.61142642     0.018801215   -0.55082097     0.00013288765
    269000   0.028282332   -0.61288872     0.019904091   -0.5505885      0.0034412148 
    270000   0.028759127   -0.61551784     0.020005765   -0.55240122     0.0089257098 
    271000   0.028376494   -0.61617401     0.020257149   -0.55337958    -0.0031678212 
    272000   0.027053269   -0.61588054     0.019290978   -0.55603584     0.0053514134 
    273000   0.027312312   -0.61601031     0.018246127   -0.55682214    -0.0014257238 
    274000   0.027615318   -0.6177464      0.019119551   -0.55723059    -0.0007428524 
    275000   0.027284082   -0.61770635     0.01983297    -0.55697366     0.0008587531 
    276000   0.027014546   -0.61827327     0.020213664   -0.55756393     0.00015203266
    277000   0.029345333   -0.62149339     0.020301341   -0.55720245     0.0019308211 
    278000   0.028591961   -0.62147517     0.020623388   -0.55799151    -0.0017931893 
    279000   0.02902651    -0.62211108     0.020866028   -0.55773338     0.0034212122 
    280000   0.029019728   -0.62474628     0.019565124   -0.56167964     0.0050901249 
    281000   0.030580153   -0.62623347     0.020752007   -0.55964083    -0.000833107  
    282000   0.029586716   -0.62825814     0.020548239   -0.56335846     0.0012819791 
    283000   0.029570268   -0.6278933      0.019087831   -0.56447868     0.0065928095 
    284000   0.028145069   -0.62819202     0.019536308   -0.56646535     0.002347875  
    285000   0.029788212   -0.63072347     0.019515227   -0.56655476     0.0065108199 
    286000   0.029326434   -0.63273713     0.021804895   -0.56697096     0.0053923867 
    287000   0.030140145   -0.63563252     0.021221593   -0.56922987     0.0038853966 
    288000   0.029835717   -0.63703507     0.020634329   -0.57167604     0.0028066361 
    289000   0.029931388   -0.63968816     0.02081625    -0.57400379     0.0087184801 
    290000   0.029160352   -0.64018083     0.021502148   -0.57496637     0.0074485388 
    291000   0.029111425   -0.6408223      0.020023329   -0.57716001    -0.0031921335 
    292000   0.029287375   -0.6400739      0.021211741   -0.57495944     0.0080518932 
    293000   0.029748841   -0.64010787     0.020156435   -0.57535696     0.0047562667 
    294000   0.029858335   -0.64000406     0.021303684   -0.57394177     0.0036939445 
    295000   0.029705218   -0.63987489     0.020998658   -0.57434716     0.0068652734 
    296000   0.028810587   -0.63930544     0.020872921   -0.57524452     0.0041993864 
    297000   0.031402189   -0.64133931     0.022380084   -0.57188633     0.0048181517 
    298000   0.030020264   -0.64190861     0.022618598   -0.57428867     0.0035684597 
    299000   0.030818082   -0.64238904     0.021357874   -0.57483386     0.01348582   
    300000   0.031404028   -0.64531891     0.021974421   -0.57626884     0.0096338522 
    301000   0.031258137   -0.64643638     0.022248821   -0.57733061     0.0061727698 
    302000   0.029753082   -0.64668376     0.022028156   -0.58005478     0.0048246207 
    303000   0.032606151   -0.64916386     0.021977772   -0.57830842    -5.607823e-05 
    304000   0.031403427   -0.65075556     0.022233693   -0.58144711     0.0077319198 
    305000   0.032944049   -0.65189849     0.024054494   -0.57845981     0.0058080863 
    306000   0.032329405   -0.65427179     0.022605641   -0.58320333     0.0017539661 
    307000   0.032120385   -0.6553055      0.022291887   -0.58486412     0.011553936  
    308000   0.031452095   -0.65454276     0.021739507   -0.58565555    -0.003279276  
    309000   0.031381444   -0.65662187     0.022170852   -0.58740922     0.0073229926 
    310000   0.031388364   -0.65567439     0.022145702   -0.58647651     0.014503643  
    311000   0.032362792   -0.65738988     0.022320321   -0.58655669     0.0028022203 
    312000   0.031152516   -0.65783171     0.02248851    -0.58864457     0.0059939618 
    313000   0.030492547   -0.6591842      0.022925647   -0.59054924     0.0063836389 
    314000   0.034459238   -0.65921015     0.022183651   -0.58537099     0.015518905  
    315000   0.03393667    -0.65975812     0.022284607   -0.58660135     0.0066514813 
    316000   0.031765498   -0.66079829     0.022343992   -0.59083679     0.0050935321 
    317000   0.032247044   -0.66352691     0.022162005   -0.59302555     0.0057740569 
    318000   0.033373308   -0.66674802     0.022316841   -0.59440351     0.010150177  
    319000   0.031945973   -0.66929715     0.0239451     -0.59746401     0.014877419  
    320000   0.032581112   -0.67063217     0.024005091   -0.59778694     0.011797313  
    321000   0.033476588   -0.67171393     0.023585736   -0.5979457      0.002413939  
    322000   0.03358496    -0.67114144     0.02351718    -0.59727932     0.0090421615 
    323000   0.034976312   -0.67206453     0.023494072   -0.59613984     0.0032101278 
    324000   0.034215463   -0.67280959     0.023647422   -0.59787208     0.01196466   
    325000   0.033763878   -0.67154649     0.023884913   -0.59704844     0.00098304372
    326000   0.033606803   -0.6732605      0.023193268   -0.59968955     0.0065197443 
    327000   0.032996359   -0.67424444     0.022774586   -0.60200725     0.014144845  
    328000   0.033626968   -0.6744332      0.023919685   -0.6001056     -0.0015432921 
    329000   0.032577384   -0.67538872     0.023994748   -0.60255942     0.0086098813 
    330000   0.034068342   -0.67348281     0.023956842   -0.59845642     0.01068542   
    331000   0.034467866   -0.67464738     0.024118807   -0.59886013     0.010097476  
    332000   0.03508491    -0.6742557      0.02455289    -0.5971094      0.012419625  
    333000   0.035171784   -0.67680016     0.023466207   -0.60061031     0.0038853641 
    334000   0.035553676   -0.67603692     0.022982657   -0.59975815     0.0078537865 
    335000   0.033499131   -0.67692419     0.02338815    -0.60331976     0.0062317531 
    336000   0.034845233   -0.68042852     0.023782111   -0.60441228     0.012037653  
    337000   0.034593816   -0.67975397     0.02419792    -0.6036988      0.0029636743 
    338000   0.035312387   -0.6805876      0.025324681   -0.60232852     0.0012216781 
    339000   0.035929987   -0.68001051     0.025087843   -0.60106246     0.0041440163 
    340000   0.035774856   -0.68302861     0.026251049   -0.6031499     -0.0029833942 
    341000   0.034755426   -0.6824557      0.025580399   -0.60477579     0.0044007909 
    342000   0.036039001   -0.68570928     0.024110719   -0.60757493     0.0065171616 
    343000   0.034342238   -0.68501087     0.025680377   -0.60785037     0.0040212972 
    344000   0.035562181   -0.68724716     0.025195805   -0.60874249     0.0012756164 
    345000   0.03645082    -0.68963478     0.026095738   -0.60889809     0.0061333452 
    346000   0.035729364   -0.6870224      0.025016161   -0.60844677     0.003313097  
    347000   0.036981378   -0.69093827     0.024511772   -0.61099021     0.0011395309 
    348000   0.036057022   -0.69021218     0.025470937   -0.61069061     0.0035761856 
    349000   0.036464323   -0.69043883     0.0259734     -0.60980423     0.00094924279
    350000   0.035804821   -0.69165458     0.02497425    -0.61300775     0.0074252368 
    351000   0.03816619    -0.69137862     0.025316859   -0.60884941    -0.0058880457 
    352000   0.039552682   -0.68834059     0.025113763   -0.60393608     0.0035898586 
    353000   0.037182363   -0.68994214     0.025833377   -0.6083712      0.0075626947 
    354000   0.037394099   -0.69055995     0.024479211   -0.61002578     0.019485742  
    355000   0.036700369   -0.69090703     0.025425212   -0.61046679     0.0043087474 
    356000   0.036663221   -0.69160595     0.025467076   -0.61117952     0.014747471  
    357000   0.036412358   -0.69348665     0.025670079   -0.61323327    -0.0026480916 
    358000   0.036727364   -0.69382827     0.026908375   -0.61186439     0.010334163  
    359000   0.038313708   -0.69550361     0.024780784   -0.61328935     0.011122074  
    360000   0.037519991   -0.6966432      0.026908296   -0.61349123     0.0031572624 
    361000   0.036480526   -0.69757031     0.027836791   -0.61504803     0.0027034653 
    362000   0.036176789   -0.69757683     0.027699074   -0.61564759     0.0044073235 
    363000   0.036988506   -0.69815183     0.02690508    -0.61579978     0.016493114  
    364000   0.038122453   -0.6999098      0.027154883   -0.61560813    -0.00015270622
    365000   0.037332264   -0.70378314     0.027892773   -0.6199281      0.010196313  
    366000   0.036989802   -0.70399487     0.026536567   -0.6220094      0.0037182592 
    367000   0.038527241   -0.70674648     0.028027234   -0.62096567     0.0022197704 
    368000   0.037438344   -0.70842425     0.027637986   -0.62466498     0.0024949467 
    369000   0.039599138   -0.70956866     0.027015488   -0.62319279     0.023920488  
    370000   0.03712746    -0.70816315     0.027240042   -0.62526785     0.015294067  
    371000   0.039446765   -0.70973357     0.027716963   -0.62288464     0.021373264  
    372000   0.039380055   -0.70870013     0.028766243   -0.62090192     0.0022638214 
    373000   0.041034041   -0.70758646     0.029117244   -0.61695786     0.00018064806
    374000   0.039309285   -0.70925743     0.027247364   -0.62308418    -0.0032306932 
    375000   0.038545642   -0.70972397     0.028152743   -0.62379007     0.014575145  
    376000   0.039163448   -0.71003066     0.028353228   -0.62297016     0.014566277  
    377000   0.038751214   -0.71178933     0.026308296   -0.62739171     0.010490197  
    378000   0.040473887   -0.71165256     0.025937124   -0.62504378     0.0094386759 
    379000   0.039660353   -0.71345884     0.027547976   -0.62645872     0.0098370908 
    380000   0.039615423   -0.71492204     0.028392183   -0.62714506     0.0066001457 
    381000   0.039705181   -0.71653107     0.028796853   -0.62821487     0.016322186  
    382000   0.03939183    -0.71876789     0.029375757   -0.63034251     0.0070954752 
    383000   0.039890184   -0.71870187     0.027499882   -0.63140532     0.011052963  
    384000   0.03998708    -0.71936552     0.027515891   -0.6319077      0.011169961  
    385000   0.039246322   -0.72048362     0.029602765   -0.63204935     0.0019667774 
    386000   0.040349958   -0.72049447     0.027765627   -0.63224295     0.0045129817 
    387000   0.041101993   -0.72201575     0.029762572   -0.63063996     0.011927856  
    388000   0.040748945   -0.72419528     0.028013841   -0.63509746    -0.00064764026
    389000   0.039408175   -0.72583634     0.029546639   -0.63721558     0.0053383169 
    390000   0.040720668   -0.7246569      0.028406785   -0.63520852     0.019365354  
    391000   0.03943033    -0.72613077     0.028922765   -0.63810067     0.0030867719 
    392000   0.039991165   -0.72794149     0.028848457   -0.63914499     0.0029450246 
    393000   0.040756928   -0.72716439     0.028263546   -0.63780489     0.0040981098 
    394000   0.041065627   -0.72765159     0.029914922   -0.63617797     0.0099034949 
    395000   0.040738193   -0.73062247     0.029776711   -0.6397779      0.0040606919 
    396000   0.041999785   -0.73071731     0.030067056   -0.63769122     0.011606995  
    397000   0.040776452   -0.73071177     0.031265628   -0.63832092    -0.0052042966 
    398000   0.041587975   -0.73005088     0.028242409   -0.63946675    -0.015726706  
    399000   0.039898938   -0.72999459     0.030560947   -0.63962385    -0.00012401953
    400000   0.04105043    -0.72965371     0.030019776   -0.63809801     0.006991069  
    401000   0.042594955   -0.73302613     0.030469355   -0.63870557     0.0019313141 
    402000   0.042390041   -0.73416177     0.031626868   -0.63899087     0.0011744696 
    403000   0.043268558   -0.73339915     0.030542975   -0.63799521     0.0054369042 
    404000   0.042349319   -0.73131452     0.031022022   -0.6368095      0.0044016933 
    405000   0.041924001   -0.7337599      0.030939996   -0.63997447     0.015311949  
    406000   0.044231965   -0.73490629     0.031729184   -0.63687196     0.021054243  
    407000   0.042008759   -0.73659443     0.031851081   -0.64177086     0.0072854803 
    408000   0.04314664    -0.73690046     0.030846452   -0.6413758      0.0051610654 
    409000   0.042066843   -0.73599055     0.031919244   -0.64101176     0.010377448  
    410000   0.043617376   -0.73794404     0.031534923   -0.64102526     0.0082922451 
    411000   0.043916729   -0.7377606      0.031061223   -0.64086678     0.028483112  
    412000   0.04298214    -0.73732426     0.033113254   -0.63977939     0.014197549  
    413000   0.044011041   -0.73595237     0.034384447   -0.63559396     0.019043519  
    414000   0.043826928   -0.73761751     0.032108405   -0.63981113     0.022219023  
    415000   0.044779813   -0.73917411     0.032104281   -0.63994344     0.0095212105 
    416000   0.043544158   -0.74003811     0.032096404   -0.64266761    -0.0083623992 
    417000   0.044359191   -0.73955102     0.031467551   -0.64158761     0.013318898  
    418000   0.043908828   -0.74031346     0.031337304   -0.64315541     0.014012164  
    419000   0.042665587   -0.74011622     0.033435758   -0.64272337     0.0072814091 
    420000   0.044473194   -0.73997363     0.032336359   -0.64097052     0.0035732889 
    421000   0.044633195   -0.74256909     0.034772277   -0.64089021     0.01004794   
    422000   0.046039584   -0.74312824     0.034954906   -0.63915851     0.0056524123 
    423000   0.043725662   -0.74352145     0.034438584   -0.64353669     0.011542542  
    424000   0.0457111     -0.74327704     0.032885811   -0.64186882     0.015046181  
    425000   0.046922316   -0.74228029     0.035797382   -0.63614485     0.0093417231 
    426000   0.046058203   -0.74430458     0.034581666   -0.64068018     0.0086928855 
    427000   0.047758542   -0.74463854     0.034990458   -0.63805649     0.003052653  
    428000   0.045361762   -0.74488612     0.034093192   -0.64279418     0.012537051  
    429000   0.049192836   -0.7485377      0.035783863   -0.63901219     0.012655089  
    430000   0.046246279   -0.74730741     0.03626263    -0.64172011     0.0069908303 
    431000   0.044966646   -0.74793071     0.034414595   -0.64610966     0.017778225  
    432000   0.044027026   -0.74940797     0.03321737    -0.65019267     0.010761833  
    433000   0.04566394    -0.75107013     0.033885449   -0.64873296     0.0049594167 
    434000   0.045766699   -0.75256292     0.034269276   -0.64968789     0.0057566369 
    435000   0.046521142   -0.75197301     0.034589078   -0.64764724     0.012633695  
    436000   0.045435942   -0.75184941     0.03467742    -0.64906205     0.0023239107 
    437000   0.045955299   -0.75041808     0.034285722   -0.64724389     0.010889847  
    438000   0.04689494    -0.7529103      0.033864337   -0.64874894     0.0061725915 
    439000   0.045752473   -0.75279671     0.034625174   -0.6495871      0.014951907  
    440000   0.046472778   -0.75337987     0.034752785   -0.64896289     0.013144812  
    441000   0.047031743   -0.75377082     0.033206243   -0.65006248     0.02520456   
    442000   0.046862867   -0.75397631     0.038801532   -0.64492583     0.0087396437 
    443000   0.048686562   -0.75288609     0.036850895   -0.64305246     0.01285007   
    444000   0.047257443   -0.7525045      0.036194453   -0.64546961    -0.0013361829 
    445000   0.048013475   -0.75234233     0.037953607   -0.64241497    -0.00054594917
    446000   0.047517961   -0.75252539     0.035835683   -0.64545875     0.0079775348 
    447000   0.048844954   -0.75306578     0.037005587   -0.64284003     0.0049899261 
    448000   0.046554118   -0.75202393     0.037429284   -0.64480852     0.0051723291 
    449000   0.046651703   -0.75198885     0.037064706   -0.64499174     0.0044506098 
    450000   0.047894671   -0.75319949     0.035165931   -0.6462379      0.0084654988 
    451000   0.047235923   -0.75139488     0.033972804   -0.64661391     0.0077053302 
    452000   0.04888489    -0.75347544     0.036666937   -0.64352848     0.00044278322
    453000   0.047714536   -0.75230021     0.039623869   -0.64115071     0.0038744285 
    454000   0.047998139   -0.75467552     0.037560472   -0.64516429     0.013815522  
    455000   0.050192638   -0.75586308     0.035639175   -0.64498352     0.0053006514 
    456000   0.048972485   -0.75882094     0.03719133    -0.64821827     0.0018052225 
    457000   0.047366821   -0.75698715     0.038591249   -0.64739151     0.0011758025 
    458000   0.050765166   -0.75715166     0.035670611   -0.64538243     0.0074506178 
    459000   0.048562953   -0.75379464     0.036342409   -0.64465479     0.0040584716 
    460000   0.048539345   -0.75447713     0.035912779   -0.64580231     0.0095151395 
    461000   0.049795644   -0.75378733     0.035550893   -0.64359116     0.017581345  
    462000   0.048900941   -0.75487789     0.035928936   -0.64564487     0.026004975  
    463000   0.049086489   -0.75468542     0.03559752    -0.64550567     0.022035857  
    464000   0.045790104   -0.75499435     0.035958384   -0.65039513     0.018447555  
    465000   0.048935813   -0.75512802     0.037579264   -0.6441924      0.020072259  
    466000   0.047372074   -0.75443222     0.036479079   -0.64694087     0.0070530154 
    467000   0.049208534   -0.75512461     0.039302278   -0.64205715     0.028359115  
    468000   0.052185769   -0.75181605     0.037614804   -0.63597309     0.019116957  
    469000   0.049604444   -0.75148289     0.038084715   -0.63903951     0.006195577  
    470000   0.051028252   -0.74907941     0.038841363   -0.63374505     0.0082432054 
    471000   0.052083925   -0.74961616     0.037126736   -0.63441394     0.020374495  
    472000   0.052202678   -0.75019847     0.037437358   -0.63450761     0.015135665  
    473000   0.051283814   -0.74946259     0.035814954   -0.63677154     0.0209325    
    474000   0.049313208   -0.74994112     0.037018678   -0.63900035     0.024373638  
    475000   0.050810906   -0.75143395     0.037035192   -0.63823157     0.016994912  
    476000   0.051057952   -0.75072596     0.037906214   -0.63628222     0.0041837189 
    477000   0.051346492   -0.74972196     0.037868462   -0.63488345     0.0058256023 
    478000   0.050949497   -0.74916762     0.037116742   -0.63567593     0.013890057  
    479000   0.050423246   -0.74980346     0.037297997   -0.63691939     0.0076964016 
    480000   0.050254366   -0.74871806     0.036144894   -0.63724025     0.01952187   
    481000   0.049518308   -0.74883002     0.039119574   -0.6354809      0.011955122  
    482000   0.050191984   -0.74790323     0.037838166   -0.63482566     0.035740364  
    483000   0.051195059   -0.74877907     0.037506631   -0.63452939     0.023857289  
    484000   0.052714543   -0.74880285     0.039856708   -0.62992535     0.016597724  
    485000   0.051306477   -0.74837288     0.038202285   -0.63326053     0.0069262919 
    486000   0.052226499   -0.74769076     0.038179261   -0.63122229     0.025636168  
    487000   0.053440594   -0.74964492     0.038319184   -0.63121656     0.014381736  
    488000   0.052029331   -0.74930188     0.039132084   -0.63217615     0.013565661  
    489000   0.05230466    -0.74983851     0.03875751    -0.63267462     0.016345565  
    490000   0.050995068   -0.74854158     0.039246833   -0.6328515      0.027648423  
    491000   0.052325136   -0.75049598     0.037054302   -0.63500462     0.0087682612 
    492000   0.052220762   -0.74973658     0.04156495    -0.62989102     0.00081210037
    493000   0.053328249   -0.75207787     0.038146822   -0.63399028     0.013769698  
    494000   0.051804576   -0.75002887     0.038881152   -0.63349098     0.023692563  
    495000   0.051299565   -0.75190416     0.036289186   -0.63871527     0.021632873  
    496000   0.053707618   -0.75097115     0.03699934    -0.63346236     0.012384742  
    497000   0.051147643   -0.75107505     0.040276861   -0.63412622     0.025657284  
    498000   0.05512031    -0.75351189     0.039002883   -0.63188189     0.015177442  
    499000   0.051160147   -0.75153467     0.040271009   -0.63457295    -0.0029116453 
    500000   0.051851375   -0.75179424     0.041255829   -0.63281152     0.0059125273 
Loop time of 128.128 on 8 procs for 500000 steps with 1550 atoms

Performance: 337163.393 tau/day, 3902.354 timesteps/s, 6.049 Matom-step/s
91.6% CPU use with 8 MPI tasks x 1 OpenMP threads

MPI task timing breakdown:
Section |  min time  |  avg time  |  max time  |%varavg| %total
---------------------------------------------------------------
Pair    | 16.396     | 17.885     | 20.428     |  30.1 | 13.96
Bond    | 4.9191     | 5.3378     | 5.858      |  12.8 |  4.17
Neigh   | 0.12476    | 0.12492    | 0.12521    |   0.0 |  0.10
Comm    | 12.194     | 15.241     | 16.62      |  38.3 | 11.89
Output  | 0.62071    | 0.63952    | 0.65965    |   1.5 |  0.50
Modify  | 87.366     | 87.509     | 87.63      |   0.9 | 68.30
Other   |            | 1.391      |            |       |  1.09

Nlocal:         193.75 ave         243 max         165 min
Histogram: 1 1 2 2 0 0 1 0 0 1
Nghost:        648.375 ave         665 max         605 min
Histogram: 1 0 0 0 0 1 0 0 5 1
Neighs:              0 ave           0 max           0 min
Histogram: 8 0 0 0 0 0 0 0 0 0
FullNghs:         4231 ave        6959 max        3147 min
Histogram: 3 1 2 0 1 0 0 0 0 1

Total # of neighbors = 33848
Ave neighs/atom = 21.837419
Ave special neighs/atom = 2.1612903
Neighbor list builds = 442
Dangerous builds = 0

unfix ThermoLng

# Now we let the system to create the polymeric network
fix ThermoLng all langevin ${temp} ${temp} ${damp} ${seed3} # Brownian Dynamics: langevin + nve
fix ThermoLng all langevin 0.05 ${temp} ${damp} ${seed3} 
fix ThermoLng all langevin 0.05 0.05 ${damp} ${seed3} 
fix ThermoLng all langevin 0.05 0.05 1 ${seed3} 
fix ThermoLng all langevin 0.05 0.05 1 2010 
run ${steps}
run 8000000
WARNING: Using a manybody potential with bonds/angles/dihedrals and special_bond exclusions (src/pair.cpp:250)
Hybrid pair style last /omp style table/omp
Last active /omp style is angle_style harmonic/omp
Per MPI rank memory allocation (min/avg/max) = 23.66 | 23.67 | 23.67 Mbytes
   Step          Temp          E_pair         E_mol          TotEng         Press     
    500000   0.051851375   -0.75179424     0.041255829   -0.63281152     0.0060374637 
    501000   0.052132923   -0.75328513     0.038399724   -0.63673648     0.021544582  
    502000   0.052161968   -0.75378905     0.04049798    -0.63509859     0.0022760924 
    503000   0.053424026   -0.75422992     0.040234031   -0.63391155     0.029148186  
    504000   0.05452204    -0.75374801     0.039625646   -0.63239207     0.0043287329 
    505000   0.052410374   -0.75404801     0.041414236   -0.63406894     0.030246334  
    506000   0.054768064   -0.7536561      0.03971406    -0.63184294     0.031862927  
    507000   0.053736662   -0.7530083      0.037910358   -0.63454495     0.025556941  
    508000   0.055479088   -0.75654056     0.037372238   -0.63600338     0.014261125  
    509000   0.052293626   -0.75500186     0.036220414   -0.64039161     0.01881376   
    510000   0.05292745    -0.75732161     0.038754953   -0.6392267      0.013696981  
    511000   0.05140311    -0.75576729     0.038816507   -0.63989586     0.025717372  
    512000   0.051219792   -0.75656708     0.037707125   -0.64207983     0.025851126  
    513000   0.051960259   -0.7566207      0.037787839   -0.64094275    -0.0068424283 
    514000   0.053756081   -0.75471476     0.040439469   -0.63369319     0.017574897  
    515000   0.053010172   -0.75809851     0.040613971   -0.63802058     0.014801985  
    516000   0.053636482   -0.75581828     0.039782765   -0.6356327      0.020310097  
    517000   0.05470909    -0.75657839     0.039664193   -0.63490351     0.040246142  
    518000   0.055100094   -0.75838032     0.040860276   -0.63492322     0.015154003  
    519000   0.051305615   -0.75922245     0.039286383   -0.6430273      0.015970034  
    520000   0.052676129   -0.76210775     0.039123978   -0.64402056     0.023982316  
    521000   0.051925272   -0.7599937      0.038438499   -0.64371754     0.027273042  
    522000   0.052001999   -0.76204456     0.03606776    -0.64802413     0.0054268323 
    523000   0.054255875   -0.7603015      0.036750615   -0.64221958     0.031476943  
    524000   0.05033276    -0.76169039     0.038451971   -0.64778799     0.022532913  
    525000   0.051776996   -0.76381179     0.03688077    -0.64931564     0.019231706  
    526000   0.054054374   -0.75975548     0.037451712   -0.64127452     0.023103409  
    527000   0.052663328   -0.76356035     0.038652195   -0.64596413     0.012417295  
    528000   0.053010831   -0.76654992     0.039026355   -0.64805862     0.0071084967 
    529000   0.052079402   -0.76580241     0.037064112   -0.6506696      0.020700247  
    530000   0.053265052   -0.76767758     0.039834955   -0.64799659     0.028217159  
    531000   0.050742877   -0.76844976     0.037923007   -0.65446154     0.010333265  
    532000   0.051444707   -0.76894234     0.038069439   -0.65375563     0.013595616  
    533000   0.052345435   -0.76990012     0.035689943   -0.65574268     0.023789125  
    534000   0.052396497   -0.76940451     0.036526065   -0.65433441     0.016184192  
    535000   0.053349544   -0.76996273     0.035255275   -0.65473477    -0.0031100189 
    536000   0.0516164     -0.76833892     0.038035296   -0.65292897     0.015651581  
    537000   0.054746745   -0.77016499     0.03673436    -0.65136349     0.017201402  
    538000   0.05235378    -0.76923084     0.039192816   -0.65155802     0.011669382  
    539000   0.053450673   -0.76996232     0.037897172   -0.65194087     0.011398497  
    540000   0.052270274   -0.76780302     0.038232886   -0.65121531     0.023450918  
    541000   0.052077739   -0.76863189     0.037837395   -0.65272829    -0.0053985306 
    542000   0.052907542   -0.76845821     0.038012825   -0.65113527    -0.0013908397 
    543000   0.052773617   -0.76854718     0.037203289   -0.65223454     0.0055952179 
    544000   0.052723892   -0.76959852     0.036626457   -0.65393725     0.011696776  
    545000   0.05208707    -0.76801179     0.036161989   -0.6537696      0.022778549  
    546000   0.052687197   -0.768891       0.035537267   -0.65437392     0.010939371  
    547000   0.052512058   -0.76985199     0.040090019   -0.65104471     0.0035917273 
    548000   0.054439712   -0.76987744     0.037958496   -0.65031206     0.01840345   
    549000   0.052422243   -0.76994632     0.037474204   -0.65388949     0.026793307  
    550000   0.052506643   -0.77289631     0.037548681   -0.65663848     0.021057699  
    551000   0.053097673   -0.77223838     0.038686534   -0.65395672     0.018753189  
    552000   0.054044758   -0.77180834     0.037351592   -0.65344191     0.020723331  
    553000   0.053595461   -0.77310286     0.038322764   -0.65443877     0.010836841  
    554000   0.054564063   -0.77122907     0.037920717   -0.65151507     0.016094822  
    555000   0.053651518   -0.77286965     0.03720731    -0.65523698     0.013829312  
    556000   0.053204664   -0.77219277     0.037526365   -0.65491089     0.010671192  
    557000   0.052145119   -0.773071       0.038211386   -0.6566924      0.0020716626 
    558000   0.051152971   -0.77260596     0.036694327   -0.65923167     0.015377453  
    559000   0.052542598   -0.77207032     0.038234019   -0.65507326     0.020129611  
    560000   0.054917625   -0.77114813     0.037039567   -0.65178527     0.022657379  
    561000   0.052383679   -0.77402731     0.039647017   -0.65585547     0.0065239468 
    562000   0.049982084   -0.77283416     0.03879013    -0.65911927    -0.0029543744 
    563000   0.052941576   -0.77211862     0.036822276   -0.65593522     0.0083628712 
    564000   0.051849444   -0.77227859     0.037906429   -0.65664817     0.014978643  
    565000   0.052172556   -0.7733611      0.037223049   -0.65792971    -0.0071921684 
    566000   0.052892723   -0.77229478     0.036513744   -0.65649314     0.0060154297 
    567000   0.053377906   -0.77445953     0.037431823   -0.6570125      0.019121245  
    568000   0.051976274   -0.77467963     0.036470649   -0.66029487     0.025583081  
    569000   0.053513493   -0.77633761     0.038663941   -0.65745522     0.0042283499 
    570000   0.052862604   -0.77421892     0.036857721   -0.65811845     0.028241719  
    571000   0.051709597   -0.77550055     0.036442079   -0.66154412     0.021610898  
    572000   0.050961568   -0.77612028     0.036786317   -0.66294093     0.0060154925 
    573000   0.052195289   -0.77431421     0.036712323   -0.65935947    -0.0026632927 
    574000   0.051295606   -0.77264009     0.038522745   -0.65722358     0.0071941705 
    575000   0.053276652   -0.77428595     0.038590115   -0.65583242     0.0082063871 
    576000   0.053422287   -0.77492859     0.036328188   -0.65851867     0.014982906  
    577000   0.052029133   -0.7741297      0.037408115   -0.65872824     0.0065057211 
    578000   0.054378949   -0.77418097     0.037011838   -0.65565333     0.014897875  
    579000   0.051726392   -0.77411437     0.037745398   -0.65882944     0.014066666  
    580000   0.051236163   -0.77666454     0.03784039    -0.66201949     0.00994379   
    581000   0.051343296   -0.77526208     0.038954365   -0.65934246     0.017059125  
    582000   0.052090999   -0.77481375     0.038537419   -0.65819024     0.017067656  
    583000   0.051562175   -0.77595586     0.037572979   -0.66108952     0.0065692974 
    584000   0.050537899   -0.77612852     0.036860122   -0.66351046     0.013850135  
    585000   0.051877121   -0.77626709     0.037077102   -0.66142451     0.01845225   
    586000   0.053170688   -0.77648993     0.037241276   -0.65954408     0.023220863  
    587000   0.051435694   -0.77578598     0.037649484   -0.66103273     0.027237741  
    588000   0.052879837   -0.77600326     0.036819588   -0.65991509     0.025986513  
    589000   0.052179144   -0.77885552     0.039692523   -0.66094478     0.0068074589 
    590000   0.052894222   -0.77871893     0.035555176   -0.66387361     0.037452442  
    591000   0.051738037   -0.77822808     0.040602779   -0.66006831     0.010245851  
    592000   0.052830659   -0.77772518     0.040037763   -0.65849255     0.016899636  
    593000   0.053725832   -0.77800661     0.040759262   -0.65671059     0.013287919  
    594000   0.054046467   -0.77781984     0.039410909   -0.65739154     0.039273195  
    595000   0.052286976   -0.77820754     0.036319569   -0.6635081      0.035023738  
    596000   0.052218335   -0.77715697     0.039138895   -0.6597411      0.018720686  
    597000   0.052734795   -0.77898796     0.039514415   -0.66042238     0.035762041  
    598000   0.052864572   -0.77938559     0.039798336   -0.66034156     0.038684928  
    599000   0.053275467   -0.78050316     0.03921328    -0.66142824     0.024633498  
    600000   0.052297481   -0.78144027     0.040275389   -0.66276927     0.025863142  
    601000   0.054475482   -0.78339913     0.036911241   -0.66482738     0.023798955  
    602000   0.051737956   -0.78324787     0.037809885   -0.66788112     0.020555415  
    603000   0.055391845   -0.78019006     0.038887432   -0.65826847     0.032870136  
    604000   0.055318163   -0.7801451      0.038497694   -0.6587237      0.042622296  
    605000   0.053291508   -0.77947578     0.038796027   -0.66079407     0.038209721  
    606000   0.053010405   -0.77928702     0.039097755   -0.66072496     0.043154423  
    607000   0.053891817   -0.78203309     0.04004093    -0.66120659     0.027815121  
    608000   0.052421639   -0.78035151     0.039010341   -0.66275944     0.023253195  
    609000   0.052302044   -0.78001472     0.038904375   -0.66270789     0.023212003  
    610000   0.051521758   -0.78063063     0.039173953   -0.6642239      0.017809631  
    611000   0.052518534   -0.77835777     0.038938307   -0.66069249     0.043325032  
    612000   0.052767467   -0.77985049     0.037355283   -0.66339508     0.03118309   
    613000   0.054364274   -0.78164396     0.037517026   -0.66263313     0.016835079  
    614000   0.052222911   -0.78074767     0.038308831   -0.66415501     0.020116764  
    615000   0.052456018   -0.7793976      0.037185939   -0.6635784      0.03782703   
    616000   0.054176349   -0.78092335     0.037349295   -0.66236196     0.017775263  
    617000   0.052242571   -0.77981576     0.037142563   -0.6643599      0.025300801  
    618000   0.05312585    -0.78105885     0.037518782   -0.6639027     -0.0012552655 
    619000   0.051275064   -0.77923629     0.037790223   -0.6645831      0.025960725  
    620000   0.051303896   -0.78031571     0.037601383   -0.66580813     0.025782223  
    621000   0.051708378   -0.78185087     0.039693878   -0.66464446     0.042402273  
    622000   0.053634745   -0.78407249     0.039669854   -0.66400242     0.015107196  
    623000   0.053092993   -0.78278025     0.037707771   -0.66548437     0.018679229  
    624000   0.051571353   -0.78353662     0.038736036   -0.66749346     0.03972303   
    625000   0.049648465   -0.78332251     0.038447298   -0.67045056     0.016016462  
    626000   0.053038637   -0.78359385     0.038045597   -0.66604163     0.00077537762
    627000   0.051248548   -0.78125593     0.037112553   -0.66732015     0.0094168993 
    628000   0.051684873   -0.78368748     0.039884518   -0.66632567     0.033747807  
    629000   0.052761173   -0.78398979     0.040245798   -0.66465329     0.009074798  
    630000   0.051875667   -0.78310482     0.039170775   -0.66617075     0.025192746  
    631000   0.052522597   -0.783961       0.03866749    -0.66656044     0.03948417   
    632000   0.053518033   -0.78513201     0.040351714   -0.66455503     0.021111751  
    633000   0.051410293   -0.78502015     0.038559345   -0.66939511     0.0028906592 
    634000   0.051787225   -0.78643781     0.036638355   -0.67216873     0.001231797  
    635000   0.051599235   -0.784791       0.038350076   -0.66909201     0.013245708  
    636000   0.054157855   -0.78794488     0.03729297    -0.66946754     0.034805652  
    637000   0.052545975   -0.78727617     0.0376532     -0.67085486     0.033985757  
    638000   0.050767662   -0.78773718     0.038061277   -0.67357354     0.032069918  
    639000   0.051175458   -0.78806151     0.037118034   -0.67422981     0.035610397  
    640000   0.053910101   -0.78762058     0.037582483   -0.66922512     0.023614963  
    641000   0.053958528   -0.78642028     0.037245227   -0.66828948     0.022442206  
    642000   0.055458436   -0.78867926     0.038209269   -0.66733601     0.021536336  
    643000   0.053038928   -0.78722906     0.039341125   -0.66838087     0.016057165  
    644000   0.052402598   -0.78945093     0.037324098   -0.67357364     0.013371574  
    645000   0.055317142   -0.78905979     0.039253527   -0.66688408     0.0096908143 
    646000   0.053500219   -0.78476013     0.038894222   -0.66566735     0.02874744   
    647000   0.05249707    -0.78562568     0.039267721   -0.66766316     0.022180618  
    648000   0.05572734    -0.78717294     0.040650695   -0.66298516     0.022769227  
    649000   0.054979897   -0.78478308     0.039854078   -0.66251236     0.025164166  
    650000   0.05247609    -0.78492399     0.040319768   -0.66594087     0.01038603   
    651000   0.052354442   -0.78705182     0.041130154   -0.66744067     0.0031106514 
    652000   0.054903797   -0.78681182     0.039388612   -0.66512064     0.0068862789 
    653000   0.054530428   -0.79009445     0.040382282   -0.66796929     0.029252992  
    654000   0.053609636   -0.78974818     0.038395956   -0.67098965     0.0086467816 
    655000   0.053336489   -0.79054956     0.041071308   -0.66952514    -0.0064397233 
    656000   0.054271815   -0.78938092     0.037313516   -0.67071221     0.0010766276 
    657000   0.05124096    -0.79052886     0.039870411   -0.67384659     0.0090939838 
    658000   0.051439956   -0.78948076     0.037607479   -0.67476313     0.021152811  
    659000   0.05164183    -0.79094711     0.041232494   -0.67230185     0.0025554674 
    660000   0.05297042    -0.79020232     0.039025335   -0.67177261     0.016932755  
    661000   0.054231337   -0.79221574     0.039124469   -0.67179674     0.029430674  
    662000   0.053446405   -0.79063935     0.03902561    -0.67149585     0.015959421  
    663000   0.052810142   -0.79155578     0.038713479   -0.6736782      0.013698985  
    664000   0.051896942   -0.79074538     0.03891818    -0.67403201     0.02057186   
    665000   0.053865536   -0.79251997     0.039700183   -0.67207361     0.019020272  
    666000   0.052395393   -0.79169286     0.040535896   -0.67261458     0.012671092  
    667000   0.052339808   -0.79080344     0.039466442   -0.67287794     0.0069026171 
    668000   0.053177495   -0.79156162     0.039089408   -0.67275743     0.0091371483 
    669000   0.052655598   -0.79101732     0.038746601   -0.67333828     0.0038209892 
    670000   0.053295829   -0.79051102     0.039143458   -0.67147539     0.0072268832 
    671000   0.056684633   -0.79216241     0.041081638   -0.66610868    -0.0079447198 
    672000   0.054493319   -0.79296851     0.03998196    -0.67129931    -0.0018895148 
    673000   0.055226346   -0.79345358     0.040645436   -0.67002207    -0.0023077607 
    674000   0.055049778   -0.79332028     0.039472457   -0.67132643     0.024265125  
    675000   0.052800595   -0.79263181     0.042144264   -0.67133775     0.017689642  
    676000   0.052845123   -0.79308293     0.03751155    -0.67635483     0.019712985  
    677000   0.052253036   -0.79199856     0.03967989    -0.67398969     0.025979295  
    678000   0.05262048    -0.79180744     0.038118636   -0.67480901     0.042068669  
    679000   0.051995751   -0.79297294     0.038960602   -0.67606903     0.013383622  
    680000   0.053039223   -0.7953193      0.039094818   -0.67671698     0.024913687  
    681000   0.053576504   -0.79506695     0.037600488   -0.67715355     0.023778136  
    682000   0.051823091   -0.79547794     0.039258836   -0.67853462     0.015058938  
    683000   0.053072616   -0.79591182     0.041052013   -0.67530224     0.028485835  
    684000   0.052688713   -0.79663359     0.039962741   -0.67768877     0.012598519  
    685000   0.051989278   -0.79518017     0.037555989   -0.67969057     0.017236105  
    686000   0.052374509   -0.79525239     0.04043443    -0.67630689     0.013006461  
    687000   0.052945596   -0.79746623     0.040175574   -0.6779235      0.016168571  
    688000   0.054090825   -0.7985711      0.039995695   -0.67749151     0.0072753372 
    689000   0.053806527   -0.79840577     0.039217078   -0.67853097     0.007823249  
    690000   0.055290506   -0.79820328     0.041815017   -0.67350601     0.0078219261 
    691000   0.055737619   -0.79392512     0.039828715   -0.67054392     0.009869709  
    692000   0.054326711   -0.79456755     0.037505308   -0.67562475    -0.0001290907 
    693000   0.053155308   -0.79401022     0.03876479    -0.67556391     0.024617257  
    694000   0.05382484    -0.79546473     0.040893964   -0.67388559     0.021382996  
    695000   0.052668037   -0.79327897     0.038481035   -0.67584685     0.0080840195 
    696000   0.054167878   -0.79577795     0.039773116   -0.67480544     0.010776632  
    697000   0.054287611   -0.79601181     0.03975901    -0.67487392     0.0082168957 
    698000   0.055519314   -0.79401776     0.041969043   -0.66882347     0.0045768418 
    699000   0.054485911   -0.79733387     0.040169988   -0.67548775     0.00294757   
    700000   0.052651261   -0.79657202     0.039661138   -0.67798495     0.017503332  
    701000   0.053061216   -0.79479644     0.041133597   -0.67412237     0.028334189  
    702000   0.054339808   -0.79499984     0.038273416   -0.6752693      0.026380411  
    703000   0.054338752   -0.79230932     0.041925722   -0.66892805     0.024448512  
    704000   0.052111565   -0.79440978     0.039321588   -0.67697127     0.0021136853 
    705000   0.053241015   -0.79497764     0.03771032    -0.67745732     0.0018305364 
    706000   0.054651575   -0.7943242      0.041537378   -0.67086235     0.01773877   
    707000   0.052106465   -0.79283852     0.042018168   -0.67271108     0.01759647   
    708000   0.053770224   -0.79587431     0.039367745   -0.67590326     0.0090169159 
    709000   0.052400324   -0.79413627     0.038070823   -0.67751567     0.0035347322 
    710000   0.052376034   -0.79385994     0.038825786   -0.67652079     0.01347339   
    711000   0.051986002   -0.7944068      0.042540001   -0.67393811     0.025890784  
    712000   0.054480011   -0.79259847     0.038491964   -0.67243921     0.0059651873 
    713000   0.054288198   -0.79354745     0.038243884   -0.67392381     0.019483472  
    714000   0.054570713   -0.79488641     0.038112047   -0.6749711     -0.0033630019 
    715000   0.0537134     -0.79347886     0.037961152   -0.67499959     0.025062797  
    716000   0.05460875    -0.79602699     0.040350464   -0.67381625     0.028445188  
    717000   0.055418934   -0.79558502     0.039258839   -0.67325141     0.021330834  
    718000   0.051214304   -0.79700882     0.041147124   -0.67908981     0.0070837735 
    719000   0.050264403   -0.7953359      0.039450634   -0.6805373      0.019346824  
    720000   0.053445372   -0.79553867     0.037532097   -0.67789024     0.022527915  
    721000   0.053220392   -0.79403486     0.041339177   -0.6729166      0.033619596  
    722000   0.053419902   -0.79564188     0.038969212   -0.67659452     0.006607029  
    723000   0.052015839   -0.79652038     0.038029195   -0.68051777     0.0026706385 
    724000   0.053694929   -0.79545984     0.03828772    -0.67668169     0.00044217919
    725000   0.05206842    -0.79499308     0.040145253   -0.67679559     0.011728384  
    726000   0.051315764   -0.79584094     0.038025014   -0.68089194     0.015307524  
    727000   0.052355778   -0.79369638     0.040165378   -0.675048       0.024608388  
    728000   0.052787647   -0.79388731     0.041851372   -0.67290555     0.0054928995 
    729000   0.055120683   -0.79412561     0.040192097   -0.67130583     0.025347998  
    730000   0.0540856     -0.7945111      0.040595062   -0.67283998     0.037972563  
    731000   0.05408167    -0.79477413     0.0398872     -0.67381676     0.014635624  
    732000   0.055495888   -0.79264423     0.042286974   -0.66716713     0.030494373  
    733000   0.053970276   -0.79136334     0.040414076   -0.67004608     0.01950852   
    734000   0.052182448   -0.79306555     0.040710208   -0.67413217     0.0041446026 
    735000   0.05354053    -0.79288054     0.040541097   -0.67208046     0.014103487  
    736000   0.053519381   -0.79394637     0.040849231   -0.67286986     0.015192657  
    737000   0.051712698   -0.7943951      0.039781478   -0.67709462     0.014844918  
    738000   0.053631058   -0.79376242     0.042267068   -0.67110067     0.0059380409 
    739000   0.053820083   -0.79260992     0.041876734   -0.67005514     0.014649003  
    740000   0.054707423   -0.79276789     0.042470856   -0.66828884     0.016822485  
    741000   0.054555771   -0.79320769     0.042233288   -0.66919354     0.011918745  
    742000   0.054315853   -0.79279205     0.040839069   -0.67053177     0.027697564  
    743000   0.05279413    -0.79235313     0.038601074   -0.67461195     0.014165473  
    744000   0.053403891   -0.79366047     0.040025795   -0.67358052     0.020205078  
    745000   0.05385054    -0.79348986     0.041372221   -0.67139394     0.02826291   
    746000   0.051462328   -0.79160054     0.039887847   -0.674569       0.044158971  
    747000   0.050702374   -0.79266284     0.039549271   -0.67710908     0.018777568  
    748000   0.05182611    -0.79332385     0.041561163   -0.67407368     0.022908863  
    749000   0.053347926   -0.79174595     0.03828708    -0.67348861     0.023480321  
    750000   0.052837644   -0.79034401     0.040426767   -0.67071191     0.028564103  
    751000   0.053852616   -0.79158011     0.039375821   -0.67147748     0.015238579  
    752000   0.055067473   -0.79264199     0.039912272   -0.6701818      0.018676508  
    753000   0.053279448   -0.7926198      0.038944152   -0.67380804     0.025186839  
    754000   0.052458347   -0.79169141     0.040518217   -0.67253644     0.028142962  
    755000   0.052464148   -0.79166312     0.042615948   -0.67040172     0.018060785  
    756000   0.054844325   -0.79351909     0.039659067   -0.67164661     0.01748319   
    757000   0.05464934    -0.79085284     0.040806863   -0.66812485     0.032468691  
    758000   0.053866148   -0.79206312     0.040978557   -0.67033747     0.014273153  
    759000   0.054144579   -0.7908108      0.040999209   -0.66864712     0.028900786  
    760000   0.052990622   -0.79135098     0.039101546   -0.67281479     0.012800945  
    761000   0.053567024   -0.79249258     0.040984654   -0.67120923     0.035993666  
    762000   0.052519384   -0.79208955     0.041575465   -0.67178583     0.023804627  
    763000   0.052133661   -0.79463613     0.042009913   -0.67447618     0.022694393  
    764000   0.052897956   -0.79371569     0.039476846   -0.6749431      0.021371962  
    765000   0.05247883    -0.79409947     0.040075601   -0.67535641     0.018230473  
    766000   0.053841413   -0.79398422     0.040246871   -0.67302734     0.025383861  
    767000   0.052987525   -0.79591854     0.042500021   -0.67398851     0.02545069   
    768000   0.054305025   -0.797363       0.03965486    -0.67630316     0.028669805  
    769000   0.053462852   -0.79621892     0.038412788   -0.67766359     0.01765344   
    770000   0.053132546   -0.79525018     0.040188793   -0.67541399     0.037344557  
    771000   0.054763148   -0.79522177     0.040202127   -0.67292792     0.032138242  
    772000   0.054861097   -0.79486711     0.040134023   -0.67249454     0.0086153586 
    773000   0.053917697   -0.7933169      0.042698154   -0.66979438     0.029091481  
    774000   0.054796749   -0.79353872     0.037782162   -0.67361446     0.026266725  
    775000   0.052017765   -0.79408807     0.040249654   -0.67586211     0.030149506  
    776000   0.05485598    -0.79422974     0.039122101   -0.67287675     0.03106119   
    777000   0.055690787   -0.79382938     0.041859711   -0.66848738     0.026563221  
    778000   0.053767424   -0.7927548      0.040799105   -0.67135659     0.0351975    
    779000   0.053909927   -0.7915634      0.041359245   -0.66939144     0.027102673  
    780000   0.053665166   -0.79244698     0.037932479   -0.67406869     0.029894286  
    781000   0.051296166   -0.79446149     0.041956668   -0.67561021     0.033987153  
    782000   0.05257243    -0.7970817      0.040911911   -0.67736202     0.012759168  
    783000   0.053386197   -0.79690229     0.039455626   -0.67741903     0.013315354  
    784000   0.053566764   -0.79860663     0.039654206   -0.67865411     0.013939581  
    785000   0.056297322   -0.79742273     0.041881909   -0.67114932     0.034481517  
    786000   0.054104188   -0.79868498     0.041340689   -0.67624037     0.011178611  
    787000   0.054249192   -0.79856165     0.040445589   -0.67679478     0.033847382  
    788000   0.055314182   -0.79858314     0.037720615   -0.67794478     0.033507889  
    789000   0.053131344   -0.79807877     0.039426569   -0.67900661     0.024063735  
    790000   0.05189797    -0.80015054     0.041431278   -0.68092253     0.017143608  
    791000   0.054779908   -0.80132113     0.040015003   -0.67918928     0.033309439  
    792000   0.05377572    -0.79888741     0.039612377   -0.67866349     0.028119468  
    793000   0.055974325   -0.79974364     0.043106515   -0.67272981     0.029237795  
    794000   0.052413294   -0.80022454     0.042975337   -0.67867999     0.0096275329 
    795000   0.052974187   -0.80082114     0.041462587   -0.67994854     0.016898415  
    796000   0.051717107   -0.79748587     0.037933799   -0.68202646     0.032502248  
    797000   0.05417838    -0.80017525     0.038156403   -0.68080371     0.020770125  
    798000   0.052262483   -0.79910976     0.041008019   -0.6797586      0.012635639  
    799000   0.052592391   -0.80177105     0.041555386   -0.68137797     0.012531114  
    800000   0.052999142   -0.79995573     0.040594605   -0.6799137      0.020220416  
    801000   0.054882253   -0.79932469     0.037899186   -0.67915523     0.027724442  
    802000   0.053920914   -0.79951062     0.042699029   -0.6759824      0.012184195  
    803000   0.054738604   -0.80060628     0.039168231   -0.67938312     0.018953783  
    804000   0.052558044   -0.80070839     0.041040083   -0.68088211     0.0096195766 
    805000   0.052354753   -0.80140593     0.041457708   -0.68146676     0.0078836676 
    806000   0.052971768   -0.80152462     0.041510351   -0.68060788     0.004540683  
    807000   0.053235322   -0.80041846     0.041636061   -0.67898093     0.010487055  
    808000   0.05248619    -0.80197396     0.042393934   -0.68090153     0.017949245  
    809000   0.05470749    -0.80304313     0.038924499   -0.68211034     0.0087358763 
    810000   0.052959057   -0.80040873     0.040416962   -0.68060444     0.024118381  
    811000   0.053848196   -0.80275632     0.039123552   -0.68291259     0.024944328  
    812000   0.053473955   -0.80343092     0.039615835   -0.6836559      0.042315926  
    813000   0.05153432    -0.80278692     0.042225794   -0.68330952     0.019486406  
    814000   0.0539657     -0.80338577     0.042346838   -0.68014261     0.0055533346 
    815000   0.052955904   -0.80373841     0.042156385   -0.68219942     0.036516442  
    816000   0.054659041   -0.80291535     0.041734356   -0.67924533     0.056845867  
    817000   0.052986665   -0.80181009     0.039646453   -0.68273492     0.021926022  
    818000   0.052645034   -0.80186971     0.039122852   -0.68383025     0.024154935  
    819000   0.051919135   -0.80168267     0.040224198   -0.68363001     0.01962534   
    820000   0.052781576   -0.80378761     0.04164164    -0.68302468     0.0075256435 
    821000   0.054468945   -0.80351394     0.039288267   -0.68257496     0.013506409  
    822000   0.055498834   -0.80245467     0.039695256   -0.67956487     0.021590122  
    823000   0.053188874   -0.80389331     0.041686072   -0.6824754      0.0060317959 
    824000   0.053223464   -0.80467027     0.040545619   -0.68434096     0.031050167  
    825000   0.052444347   -0.80364656     0.041457952   -0.68357284     0.0099906996 
    826000   0.05183749    -0.80375086     0.042458253   -0.68358654     0.016358399  
    827000   0.054595698   -0.80363616     0.039012868   -0.68278258     0.0046872488 
    828000   0.054091571   -0.80266215     0.039145445   -0.6824317      0.016585562  
    829000   0.057288383   -0.80419736     0.040400027   -0.6779202      0.028865785  
    830000   0.057182212   -0.80230778     0.040455705   -0.6761341      0.045505177  
    831000   0.055597394   -0.80072496     0.040504427   -0.67687824     0.038704079  
    832000   0.054213699   -0.80284045     0.041703858   -0.67986851     0.016169183  
    833000   0.053657699   -0.80323437     0.03903483    -0.68376492     0.026094175  
    834000   0.054593857   -0.80360168     0.040517258   -0.68124647     0.035836857  
    835000   0.051229338   -0.80338084     0.042633335   -0.68395307     0.06069142   
    836000   0.053900835   -0.80397298     0.039079876   -0.68409402     0.029430313  
    837000   0.053362599   -0.80327138     0.040230981   -0.68304814     0.027950603  
    838000   0.05413982    -0.80252751     0.0430741     -0.67829607     0.01602354   
    839000   0.054483611   -0.80324994     0.040858042   -0.68071921     0.024007979  
    840000   0.052969499   -0.80317004     0.04072567    -0.68304138     0.0085364979 
    841000   0.054626374   -0.80394867     0.040725696   -0.68133627     0.037373588  
    842000   0.05371658    -0.8038324      0.041815554   -0.68149396     0.016806442  
    843000   0.054864353   -0.8051596      0.040349295   -0.68256687     0.012258184  
    844000   0.054425008   -0.80471069     0.039931361   -0.68319449     0.0067427006 
    845000   0.056852876   -0.80308082     0.040675162   -0.67718137     0.0090255339 
    846000   0.054707339   -0.80380335     0.039918311   -0.68187697     0.0018688679 
    847000   0.054771024   -0.80489564     0.038774907   -0.6840172      0.042641764  
    848000   0.053019096   -0.80532129     0.039041746   -0.68680221     0.024870572  
    849000   0.054322977   -0.80396952     0.040420274   -0.68211735     0.024024483  
    850000   0.054726309   -0.80376457     0.040630943   -0.68109713     0.022968563  
    851000   0.054006369   -0.80101258     0.042451811   -0.67760348     0.017646963  
    852000   0.054373698   -0.80350543     0.04276475    -0.67923275     0.01640812   
    853000   0.054052681   -0.8015802      0.039469505   -0.68108398     0.022984561  
    854000   0.053957763   -0.80261433     0.040831071   -0.68089883     0.012116622  
    855000   0.053259521   -0.80173978     0.039462525   -0.68243951     0.033210802  
    856000   0.053346071   -0.8039374      0.040150511   -0.6838194      0.021058329  
    857000   0.052864963   -0.79965569     0.037682993   -0.68272641     0.023647515  
    858000   0.053113067   -0.8026288      0.039534616   -0.68347598     0.034491337  
    859000   0.053456128   -0.80320439     0.038538534   -0.68453339     0.011342172  
    860000   0.052796962   -0.80207322     0.03974112    -0.68318775     0.038891356  
    861000   0.053991437   -0.80312553     0.040047626   -0.682143       0.010157175  
    862000   0.05383836    -0.8028213      0.040540144   -0.68157572     0.039102631  
    863000   0.055227686   -0.80203486     0.039611096   -0.67963568     0.012278755  
    864000   0.054084346   -0.80384116     0.040885219   -0.68188177     0.029550697  
    865000   0.053459724   -0.80396637     0.042191971   -0.68163655     0.0067912231 
    866000   0.052558666   -0.80406767     0.040970827   -0.68430971     0.029739684  
    867000   0.053454811   -0.80325229     0.039881699   -0.68324011     0.025028421  
    868000   0.054414877   -0.80295026     0.039631616   -0.68174899     0.010315888  
    869000   0.052316413   -0.8044146      0.0399655     -0.68602511     0.0067029955 
    870000   0.051143591   -0.80408503     0.041804252   -0.68561488     0.017335312  
    871000   0.055080627   -0.80451278     0.039682791   -0.68226236    -0.0045834208 
    872000   0.056752366   -0.80199618     0.040954672   -0.67596788     0.028778712  
    873000   0.054926664   -0.80322399     0.039375575   -0.68151158     0.027604646  
    874000   0.052471655   -0.80418971     0.041032737   -0.68450027     0.013596918  
    875000   0.053019617   -0.80428177     0.040834352   -0.6839693     -0.0036248959 
    876000   0.053181718   -0.8042133      0.042702465   -0.68178973     0.0023979764 
    877000   0.052456625   -0.80304342     0.040842563   -0.68356669     0.024531228  
    878000   0.053563519   -0.80239783     0.041566068   -0.68053832     0.010272999  
    879000   0.055293078   -0.80341592     0.042603688   -0.67792613     0.0012398188 
    880000   0.051322359   -0.80428541     0.040733719   -0.68661782     0.032380715  
    881000   0.052804097   -0.80392271     0.040394985   -0.68437268     0.054341035  
    882000   0.053053265   -0.80276751     0.040071497   -0.68316746     0.033351035  
    883000   0.052663893   -0.8034018      0.041981002   -0.68247592     0.034507575  
    884000   0.054955181   -0.80402178     0.040253127   -0.68138906     0.048720689  
    885000   0.05554175    -0.80453556     0.043375795   -0.67790089     0.0069129597 
    886000   0.053504044   -0.80303033     0.042681508   -0.68014453     0.019098222  
    887000   0.055385493   -0.80399684     0.041348311   -0.67962389     0.020952381  
    888000   0.054781918   -0.80415986     0.041493908   -0.68054609     0.0030461898 
    889000   0.052349343   -0.80403661     0.040391445   -0.68517181     0.0019996659 
    890000   0.054080473   -0.80478059     0.042385431   -0.68132678     0.017151696  
    891000   0.054681632   -0.80450255     0.04207707    -0.68045595    -0.0023936354 
    892000   0.053218529   -0.80425747     0.039945297   -0.68453589     0.022679793  
    893000   0.056131195   -0.80328539     0.041497945   -0.67764497     0.021999422  
    894000   0.05512833    -0.80531192     0.045162545   -0.67751023     0.0081739142 
    895000   0.052577994   -0.8028075      0.04252716    -0.68146424     0.032937043  
    896000   0.053635581   -0.80295969     0.041480811   -0.68107742     0.041881849  
    897000   0.053880301   -0.80374829     0.041563094   -0.68141689     0.035778069  
    898000   0.050967056   -0.80301844     0.041797464   -0.68481972     0.027998216  
    899000   0.05476989    -0.80197113     0.042272879   -0.67759642     0.04089697   
    900000   0.055764346   -0.80509177     0.041371361   -0.68012785     0.035790303  
    901000   0.054269952   -0.80292059     0.042081419   -0.67948676     0.021430185  
    902000   0.054295281   -0.80242345     0.040638791   -0.68039429     0.046456866  
    903000   0.054887923   -0.80457014     0.042866669   -0.67942471     0.030497571  
    904000   0.054753761   -0.80567991     0.042394458   -0.6812078      0.037864619  
    905000   0.053824686   -0.80527871     0.041274309   -0.68331946     0.023626585  
    906000   0.053724245   -0.8050005      0.039661848   -0.68480427     0.034192976  
    907000   0.052577756   -0.80513026     0.043819037   -0.68249547     0.024856936  
    908000   0.053013981   -0.80412239     0.042323183   -0.68232954     0.029283846  
    909000   0.053718469   -0.80418559     0.042647275   -0.6810126      0.027180603  
    910000   0.054780065   -0.80487304     0.040857471   -0.68189849     0.0025760314 
    911000   0.054859329   -0.80564169     0.042991341   -0.68041444     0.023751686  
    912000   0.055885717   -0.8042942      0.042828684   -0.67769102     0.023816607  
    913000   0.05578683    -0.80392019     0.043600992   -0.67669294     0.021065946  
    914000   0.053657645   -0.80353087     0.042841162   -0.68025517     0.02647545   
    915000   0.053328812   -0.80345815     0.042264388   -0.68125215     0.032473049  
    916000   0.054262377   -0.80525264     0.041638407   -0.68227318     0.018909599  
    917000   0.054078504   -0.80533549     0.041299242   -0.68297083     0.022124705  
    918000   0.054699276   -0.80437672     0.042627288   -0.67975346     0.011549291  
    919000   0.054997416   -0.80642595     0.040208376   -0.68377467     0.022265671  
    920000   0.052725374   -0.80399936     0.040013812   -0.68494851     0.034886783  
    921000   0.054805067   -0.80593692     0.041814219   -0.68196814     0.0046216975 
    922000   0.054219395   -0.80482237     0.040646973   -0.68289877     0.039234274  
    923000   0.052290938   -0.80586964     0.039597499   -0.68788634     0.016678274  
    924000   0.053284383   -0.80459834     0.040610793   -0.68411254     0.031514403  
    925000   0.053664925   -0.80565944     0.039689288   -0.6855247      0.017442735  
    926000   0.051787533   -0.80508843     0.038497188   -0.68896006     0.028948081  
    927000   0.052227845   -0.80525748     0.040357326   -0.68660892     0.015610777  
    928000   0.053251546   -0.8054892      0.040526978   -0.68513644     0.029724548  
    929000   0.053160939   -0.80661001     0.040693595   -0.68622645     0.017860317  
    930000   0.052246786   -0.80755385     0.038749461   -0.69048478     0.0034312663 
    931000   0.05294685    -0.8068429      0.038894322   -0.68857954     0.024987923  
    932000   0.053498775   -0.80627706     0.039251501   -0.68682917     0.010461732  
    933000   0.05283241    -0.80721349     0.041245873   -0.68677013     0.015444254  
    934000   0.053376102   -0.80619924     0.039418894   -0.68676785     0.019822799  
    935000   0.052155639   -0.80715722     0.03737499    -0.69159925     0.017467679  
    936000   0.053652166   -0.80639093     0.040272656   -0.68569194     0.004153326  
    937000   0.055632271   -0.8050437      0.04103396    -0.68061517     0.026410396  
    938000   0.053532234   -0.80577964     0.03994996    -0.68558314     0.019082367  
    939000   0.053967571   -0.80509815     0.040907394   -0.68329163     0.0064390784 
    940000   0.052971393   -0.80610543     0.041566743   -0.68513286     0.022422736  
    941000   0.054830635   -0.80586218     0.042390185   -0.6812791      0.025839106  
    942000   0.053819026   -0.80769337     0.041037931   -0.68597898     0.024732192  
    943000   0.05421344    -0.80771841     0.041972676   -0.68447804     0.028272027  
    944000   0.052423401   -0.80705962     0.039802461   -0.68867279     0.0066609179 
    945000   0.054631297   -0.80907458     0.039702096   -0.68747841     0.010923731  
    946000   0.05421642    -0.80649978     0.040448858   -0.68477876     0.0091265282 
    947000   0.053124428   -0.80726093     0.041365618   -0.68626008     0.028679054  
    948000   0.053343074   -0.80840239     0.041018412   -0.68742099     0.013705472  
    949000   0.052031249   -0.80768001     0.042219436   -0.68746406     0.014224346  
    950000   0.053168275   -0.80606875     0.041243303   -0.68512449     0.022298817  
    951000   0.05199857    -0.80806004     0.041400419   -0.68871209     0.025046815  
    952000   0.05323565    -0.80648636     0.043388129   -0.68329627     0.026164004  
    953000   0.053469234   -0.80814522     0.039415655   -0.68857746     0.010964868  
    954000   0.054014862   -0.80640715     0.040336035   -0.68510109     0.02402696   
    955000   0.052381138   -0.80596399     0.03846265    -0.68898032     0.018203252  
    956000   0.052862873   -0.8069646      0.039729168   -0.68799228     0.034357297  
    957000   0.051870771   -0.80663734     0.042115756   -0.68676562    -0.009482047  
    958000   0.053746261   -0.80703847     0.0414363     -0.68503479     0.01544566   
    959000   0.052927976   -0.80491034     0.04277309    -0.68279651     0.011213827  
    960000   0.055339692   -0.80796969     0.040038325   -0.68497538     0.017268057  
    961000   0.05579221    -0.80775738     0.038689716   -0.68543334     0.013233906  
    962000   0.05294433    -0.80663079     0.042626715   -0.68463882     0.0039731489 
    963000   0.054257697   -0.80663932     0.041985699   -0.68331958     0.0060700379 
    964000   0.055752963   -0.80783044     0.042693154   -0.68156179    -0.0042810319 
    965000   0.053797919   -0.80623059     0.043526369   -0.6820594      0.022259889  
    966000   0.05351405    -0.80630056     0.039881111   -0.68620016     0.028738915  
    967000   0.054561476   -0.80762269     0.042082921   -0.68375036     0.006318195  
    968000   0.054765042   -0.80682537     0.041247254   -0.68348355     0.010063765  
    969000   0.053783472   -0.80752225     0.041205941   -0.68569315     0.021539286  
    970000   0.053390537   -0.80697885     0.040588828   -0.68635588     0.044821305  
    971000   0.053801668   -0.80746419     0.041579413   -0.68523434     0.022373933  
    972000   0.053200102   -0.80786503     0.043337312   -0.68477905     0.0096373418 
    973000   0.054371179   -0.80764764     0.041348121   -0.68479537     0.029315923  
    974000   0.05295027    -0.8072195      0.041677898   -0.68616744     0.026750503  
    975000   0.053213524   -0.80832083     0.041699612   -0.68685243     0.028913072  
    976000   0.053476824   -0.8083566      0.041826599   -0.68636652     0.020107697  
    977000   0.051866467   -0.80634855     0.041742185   -0.68685686     0.013831373  
    978000   0.052651652   -0.80805291     0.041696499   -0.68742988     0.019442481  
    979000   0.053122521   -0.80868716     0.041420717   -0.68763407     0.036540194  
    980000   0.052700811   -0.80771679     0.040188724   -0.68852785     0.024527706  
    981000   0.052898189   -0.80753402     0.04108826    -0.68714966     0.027083345  
    982000   0.055065213   -0.80710532     0.041911641   -0.68264915     0.027490914  
    983000   0.053931478   -0.8086913      0.041713341   -0.68613294     0.023135268  
    984000   0.056594689   -0.80821931     0.041885554   -0.68149649     0.017245702  
    985000   0.055565531   -0.80827325     0.040748745   -0.68422998     0.035242735  
    986000   0.055246089   -0.80871626     0.040622572   -0.68527802     0.0077817755 
    987000   0.053824605   -0.80797891     0.041582675   -0.68571141     0.011620475  
    988000   0.052947725   -0.80950159     0.042015559   -0.68811568     0.0059545852 
    989000   0.052206984   -0.80917467     0.040430685   -0.69048403     0.018029764  
    990000   0.053353718   -0.80813104     0.042332418   -0.68581968     0.010700429  
    991000   0.054854471   -0.80782869     0.038883972   -0.68671609     0.012231502  
    992000   0.054323119   -0.80934403     0.044630935   -0.68328099     0.020113595  
    993000   0.055254693   -0.80964226     0.041281808   -0.68553189     0.03372738   
    994000   0.053909467   -0.81000679     0.040670999   -0.68852376     0.044774251  
    995000   0.052713632   -0.80901393     0.042560304   -0.68743419     0.033252522  
    996000   0.053930448   -0.81058202     0.041909374   -0.68782917     0.010825903  
    997000   0.05317848    -0.81149472     0.042106892   -0.68967157     0.014418314  
    998000   0.054252877   -0.80934072     0.040213121   -0.68780079     0.02900825   
    999000   0.052923816   -0.81016267     0.040189419   -0.69063874     0.0084123401 
   1000000   0.05247097    -0.81160026     0.042547835   -0.69039675     0.018583947  
   1001000   0.053474968   -0.81016199     0.041804977   -0.68819631     0.038945497  
   1002000   0.052290263   -0.81117236     0.042205716   -0.69058185     0.032047273  
   1003000   0.054156037   -0.8123337      0.041802487   -0.68934956     0.021048835  
   1004000   0.053854363   -0.80957337     0.041948095   -0.68689584     0.032479959  
   1005000   0.053841466   -0.81313513     0.043290628   -0.68913441     0.010447663  
   1006000   0.054018299   -0.81213836     0.042419811   -0.68874338     0.016556404  
   1007000   0.052532237   -0.81241895     0.042426733   -0.6912447      0.02544232   
   1008000   0.055074171   -0.81189271     0.041221395   -0.68811336     0.031148316  
   1009000   0.053931502   -0.81139447     0.044191591   -0.68635782     0.043241158  
   1010000   0.053965036   -0.81217704     0.041551776   -0.68972993     0.060414211  
   1011000   0.051432648   -0.81292914     0.04298588    -0.69284406     0.032259235  
   1012000   0.053906094   -0.81258067     0.040643311   -0.69113038     0.073466622  
   1013000   0.054059581   -0.81326086     0.041843299   -0.69038051     0.035128965  
   1014000   0.055503191   -0.80887707     0.044004417   -0.68167158     0.066412609  
   1015000   0.054329697   -0.81082961     0.043329142   -0.6860585      0.039357656  
   1016000   0.055670079   -0.80779323     0.042790607   -0.68155138     0.048413117  
   1017000   0.056158798   -0.81093905     0.044065759   -0.68268944     0.027350287  
   1018000   0.055500566   -0.81010495     0.042660141   -0.68424767     0.037179149  
   1019000   0.055119271   -0.80895901     0.040967029   -0.68536641     0.037671493  
   1020000   0.052362394   -0.80948548     0.042921311   -0.68807125     0.039109673  
   1021000   0.05439442    -0.80838956     0.041076487   -0.68577409     0.043848064  
   1022000   0.053416871   -0.80910414     0.044033057   -0.68499747     0.033283803  
   1023000   0.053503564   -0.80876993     0.040471308   -0.68809505     0.022482619  
   1024000   0.054055049   -0.80727583     0.042209606   -0.68403596     0.02078133   
   1025000   0.054262722   -0.80830166     0.041455403   -0.68550469     0.020121011  
   1026000   0.053396311   -0.81017855     0.041608596   -0.68852716     0.031425981  
   1027000   0.05446606    -0.80874276     0.042376152   -0.68472023     0.042453726  
   1028000   0.055141423   -0.80672407     0.041348294   -0.68271701     0.029988395  
   1029000   0.053103467   -0.80751971     0.043875511   -0.68404039     0.026639516  
   1030000   0.055643306   -0.81137769     0.042989088   -0.68497749     0.034675323  
   1031000   0.053836749   -0.80934398     0.042048197   -0.68659276     0.02915998   
   1032000   0.053774716   -0.80991367     0.041574789   -0.68772885     0.034854858  
   1033000   0.055077714   -0.80819339     0.041568037   -0.68406208     0.014966236  
   1034000   0.054253279   -0.80927206     0.041739118   -0.68620552     0.012340286  
   1035000   0.053317924   -0.8094784      0.043228198   -0.68632492     0.038249223  
   1036000   0.052524065   -0.80879509     0.042816346   -0.68724348     0.0052927822 
   1037000   0.052693332   -0.80955791     0.0401877     -0.69038121     0.023042909  
   1038000   0.053493674   -0.80849172     0.042319405   -0.68598357     0.0079550371 
   1039000   0.052275514   -0.81077346     0.042604317   -0.68980646     0.026270131  
   1040000   0.052957363   -0.81060957     0.043913449   -0.68731133     0.011917545  
   1041000   0.054979838   -0.810057       0.043812501   -0.68382795     0.040902349  
   1042000   0.05557872    -0.81085384     0.044983606   -0.68255595     0.025434209  
   1043000   0.054671197   -0.80805247     0.042546204   -0.68355238     0.030313949  
   1044000   0.054921339   -0.81000754     0.04498847    -0.68269021     0.011092957  
   1045000   0.054266917   -0.80955975     0.044553444   -0.68365845     0.033406365  
   1046000   0.05267454    -0.81134597     0.043468041   -0.6889171      0.019612283  
   1047000   0.053423399   -0.81113627     0.042808073   -0.6882448      0.041567902  
   1048000   0.054578866   -0.81067112     0.043225512   -0.68563013     0.024235543  
   1049000   0.054986486   -0.80942772     0.043585299   -0.6834159      0.022697303  
   1050000   0.053016067   -0.80937944     0.041844307   -0.68806233     0.026885023  
   1051000   0.053748638   -0.81273201     0.041952772   -0.6902083      0.047305735  
   1052000   0.053892078   -0.81140157     0.042432278   -0.68818333     0.03124438   
   1053000   0.053577125   -0.80990516     0.042880243   -0.68671108     0.032500355  
   1054000   0.054558791   -0.81129845     0.044496585   -0.68501648     0.021924204  
   1055000   0.054850893   -0.81020235     0.04317364    -0.68480545     0.012781499  
   1056000   0.053404971   -0.8097143      0.042718578   -0.68693995     0.018663513  
   1057000   0.055789646   -0.81056789     0.042274865   -0.68466255     0.0046269577 
   1058000   0.056138777   -0.81150936     0.044924759   -0.68243077     0.014959815  
   1059000   0.055964116   -0.81140489     0.043799472   -0.6837134      0.010350539  
   1060000   0.054424443   -0.81149243     0.044296364   -0.68561207    -0.0034319827 
   1061000   0.053800692   -0.81019775     0.042341398   -0.68720738     0.015015942  
   1062000   0.055481274   -0.81000228     0.041162422   -0.68567164     0.013839669  
   1063000   0.054826107   -0.80945089     0.044374947   -0.68288984     0.024281131  
   1064000   0.055588409   -0.81197885     0.045988801   -0.68266123     0.0062392146 
   1065000   0.053911843   -0.81325668     0.043353486   -0.6890876      0.018266149  
   1066000   0.052986211   -0.81188134     0.042918726   -0.68953457     0.02404786   
   1067000   0.052213077   -0.81101221     0.044323771   -0.68841936     0.0055784664 
   1068000   0.052701354   -0.81239336     0.042191979   -0.69120035     0.0077279048 
   1069000   0.053693936   -0.81101261     0.041873787   -0.68864989     0.025045558  
   1070000   0.052861332   -0.81200796     0.041064692   -0.69170242     0.013548177  
   1071000   0.053590879   -0.81303051     0.042794474   -0.68990158    -0.0015073961 
   1072000   0.053390342   -0.81097649     0.044087765   -0.68685488    -0.0087601068 
   1073000   0.056772178   -0.8109644      0.044124731   -0.68173635     0.029740197  
   1074000   0.054792282   -0.81113035     0.041731344   -0.6872636      0.025498238  
   1075000   0.054419805   -0.81103369     0.044868129   -0.68458852     0.011841045  
   1076000   0.053052748   -0.8115593      0.044629257   -0.68740226     0.02622015   
   1077000   0.05431812    -0.81048048     0.043491931   -0.68556394     0.054371451  
   1078000   0.054517198   -0.81218789     0.043199318   -0.68726554     0.037670242  
   1079000   0.054952682   -0.81223088     0.042881255   -0.68697378     0.034874295  
   1080000   0.053296952   -0.80934459     0.042967337   -0.68648341     0.050514083  
   1081000   0.05240025    -0.80997849     0.042989741   -0.68843909     0.053202381  
   1082000   0.055848601   -0.81155483     0.043065632   -0.68477034     0.044853693  
   1083000   0.051959571   -0.81205923     0.043586637   -0.69058352     0.044193585  
   1084000   0.053329156   -0.80983998     0.041678723   -0.68821913     0.022824876  
   1085000   0.054508255   -0.81117391     0.041105114   -0.68835916     0.060023982  
   1086000   0.05266152    -0.81029742     0.044152805   -0.6872033      0.022797701  
   1087000   0.055590877   -0.81103478     0.043162925   -0.68453934     0.037729422  
   1088000   0.051544548   -0.80984751     0.041100999   -0.69147957     0.023698249  
   1089000   0.052598556   -0.8120763      0.040107306   -0.69312206     0.026226734  
   1090000   0.054190786   -0.8124659      0.042357724   -0.68887444     0.025765082  
   1091000   0.056339394   -0.81076518     0.042230795   -0.68407981     0.025860777  
   1092000   0.054034066   -0.80925767     0.04137928    -0.68687958     0.03705935   
   1093000   0.052781974   -0.8106419      0.045098375   -0.68642164     0.025627145  
   1094000   0.053945626   -0.80839018     0.043236231   -0.68428772     0.046499468  
   1095000   0.052106553   -0.8111588      0.042635402   -0.69041399     0.044456178  
   1096000   0.054451856   -0.81249752     0.040299667   -0.69057277     0.02427579   
   1097000   0.054479343   -0.81067285     0.042611945   -0.68639461     0.027363689  
   1098000   0.055314043   -0.81007116     0.041949623   -0.685204       0.043685498  
   1099000   0.054518629   -0.81140188     0.042191678   -0.68748502     0.04352314   
   1100000   0.055241687   -0.80971409     0.041272659   -0.68563236     0.052008456  
   1101000   0.053288772   -0.81271916     0.043670639   -0.68916694     0.040253158  
   1102000   0.051607392   -0.8103519      0.044018258   -0.68897249     0.052367346  
   1103000   0.051805686   -0.81125341     0.041468955   -0.69212606     0.028706319  
   1104000   0.054119439   -0.80737784     0.039360135   -0.68689092     0.046475456  
   1105000   0.053189745   -0.80883169     0.040206041   -0.6888925      0.040946752  
   1106000   0.052565173   -0.81225119     0.042784518   -0.69066978     0.013798508  
   1107000   0.052246964   -0.81109563     0.041980382   -0.69079536     0.046151777  
   1108000   0.054250373   -0.81166922     0.042467075   -0.68787909     0.03372054   
   1109000   0.053720412   -0.80824854     0.040017408   -0.6877025      0.026624233  
   1110000   0.0544614     -0.8108921      0.042973953   -0.68627875     0.033760368  
   1111000   0.055379058   -0.80941217     0.042385931   -0.68401124     0.019106857  
   1112000   0.05588422    -0.81002129     0.04190974    -0.6843393      0.032753141  
   1113000   0.053233623   -0.81041503     0.041798673   -0.68881744     0.023232681  
   1114000   0.053578342   -0.81145402     0.040986537   -0.69015182     0.0088417961 
   1115000   0.053881864   -0.81151526     0.044419965   -0.68632465     0.03480683   
   1116000   0.054064807   -0.81009396     0.043677039   -0.68537203     0.025532918  
   1117000   0.05398264    -0.81052265     0.045282856   -0.68431808     0.038938159  
   1118000   0.053850307   -0.81047197     0.042911119   -0.68683751     0.039862749  
   1119000   0.053498498   -0.81171454     0.043602452   -0.68791611     0.032039672  
   1120000   0.056255476   -0.81271631     0.040415844   -0.68797169     0.01730832   
   1121000   0.05127547    -0.81372345     0.042170039   -0.69468983     0.010544675  
   1122000   0.053510304   -0.81378764     0.041395592   -0.69217838     0.021598545  
   1123000   0.053944037   -0.81179349     0.040409685   -0.69051995     0.029432392  
   1124000   0.053522644   -0.81083851     0.04324486    -0.68736148     0.026829233  
   1125000   0.053234908   -0.81166096     0.04254151    -0.68931861     0.0040102698 
   1126000   0.055789747   -0.81238471     0.043420723   -0.68533336     0.01308558   
   1127000   0.05299401    -0.81205337     0.043844917   -0.68876872     0.036753698  
   1128000   0.05392117    -0.81254584     0.042001791   -0.68971448     0.0077111681 
   1129000   0.054059251   -0.81417363     0.041565522   -0.69157154     0.0093150234 
   1130000   0.055123528   -0.81388772     0.04290526    -0.68835052     0.020418817  
   1131000   0.055440808   -0.81299708     0.043935298   -0.68595422     0.023491186  
   1132000   0.054388115   -0.81143496     0.044017187   -0.68588823     0.009835011  
   1133000   0.055393526   -0.81267432     0.044646882   -0.68499076     0.014269257  
   1134000   0.054634144   -0.81399825     0.044651372   -0.68744853     0.030811284  
   1135000   0.053060077   -0.81168935     0.04315137    -0.68899921     0.037270066  
   1136000   0.053381641   -0.81476261     0.042950372   -0.69179143     0.014322571  
   1137000   0.055270987   -0.81475237     0.043457188   -0.68844219     0.044746597  
   1138000   0.053725614   -0.81214865     0.044044243   -0.68756798     0.0094286355 
   1139000   0.053830487   -0.81303523     0.043217916   -0.68912368     0.029565222  
   1140000   0.056162615   -0.81464704     0.04172052    -0.68873695     0.019706559  
   1141000   0.054161544   -0.81254633     0.043283551   -0.68807288     0.013000798  
   1142000   0.054043131   -0.8123119      0.043998996   -0.68730051     0.041817019  
   1143000   0.053474737   -0.81403005     0.043307525   -0.69056217     0.03370786   
   1144000   0.053451303   -0.81362633     0.042622558   -0.69087854     0.03583823   
   1145000   0.054216302   -0.81350712     0.04137206    -0.69086308     0.03353      
   1146000   0.052841404   -0.81395783     0.046073671   -0.68867319     0.013773252  
   1147000   0.053368296   -0.81261806     0.042827573   -0.68978969     0.021155487  
   1148000   0.054069969   -0.81329062     0.04385895    -0.68837904     0.023082743  
   1149000   0.051629496   -0.81198141     0.040509879   -0.69407725     0.030644952  
   1150000   0.052539341   -0.81283198     0.041014145   -0.69305967     0.030121411  
   1151000   0.052666926   -0.81457573     0.042495622   -0.69313069     0.030437197  
   1152000   0.05474137    -0.81173911     0.043003878   -0.68667615     0.0243877    
   1153000   0.054787034   -0.81328115     0.043269873   -0.68788375     0.037415728  
   1154000   0.054392898   -0.81221885     0.042537976   -0.68814417     0.032457544  
   1155000   0.052184669   -0.80983346     0.043662745   -0.68794422     0.015655956  
   1156000   0.054715859   -0.81316817     0.042842292   -0.68830504     0.0034348941 
   1157000   0.055282704   -0.812259       0.041090207   -0.68829823     0.034107093  
   1158000   0.05289124    -0.81359833     0.042044008   -0.69226865     0.0090486097 
   1159000   0.054326768   -0.81248877     0.043047675   -0.68800351     0.0071655206 
   1160000   0.053045093   -0.81346499     0.043386147   -0.69056254     0.010562224  
   1161000   0.051760695   -0.81133693     0.042238733   -0.69150724     0.023582626  
   1162000   0.053217671   -0.8133314      0.041591747   -0.69196465     0.028580064  
   1163000   0.053488881   -0.8115795      0.041913655   -0.68948428     0.02440164   
   1164000   0.0538851     -0.81104958     0.042375536   -0.68789854     0.043050609  
   1165000   0.055131665   -0.81200401     0.040496984   -0.68886288     0.025039168  
   1166000   0.053354921   -0.81354103     0.043327309   -0.69023297     0.026682125  
   1167000   0.053233239   -0.81250121     0.042356016   -0.69034685     0.023445778  
   1168000   0.055786992   -0.81295423     0.043462229   -0.6858655      0.026385723  
   1169000   0.053797556   -0.81126454     0.04377971    -0.68684056     0.040023102  
   1170000   0.053973651   -0.81238265     0.04345746    -0.68801695     0.031950815  
   1171000   0.054365534   -0.81475163     0.045174745   -0.6880812      0.023752409  
   1172000   0.051495892   -0.8112199      0.042274445   -0.69175145     0.029712078  
   1173000   0.050236591   -0.81056414     0.042580912   -0.69267696     0.027246984  
   1174000   0.050804275   -0.81206374     0.044581658   -0.69132484     0.044905996  
   1175000   0.055397137   -0.81065601     0.040907413   -0.6867065      0.034687528  
   1176000   0.056012723   -0.81222416     0.043800028   -0.68445925     0.033726594  
   1177000   0.053793538   -0.81144979     0.043836293   -0.68697524     0.037148997  
   1178000   0.054697743   -0.81033753     0.042983884   -0.68535997     0.061460646  
   1179000   0.05510077    -0.81328492     0.043954283   -0.6867328      0.026778944  
   1180000   0.054575264   -0.81200298     0.041683461   -0.68850944     0.016561497  
   1181000   0.05206139    -0.81046177     0.04462795    -0.68779211     0.033459655  
   1182000   0.052566086   -0.81094728     0.042187564   -0.68996145     0.061542911  
   1183000   0.053429637   -0.81314373     0.040649921   -0.69240106     0.026819791  
   1184000   0.053767355   -0.81130955     0.042036746   -0.68867381     0.051148021  
   1185000   0.052394202   -0.81196962     0.043448312   -0.68998071     0.041895304  
   1186000   0.053302658   -0.81325843     0.043150126   -0.6902059      0.021829596  
   1187000   0.053732123   -0.81126682     0.044287582   -0.68643305     0.014384042  
   1188000   0.053557736   -0.81369112     0.043330488   -0.69007586     0.029236596  
   1189000   0.053994247   -0.81130846     0.04378253    -0.68658681     0.02053392   
   1190000   0.055017333   -0.81233884     0.043814695   -0.68605138     0.017635111  
   1191000   0.05354191    -0.81382048     0.043136738   -0.69042269    -0.0018228431 
   1192000   0.052146157   -0.81411147     0.043181466   -0.69276123    -0.0012339857 
   1193000   0.053775991   -0.8127641      0.041765517   -0.69038664     0.00036486576
   1194000   0.0524392     -0.8132081      0.04390002    -0.69070003     0.0084423628 
   1195000   0.052909994   -0.81203826     0.042370958   -0.69035352     0.012694442  
   1196000   0.053023588   -0.80792872     0.044719998   -0.68372466     0.016715037  
   1197000   0.053247525   -0.81307939     0.043839975   -0.68941966     0.0057257209 
   1198000   0.051345464   -0.80993854     0.043489909   -0.68948013     0.010999795  
   1199000   0.051938414   -0.81170216     0.039367295   -0.6944775      0.030847762  
   1200000   0.054377044   -0.81145376     0.041266452   -0.68867436     0.012956679  
   1201000   0.053568152   -0.81098496     0.045504173   -0.6851804      0.012932254  
   1202000   0.054620708   -0.80953513     0.043408539   -0.68424838     0.027211372  
   1203000   0.052913083   -0.81137238     0.042404884   -0.68964907     0.012582332  
   1204000   0.053797387   -0.81030922     0.04068595    -0.68897925     0.031581047  
   1205000   0.054001047   -0.81008778     0.044350256   -0.68478822     0.020924514  
   1206000   0.055011491   -0.809994       0.044928779   -0.68260122     0.026115202  
   1207000   0.053709894   -0.8126923      0.045032775   -0.68714666     0.019925688  
   1208000   0.05363551    -0.81030112     0.042001299   -0.68789846     0.024799357  
   1209000   0.052254628   -0.81125447     0.042897872   -0.69002523     0.020249696  
   1210000   0.051542347   -0.81430257     0.044722583   -0.69231635     0.028210794  
   1211000   0.053736475   -0.81055048     0.04357252    -0.68642525     0.013138413  
   1212000   0.055121386   -0.80959448     0.044497439   -0.6824683      0.038855251  
   1213000   0.056747462   -0.81167648     0.043907688   -0.68270251     0.014811918  
   1214000   0.058058703   -0.81213629     0.042103713   -0.68300071     0.022764666  
   1215000   0.054064062   -0.81068314     0.043340513   -0.68629885     0.016691117  
   1216000   0.05644454    -0.80940132     0.042472615   -0.68231652     0.027441838  
   1217000   0.056227953   -0.80820047     0.041498249   -0.6824147      0.037467454  
   1218000   0.054588669   -0.80887852     0.043058218   -0.68399013     0.019412683  
   1219000   0.054818997   -0.81080004     0.040037151   -0.68858744     0.040201535  
   1220000   0.053323965   -0.8114515      0.042139516   -0.68937764     0.033382498  
   1221000   0.052927526   -0.81064753     0.041747699   -0.68955976     0.033803986  
   1222000   0.052988179   -0.81215937     0.042177579   -0.6905508      0.040725799  
   1223000   0.05448643    -0.81132502     0.042118552   -0.68752955     0.035417415  
   1224000   0.052840075   -0.81252423     0.041641152   -0.6916741      0.028456938  
   1225000   0.053237654   -0.81237717     0.040338042   -0.69223417     0.018350389  
   1226000   0.054105543   -0.81218094     0.041859667   -0.68921532     0.0067337109 
   1227000   0.053052229   -0.81240591     0.041993371   -0.69088554     0.019325963  
   1228000   0.053634651   -0.81251531     0.041454284   -0.69066096     0.040869426  
   1229000   0.053496048   -0.81061127     0.04368253    -0.68673644    -0.0070316456 
   1230000   0.054435883   -0.81048759     0.043508946   -0.6853775      0.033117079  
   1231000   0.054704657   -0.81105807     0.040999017   -0.68805501     0.012715399  
   1232000   0.054344252   -0.81162745     0.041908844   -0.68825482     0.021670789  
   1233000   0.053596071   -0.81031251     0.042937304   -0.68703297     0.034489632  
   1234000   0.05542973    -0.81257642     0.042102547   -0.68738292     0.051860718  
   1235000   0.053047843   -0.81033682     0.041888032   -0.68892836     0.027707344  
   1236000   0.054228097   -0.81134678     0.041485647   -0.68857147     0.024067568  
   1237000   0.05288468    -0.81170258     0.045014026   -0.68741271     0.02036982   
   1238000   0.052747962   -0.81088653     0.042439553   -0.68937608     0.032388784  
   1239000   0.054752209   -0.81092973     0.044133523   -0.68472088     0.049209168  
   1240000   0.054463034   -0.8105395      0.041392212   -0.68750544     0.014261749  
   1241000   0.054305526   -0.81185922     0.043007655   -0.68744583     0.028477177  
   1242000   0.053442018   -0.81148006     0.044326495   -0.68704226     0.029152882  
   1243000   0.054258546   -0.8115048      0.040264594   -0.68990489     0.031350572  
   1244000   0.051188053   -0.81225589     0.041574758   -0.69394859     0.0063743559 
   1245000   0.052828559   -0.8105284      0.04150583    -0.68983086     0.025748063  
   1246000   0.053722733   -0.81207747     0.041870148   -0.68967521     0.024081536  
   1247000   0.053722124   -0.81193629     0.042747917   -0.68865718     0.018036587  
   1248000   0.053968236   -0.81013291     0.041823724   -0.68740906     0.022303646  
   1249000   0.051883968   -0.8115889      0.042006012   -0.69180715     0.021591624  
   1250000   0.053115565   -0.80976676     0.041199024   -0.68894579     0.0164079    
   1251000   0.05376735    -0.81028583     0.042489512   -0.68719732     0.045383951  
   1252000   0.055616157   -0.81086483     0.041321608   -0.6861728      0.009922143  
   1253000   0.05299275    -0.80984018     0.043359155   -0.68704318     0.0030764977 
   1254000   0.052405802   -0.80936974     0.042319877   -0.68849188     0.042691238  
   1255000   0.053341653   -0.8115976      0.04249037    -0.68914637     0.016124807  
   1256000   0.052968519   -0.81111395     0.043026678   -0.68868576     0.017824297  
   1257000   0.054251224   -0.81004832     0.041382323   -0.68734166     0.021842943  
   1258000   0.053612618   -0.81147156     0.043487072   -0.68761744     0.010576937  
   1259000   0.053833726   -0.81165284     0.043892452   -0.68706189     0.010984955  
   1260000   0.054502054   -0.80988833     0.04174097    -0.68644703     0.016220408  
   1261000   0.051744713   -0.81120547     0.040936737   -0.69270174     0.023187118  
   1262000   0.054318307   -0.81177388     0.040931616   -0.68941737     0.029991633  
   1263000   0.053891842   -0.81059221     0.040203296   -0.6896033      0.03668627   
   1264000   0.054403497   -0.80906458     0.041122307   -0.68638968     0.033408804  
   1265000   0.054708501   -0.81163356     0.045235601   -0.68438815     0.026394693  
   1266000   0.053701498   -0.81034215     0.045159658   -0.68468221     0.030129193  
   1267000   0.055996301   -0.81094639     0.041385767   -0.68562036     0.009677313  
   1268000   0.053491048   -0.80987051     0.041420586   -0.68826511     0.023811824  
   1269000   0.054325342   -0.81063549     0.042902954   -0.6862971      0.055536013  
   1270000   0.053036396   -0.81181438     0.04331567    -0.68899544     0.024131534  
   1271000   0.054691539   -0.81113691     0.044151239   -0.68500129     0.01281944   
   1272000   0.054063629   -0.81129607     0.043218695   -0.68703425     0.0063649334 
   1273000   0.053219287   -0.81191686     0.043885542   -0.68825389    -0.0088563856 
   1274000   0.052366572   -0.81180737     0.042398866   -0.69090932     0.010662962  
   1275000   0.053658493   -0.81083743     0.044221663   -0.68617996     0.042636806  
   1276000   0.053687435   -0.81307283     0.046315916   -0.68627771    -0.0064766312 
   1277000   0.052907732   -0.81210861     0.045923084   -0.68687512     0.017484476  
   1278000   0.056050381   -0.81259719     0.043360769   -0.68521509     0.0057156168 
   1279000   0.054825714   -0.81150598     0.041828519   -0.68749195     0.023011593  
   1280000   0.054532598   -0.81382986     0.042484014   -0.68959972     0.023888396  
   1281000   0.054138979   -0.81279773     0.04360967    -0.68803199     0.0082817512 
   1282000   0.054413924   -0.81377949     0.041882839   -0.69032842     0.018637371  
   1283000   0.053976901   -0.81315096     0.042042002   -0.69019584     0.02936836   
   1284000   0.05450628    -0.80962536     0.041504685   -0.68641401     0.029743738  
   1285000   0.054173265   -0.81328969     0.042063446   -0.69001877     0.024100368  
   1286000   0.053964885   -0.81297049     0.041070758   -0.69100463     0.019400109  
   1287000   0.055282013   -0.81020232     0.041293994   -0.6860388      0.022195103  
   1288000   0.054136689   -0.80946491     0.040078548   -0.68823372     0.013139525  
   1289000   0.054520983   -0.81130115     0.041885652   -0.68768678     0.0041511586 
   1290000   0.05294872    -0.81365094     0.04129668    -0.69298242     0.014949149  
   1291000   0.054272125   -0.81239471     0.041642834   -0.68939621     0.023877851  
   1292000   0.053067463   -0.81230684     0.041185923   -0.69157108     0.010658373  
   1293000   0.053553432   -0.81162373     0.043439843   -0.68790556     0.010776105  
   1294000   0.052702135   -0.81144967     0.043643488   -0.68880398     0.016411525  
   1295000   0.053167348   -0.81252597     0.044348307   -0.68847809     0.018038661  
   1296000   0.055366111   -0.81304646     0.044265683   -0.68578519     0.012621637  
   1297000   0.05537641    -0.81042754     0.041543279   -0.68587323     0.030685031  
   1298000   0.053713551   -0.81030652     0.041965184   -0.68782299     0.038929918  
   1299000   0.054598407   -0.81064494     0.039994555   -0.68880561     0.011377032  
   1300000   0.053177144   -0.81286767     0.04258008    -0.69057333     0.015033183  
   1301000   0.054050401   -0.81074017     0.040537916   -0.68917896     0.031236301  
   1302000   0.053445916   -0.81173364     0.041053412   -0.69056308     0.024943331  
   1303000   0.053773404   -0.8121544      0.041950129   -0.6895962      0.025592389  
   1304000   0.053663377   -0.81077501     0.043656928   -0.68667495     0.025638597  
   1305000   0.051630555   -0.81079484     0.042971242   -0.69042773     0.016842371  
   1306000   0.053378871   -0.81444314     0.043640076   -0.69078642     0.018931667  
   1307000   0.053279097   -0.81326073     0.042446874   -0.69094677     0.030358188  
   1308000   0.054399906   -0.81141774     0.044017477   -0.68585305     0.019289112  
   1309000   0.053922472   -0.81218905     0.041346579   -0.69001094     0.034202747  
   1310000   0.054570771   -0.81261577     0.041381455   -0.68943097     0.019291515  
   1311000   0.056231332   -0.81404818     0.043026763   -0.68672883     0.0071593272 
   1312000   0.055420953   -0.81069349     0.042369476   -0.68524622     0.010089248  
   1313000   0.051687744   -0.81302503     0.044386377   -0.69115706    -0.0075999274 
   1314000   0.053634104   -0.81142038     0.041904457   -0.68911667     0.019839106  
   1315000   0.051848205   -0.81274225     0.044688051   -0.69033207     0.007025334  
   1316000   0.054754711   -0.8123667      0.041373758   -0.68891387     0.023228802  
   1317000   0.055973274   -0.81373584     0.041661905   -0.6881682      0.023654974  
   1318000   0.052888741   -0.81259307     0.040299129   -0.69301201     0.011361506  
   1319000   0.054245742   -0.81359027     0.041334695   -0.69093946     0.020159137  
   1320000   0.054302072   -0.8130459      0.043926424   -0.68771892     0.032150051  
   1321000   0.054116792   -0.81198653     0.043786062   -0.68707765     0.021923754  
   1322000   0.053912548   -0.81325877     0.041619092   -0.69082303    -0.0043119208 
   1323000   0.054680434   -0.81110057     0.042429429   -0.68670341     0.0092227264 
   1324000   0.054070484   -0.81316076     0.041872147   -0.69023521     0.0015510728 
   1325000   0.055475822   -0.81360123     0.043317991   -0.68712319     0.0085781382 
   1326000   0.054297368   -0.81262425     0.044766853   -0.6864639      0.022402939  
   1327000   0.054382298   -0.81086842     0.043793295   -0.68555431     0.025033593  
   1328000   0.05445089    -0.81280542     0.044029829   -0.68715195     0.0080346501 
   1329000   0.052609211   -0.81291836     0.042012813   -0.69204264     0.019765697  
   1330000   0.056367263   -0.81285246     0.043513419   -0.68484269    -0.00085838724
   1331000   0.053633139   -0.80968832     0.042710226   -0.68658028     0.018060068  
   1332000   0.053932011   -0.8132641      0.042632385   -0.68978589    -0.0045162513 
   1333000   0.056993698   -0.81032047     0.042978785   -0.6819063      0.013299994  
   1334000   0.055585962   -0.81123193     0.042993358   -0.68491343     0.0049742726 
   1335000   0.054355062   -0.80994885     0.043749835   -0.68471903     0.016377409  
   1336000   0.055576062   -0.81214253     0.043257062   -0.68557516     0.017369414  
   1337000   0.055120169   -0.81290957     0.043731807   -0.68655085     0.020705918  
   1338000   0.056442795   -0.8130214      0.043116316   -0.68529552     0.0095716134 
   1339000   0.055079854   -0.81286411     0.043351856   -0.68694578     0.0061354488 
   1340000   0.055815542   -0.8113615      0.043812261   -0.68387994     0.0091559149 
   1341000   0.054166459   -0.81044089     0.043067049   -0.68617657     0.0016727363 
   1342000   0.055727175   -0.81100269     0.044036305   -0.68342955     0.01723811   
   1343000   0.055082222   -0.81292342     0.042523829   -0.68782956     0.011779447  
   1344000   0.053664419   -0.81293225     0.043784312   -0.68870325    -0.0025176774 
   1345000   0.054013537   -0.81265597     0.04173969    -0.68994824     0.020181561  
   1346000   0.054360082   -0.81010487     0.044078955   -0.68453839    -0.0081377471 
   1347000   0.054838141   -0.81129448     0.043276081   -0.68581425     0.006268682  
   1348000   0.054348348   -0.81273316     0.042560401   -0.68870283    -0.0042036016 
   1349000   0.05296514    -0.81237601     0.039316251   -0.69366331     0.01347971   
   1350000   0.054241434   -0.81428924     0.042471552   -0.69050803    -0.00067872559
   1351000   0.054569116   -0.8135906      0.040480768   -0.69130896     0.01369597   
   1352000   0.053939698   -0.81139983     0.041918176   -0.68862431     0.015470179  
   1353000   0.052734743   -0.81276278     0.042221568   -0.69149013    -0.0060733735 
   1354000   0.054577319   -0.81427108     0.042262041   -0.69019588     0.0044061162 
   1355000   0.054984284   -0.81336662     0.042211218   -0.68873219     0.01659628   
   1356000   0.054445266   -0.80971407     0.041692167   -0.68640669     0.020658372  
   1357000   0.056643373   -0.81189872     0.042082612   -0.68490586     0.026174282  
   1358000   0.054296148   -0.80842786     0.043836849   -0.68319934     0.045163155  
   1359000   0.052737927   -0.81018587     0.042893408   -0.68823661     0.029180568  
   1360000   0.052231548   -0.81311954     0.043148683   -0.69167408     0.0023629695 
   1361000   0.052864297   -0.81168852     0.04421051    -0.68823272     0.025061105  
   1362000   0.053740784   -0.81066147     0.041916327   -0.68818597     0.037479924  
   1363000   0.055701638   -0.81261652     0.043680171   -0.68543779     0.023342534  
   1364000   0.053564311   -0.81494856     0.042940565   -0.69171337     0.034293028  
   1365000   0.054781212   -0.81351303     0.043690668   -0.68770356     0.040093044  
   1366000   0.057405435   -0.81258354     0.043052422   -0.68347852     0.017088658  
   1367000   0.055828846   -0.81302282     0.04364398    -0.6856896      0.015175921  
   1368000   0.052631271   -0.81303664     0.040822618   -0.69331805     0.022049261  
   1369000   0.053358144   -0.81246891     0.040407186   -0.69207614     0.025624941  
   1370000   0.055890225   -0.8143537      0.04341096    -0.68716149     0.024061773  
   1371000   0.053095836   -0.81298709     0.041708195   -0.69168653     0.020088304  
   1372000   0.054225083   -0.81428397     0.043025713   -0.68997311     0.016285186  
   1373000   0.051136557   -0.81395709     0.042840612   -0.69446113     0.026465019  
   1374000   0.054082755   -0.81307637     0.041064844   -0.69093974     0.03332697   
   1375000   0.054020572   -0.81326182     0.042408077   -0.68987516     0.033214362  
   1376000   0.052626719   -0.81325488     0.044724876   -0.68964085     0.024385736  
   1377000   0.054022367   -0.81358005     0.044238702   -0.68836007     0.010258814  
   1378000   0.053401901   -0.81342448     0.043687312   -0.689686       0.019643946  
   1379000   0.054269545   -0.81442615     0.04493769    -0.68813666     0.027500365  
   1380000   0.054327135   -0.81388625     0.042158421   -0.6902897      0.04264031   
   1381000   0.053103886   -0.81351689     0.043374751   -0.6905377      0.031307092  
   1382000   0.055123307   -0.81278947     0.042724096   -0.68743376     0.027401731  
   1383000   0.051543729   -0.81271167     0.041584499   -0.69386146     0.048234055  
   1384000   0.0543477     -0.81304235     0.043916707   -0.68765668     0.026898386  
   1385000   0.057595591   -0.81384681     0.04373684    -0.68377232     0.045766643  
   1386000   0.053615573   -0.81114563     0.043364478   -0.68740968     0.021180907  
   1387000   0.053202341   -0.81354513     0.042300366   -0.69149273     0.015693558  
   1388000   0.056583323   -0.81290819     0.04042204    -0.68766592     0.032533289  
   1389000   0.052254141   -0.81192311     0.043473444   -0.69011902     0.037745076  
   1390000   0.053930161   -0.81344916     0.041688471   -0.69091764     0.021897306  
   1391000   0.054980905   -0.81294717     0.0427205     -0.68780852     0.01665506   
   1392000   0.053491038   -0.81261059     0.041661252   -0.69076455     0.0006995665 
   1393000   0.053541379   -0.81060881     0.043186406   -0.68716215     0.032160981  
   1394000   0.056405518   -0.81113117     0.042306834   -0.68427065     0.036909489  
   1395000   0.054697252   -0.81255881     0.042568555   -0.68799731     0.026921326  
   1396000   0.053861653   -0.81452721     0.043292075   -0.69049478     0.030803876  
   1397000   0.054938435   -0.81346588     0.044545098   -0.6865663      0.037596126  
   1398000   0.056299265   -0.81367469     0.042460795   -0.68681948     0.030456488  
   1399000   0.05503951    -0.81234133     0.043182749   -0.68665258     0.019916209  
   1400000   0.053689951   -0.81545712     0.043005807   -0.69196835     0.0087381908 
   1401000   0.052335016   -0.81219306     0.043421284   -0.6903199      0.030322603  
   1402000   0.053380358   -0.81201314     0.044941874   -0.68705238     0.014964059  
   1403000   0.053316188   -0.81428512     0.043944942   -0.6904175      0.024476227  
   1404000   0.054180661   -0.81202015     0.042028389   -0.6887732      0.018668479  
   1405000   0.056564501   -0.81478478     0.04328892    -0.68670384    -0.00068943556
   1406000   0.054583311   -0.81433993     0.044219675   -0.68829811     0.0099115207 
   1407000   0.05454088    -0.81297529     0.043786421   -0.68743033     0.029817114  
   1408000   0.0534938     -0.81242603     0.043916165   -0.68832093     0.00665857   
   1409000   0.052669086   -0.81473585     0.040441626   -0.69534157     0.018194027  
   1410000   0.054625722   -0.81158558     0.042698286   -0.68700157     0.034787551  
   1411000   0.055056164   -0.81186064     0.043991402   -0.68533827     0.015584349  
   1412000   0.054563813   -0.81390848     0.046603108   -0.68551246     0.020767872  
   1413000   0.053527756   -0.81219223     0.045064185   -0.68688821     0.01577075   
   1414000   0.055538163   -0.81134816     0.043042268   -0.6850524      0.026685648  
   1415000   0.054353521   -0.81326864     0.044849295   -0.68694166     0.019350821  
   1416000   0.053258653   -0.81287617     0.044385963   -0.68865376     0.0054229964 
   1417000   0.053468374   -0.81159537     0.04177712    -0.68966743     0.015324061  
   1418000   0.054636272   -0.81389963     0.043838714   -0.68815938     0.024775675  
   1419000   0.053842542   -0.81305491     0.040386599   -0.6919566      0.015513319  
   1420000   0.053436819   -0.81106572     0.043062645   -0.68789956     0.048202379  
   1421000   0.05093975    -0.81254508     0.042153205   -0.69403155     0.023503842  
   1422000   0.053553798   -0.81430141     0.040804623   -0.69321792     0.010956513  
   1423000   0.05433064    -0.81437746     0.041262582   -0.6916715      0.011604986  
   1424000   0.052760455   -0.81383239     0.040968247   -0.69377452     0.0035362496 
   1425000   0.053602836   -0.81485387     0.039821803   -0.69467968     0.0163854    
   1426000   0.055372086   -0.81493007     0.043860023   -0.6880655      0.018492346  
   1427000   0.055997459   -0.81325442     0.04181049    -0.68750194     0.0019076507 
   1428000   0.053464131   -0.81453007     0.044575036   -0.68981058     0.0095939893 
   1429000   0.052612571   -0.81421102     0.041713968   -0.69362911     0.03101964   
   1430000   0.053842693   -0.81545087     0.042718321   -0.69202062     0.005093948  
   1431000   0.052913097   -0.81461635     0.042514106   -0.6927838      0.018501234  
   1432000   0.053222124   -0.81654313     0.041595011   -0.69516644     0.017712052  
   1433000   0.053583327   -0.81376542     0.042179768   -0.69126251     0.025237317  
   1434000   0.053293092   -0.81653695     0.043156765   -0.69349213     0.040756444  
   1435000   0.052450286   -0.81422852     0.041824073   -0.69377978     0.01993893   
   1436000   0.051652249   -0.81517407     0.043914811   -0.69383087     0.036710032  
   1437000   0.053910831   -0.81443008     0.043247993   -0.69036801     0.029145765  
   1438000   0.05423345    -0.81497469     0.042447564   -0.69122943     0.019997777  
   1439000   0.054426594   -0.81595763     0.043710526   -0.69065988     0.032744881  
   1440000   0.052695819   -0.81369993     0.043556088   -0.69115111     0.013338777  
   1441000   0.053082445   -0.81451116     0.04253019    -0.69240867     0.029395919  
   1442000   0.054575029   -0.81518053     0.041737638   -0.69163316     0.020142307  
   1443000   0.054161551   -0.81661287     0.044804912   -0.69061805     0.029976895  
   1444000   0.054586198   -0.81324098     0.043471562   -0.68794295     0.028476288  
   1445000   0.053809819   -0.81463673     0.044072869   -0.6899012      0.017910478  
   1446000   0.052108595   -0.81460577     0.04457775    -0.69191556     0.026232481  
   1447000   0.053280701   -0.81435871     0.041666573   -0.69282265     0.03763911   
   1448000   0.054580491   -0.81330519     0.043697292   -0.68778998     0.029388332  
   1449000   0.055773643   -0.81500657     0.042053762   -0.68934632     0.042042467  
   1450000   0.055487213   -0.81547605     0.043435124   -0.6888638      0.024170909  
   1451000   0.053498084   -0.81410536     0.04205543    -0.69185458     0.037229066  
   1452000   0.052229896   -0.81261074     0.042337161   -0.69197928     0.016335234  
   1453000   0.053903055   -0.81526597     0.041206204   -0.69325735     0.028266994  
   1454000   0.053348263   -0.81511492     0.042609987   -0.69253416     0.00033974039
   1455000   0.053481585   -0.81472757     0.041641628   -0.69291532     0.014450584  
   1456000   0.052588161   -0.81388594     0.042089745   -0.69296485     0.003130265  
   1457000   0.053183013   -0.81578001     0.040589451   -0.69546751     0.016497632  
   1458000   0.056030399   -0.81668081     0.042601374   -0.69008806     0.012930205  
   1459000   0.054920548   -0.81529258     0.044328309   -0.6886366      0.010908076  
   1460000   0.054173385   -0.81557756     0.041656467   -0.69271344     0.015053264  
   1461000   0.052967759   -0.81557793     0.041245892   -0.69493166     0.024505223  
   1462000   0.053167576   -0.81355621     0.041842676   -0.69201362     0.035977273  
   1463000   0.053908886   -0.81468394     0.042062138   -0.69181064     0.022114635  
   1464000   0.053649658   -0.81628566     0.04239839    -0.6934647      0.012377319  
   1465000   0.053095507   -0.81716374     0.042854832   -0.69471703    -0.0069513339 
   1466000   0.053449857   -0.81507025     0.043075417   -0.69187178     0.00028204401
   1467000   0.05381342    -0.81425017     0.042474272   -0.69110785     0.0089877409 
   1468000   0.053639569   -0.81632995     0.042712974   -0.69320953     0.00231521   
   1469000   0.054052656   -0.81335037     0.041529947   -0.69079375     0.016030627  
   1470000   0.054486284   -0.81493637     0.041188985   -0.69207069     0.0077051317 
   1471000   0.054084683   -0.81366286     0.041569651   -0.69101853     0.025126307  
   1472000   0.054279345   -0.81602092     0.042156564   -0.69249787     0.0099752346 
   1473000   0.053282561   -0.81517161     0.042294842   -0.6930045      0.00991389   
   1474000   0.054350606   -0.81492473     0.040443245   -0.69300817     0.022529953  
   1475000   0.053229423   -0.81681185     0.042055661   -0.69496357    -0.0066436028 
   1476000   0.05467912    -0.81456177     0.043039511   -0.68955649     0.0011952865 
   1477000   0.05277235    -0.81402582     0.043415312   -0.69150305     0.002623354  
   1478000   0.054459983   -0.81447779     0.042795874   -0.69004464     0.0093425233 
   1479000   0.052380417   -0.81506223     0.042717033   -0.69382527     0.0039897515 
   1480000   0.053854348   -0.81113831     0.042694744   -0.68771416    -0.0077243282 
   1481000   0.053489308   -0.8156666      0.042940109   -0.69254429    -0.00456902   
   1482000   0.054501079   -0.81431033     0.040222204   -0.69238925     0.016462027  
   1483000   0.053862045   -0.81333588     0.041713522   -0.69088141     0.015810964  
   1484000   0.054995834   -0.81587982     0.0428273     -0.69061199     0.0064342407 
   1485000   0.054637329   -0.81418145     0.044135873   -0.68814246    -0.0039858915 
   1486000   0.056053434   -0.81589937     0.041771766   -0.6901017      0.0048688154 
   1487000   0.053990326   -0.8155447      0.044039574   -0.69057189    -0.0012207261 
   1488000   0.052568667   -0.81309049     0.042199428   -0.69208894     0.010263229  
   1489000   0.050909448   -0.81422122     0.041526565   -0.69637975     0.015685586  
   1490000   0.054465273   -0.81587093     0.043301384   -0.69092435     0.015476877  
   1491000   0.053226735   -0.81345476     0.043093145   -0.69057303    -0.0032441947 
   1492000   0.054203098   -0.81333809     0.041125142   -0.69096076     0.0030483106 
   1493000   0.054621014   -0.81616606     0.045211513   -0.68907588     0.011844308  
   1494000   0.054680473   -0.81501575     0.043199358   -0.6898486      0.022902569  
   1495000   0.053233742   -0.81471545     0.04305689    -0.69185947    -0.00034481343
   1496000   0.051327098   -0.81596525     0.042016324   -0.69700795     0.0066420247 
   1497000   0.052579303   -0.81799768     0.043134176   -0.69604544     0.016366874  
   1498000   0.054647995   -0.81466565     0.044579167   -0.68816738     0.012239598  
   1499000   0.055142499   -0.81536105     0.043253928   -0.68944673     0.0021082918 
   1500000   0.05399721    -0.81677528     0.043936264   -0.69189546     0.0031872709 
   1501000   0.05315654    -0.81470341     0.042777403   -0.69224264    -0.0014795586 
   1502000   0.056191839   -0.8143564      0.044044252   -0.68607877     0.0075622267 
   1503000   0.053552552   -0.81671769     0.044307277   -0.69213341     0.00053529734
   1504000   0.054393298   -0.81667238     0.044462574   -0.6906725     -0.0016673775 
   1505000   0.053952564   -0.81600819     0.043442174   -0.69168938     0.014887041  
   1506000   0.052040946   -0.81684752     0.043434342   -0.69540212     0.0055694888 
   1507000   0.053193365   -0.81661785     0.041447043   -0.69543224    -0.0045471244 
   1508000   0.054813014   -0.81678006     0.043484763   -0.69112882     0.021418172  
   1509000   0.053652331   -0.81546387     0.042056504   -0.69298079     0.00013742496
   1510000   0.05576739    -0.81632511     0.04358814    -0.68913986     0.011436127  
   1511000   0.053384387   -0.81512102     0.044041691   -0.69105442    -0.013985486  
   1512000   0.055298879   -0.81637069     0.044325684   -0.6891502     -8.5958603e-06
   1513000   0.057143496   -0.81578453     0.042553841   -0.68757074     0.0066779212 
   1514000   0.054743857   -0.81619391     0.04465154    -0.68947956     0.0015082529 
   1515000   0.053706754   -0.81553862     0.045079612   -0.68995085    -0.0023236345 
   1516000   0.052800846   -0.81464163     0.042361346   -0.69313012     0.002214102  
   1517000   0.052703405   -0.81655692     0.040303063   -0.69724976     0.005613956  
   1518000   0.053221927   -0.81444032     0.040161088   -0.69449785    -0.0098776974 
   1519000   0.053875733   -0.81596722     0.044129293   -0.69107647    -0.0058534732 
   1520000   0.05315677    -0.81658442     0.042859905   -0.6940408      0.013049689  
   1521000   0.053159126   -0.81498731     0.040278249   -0.69502182     0.017581775  
   1522000   0.053753768   -0.81607229     0.042495973   -0.69299769     0.006177944  
   1523000   0.054318301   -0.8173834      0.043825305   -0.69213321     0.0064927229 
   1524000   0.054588234   -0.81535964     0.041513042   -0.69201707     0.021123014  
   1525000   0.051481577   -0.81665352     0.043980951   -0.69550002    -0.0036599508 
   1526000   0.052303397   -0.81683513     0.041811746   -0.69661891     0.016107881  
   1527000   0.053722719   -0.81391359     0.040219594   -0.69316191     0.022087105  
   1528000   0.054182264   -0.81656738     0.041969503   -0.69337691     0.017376424  
   1529000   0.053992027   -0.81442527     0.042522671   -0.69096681     0.0037361669 
   1530000   0.056046469   -0.81740802     0.043020744   -0.69037182     0.011302289  
   1531000   0.054810382   -0.8157534      0.042999589   -0.69059128     0.015929566  
   1532000   0.052320399   -0.81735421     0.044858161   -0.69406608     0.021820072  
   1533000   0.053063402   -0.81343174     0.042902981   -0.69098501     0.028382702  
   1534000   0.054387266   -0.81394643     0.043084729   -0.68933343     0.0092089867 
   1535000   0.055658326   -0.81630788     0.042939188   -0.68993506     0.0075571184 
   1536000   0.053010896   -0.81412815     0.042940212   -0.69172289     0.020730902  
   1537000   0.056087769   -0.81706949     0.042543434   -0.69044868     0.0015281816 
   1538000   0.053269831   -0.81201894     0.043250721   -0.68891502    -0.0054945336 
   1539000   0.052259175   -0.81655988     0.043280917   -0.69494077     0.00014080053
   1540000   0.054612128   -0.81549986     0.041108108   -0.69252641    -0.002171437  
   1541000   0.053739202   -0.81565063     0.043221128   -0.6918727      0.0069631325 
   1542000   0.052387679   -0.81794287     0.045307881   -0.69410417    -0.016172808  
   1543000   0.052944503   -0.8171485      0.042926886   -0.69485609     0.0084581841 
   1544000   0.05348422    -0.81771774     0.041892917   -0.69565026    -0.0025434405 
   1545000   0.0539263     -0.81549202     0.040332855   -0.6943219      0.0011899354 
   1546000   0.0550717     -0.81655191     0.04101923    -0.69297843     1.4972919e-05
   1547000   0.052053623   -0.81355965     0.044121653   -0.69140794     0.0022951146 
   1548000   0.054361278   -0.81451925     0.040149454   -0.69288048     0.0050009718 
   1549000   0.052642953   -0.81500907     0.040487615   -0.69560797     0.0077555037 
   1550000   0.053737521   -0.81516269     0.042518515   -0.6920899      0.016723879  
   1551000   0.051696193   -0.81510303     0.042609043   -0.69499973     0.0097260746 
   1552000   0.052244022   -0.817328       0.04140587    -0.69760666     0.014084129  
   1553000   0.052287758   -0.81761793     0.041950545   -0.69728635     0.0020399421 
   1554000   0.053824989   -0.81657141     0.039618656   -0.69626736     0.035560039  
   1555000   0.052796116   -0.8171841      0.04152264    -0.69651838     0.020792369  
   1556000   0.054431209   -0.81638494     0.042986994   -0.69180381     0.038652423  
   1557000   0.05316745    -0.81593215     0.043318117   -0.69291431     0.0073909772 
   1558000   0.055189117   -0.81641788     0.044396529   -0.68929109     0.0059837195 
   1559000   0.055060348   -0.81393919     0.042949797   -0.68845216     0.025103126  
   1560000   0.053853923   -0.81791673     0.042303232   -0.69488473     0.038378797  
   1561000   0.051975194   -0.81588459     0.043031592   -0.6949405      0.019240846  
   1562000   0.052023229   -0.81556299     0.042209785   -0.69536871     0.032617057  
   1563000   0.05353447    -0.81623069     0.040790886   -0.6951899      0.023097093  
   1564000   0.052708749   -0.81639038     0.045739833   -0.69163843     0.0077545213 
   1565000   0.05274177    -0.81846911     0.043078282   -0.69632921     0.0062623485 
   1566000   0.052399516   -0.81499314     0.041862343   -0.69458223     0.011217249  
   1567000   0.053851089   -0.81515445     0.041775755   -0.69265418     0.015360759  
   1568000   0.052460483   -0.81680814     0.043221549   -0.69494663    -0.0030326598 
   1569000   0.053212039   -0.81552112     0.040470602   -0.69528396     0.00078907991
   1570000   0.052089344   -0.81677991     0.041434205   -0.69726209    -0.013265921  
   1571000   0.054027887   -0.81695423     0.042041933   -0.69392275     0.033006402  
   1572000   0.052741547   -0.81735579     0.040852309   -0.6974422      0.019687268  
   1573000   0.053668386   -0.81190606     0.042629085   -0.68882634     0.014417694  
   1574000   0.054975737   -0.8151698      0.043263677   -0.68949572     0.012095173  
   1575000   0.054309631   -0.81667147     0.043198075   -0.69206151     0.011761629  
   1576000   0.054173143   -0.81619481     0.043623076   -0.69136445    -0.0025663942 
   1577000   0.055130055   -0.81500079     0.042534007   -0.68982505     0.019486797  
   1578000   0.05462355    -0.81705231     0.042531906   -0.69263794     0.011776552  
   1579000   0.053736842   -0.81611922     0.042727124   -0.69283884     0.0031998604 
   1580000   0.053423111   -0.81658219     0.040978787   -0.69552043     0.015910027  
   1581000   0.053125607   -0.81707159     0.041830957   -0.69560364     0.0056320815 
   1582000   0.053581767   -0.81691165     0.044043884   -0.69254696     0.025728478  
   1583000   0.055116092   -0.81514177     0.042373755   -0.69014721     0.019558154  
   1584000   0.055908209   -0.81526454     0.043480858   -0.68797548     0.00038065319
   1585000   0.052785693   -0.81735451     0.043995267   -0.69423179     0.012459577  
   1586000   0.053934198   -0.81804301     0.043072592   -0.69412132     0.02032077   
   1587000   0.05454868    -0.81421213     0.042542885   -0.68989901     0.0093523403 
   1588000   0.055233708   -0.81774265     0.043025788   -0.69191975    -0.0028174339 
   1589000   0.053063694   -0.81729394     0.04281764    -0.69493211     0.0088632936 
   1590000   0.053133803   -0.81683554     0.041926621   -0.69525963     0.029946231  
   1591000   0.051331309   -0.81581972     0.042576567   -0.69629587     0.020534698  
   1592000   0.053191343   -0.81728187     0.042734228   -0.6948121      0.016030466  
   1593000   0.054499949   -0.81701435     0.041696241   -0.69362093     0.012576909  
   1594000   0.053378475   -0.81854356     0.04472379    -0.69380371     0.0012849608 
   1595000   0.055273619   -0.81763202     0.044551376   -0.6902237      0.012841616  
   1596000   0.052811142   -0.81792607     0.044307999   -0.69445246     0.038093083  
   1597000   0.0545638     -0.81787673     0.043778186   -0.69230565     0.031132319  
   1598000   0.054418344   -0.81762583     0.043574798   -0.69247618     0.021076497  
   1599000   0.055408597   -0.81724605     0.042735699   -0.69145108     0.012773655  
   1600000   0.052855159   -0.81814646     0.041585776   -0.69732909     0.021888231  
   1601000   0.054303514   -0.81733175     0.042514467   -0.69341456     0.011184294  
   1602000   0.05728906    -0.81656884     0.042914862   -0.68777583     0.0026299983 
   1603000   0.053643569   -0.81696288     0.04258292    -0.69396652     0.023316181  
   1604000   0.053245389   -0.81639766     0.043781419   -0.69279969     0.017658387  
   1605000   0.055461903   -0.81477041     0.042233282   -0.68939795     0.032105834  
   1606000   0.053937088   -0.8148525      0.044456765   -0.6895423      0.0078654028 
   1607000   0.053579532   -0.81441197     0.041613208   -0.69248132     0.020191915  
   1608000   0.055613474   -0.81593827     0.044612971   -0.68795891     0.02680411   
   1609000   0.052945824   -0.81558147     0.04395894    -0.69225504     0.028258627  
   1610000   0.054182925   -0.81621621     0.043196517   -0.69179774     0.032247241  
   1611000   0.053938818   -0.81691308     0.042886494   -0.69317056     0.023901907  
   1612000   0.055533385   -0.81727706     0.04349084    -0.69053988     0.0093295205 
   1613000   0.05612152    -0.81645467     0.042067011   -0.69025969     0.012269131  
   1614000   0.052719172   -0.81590091     0.043317402   -0.69355577     0.027266225  
   1615000   0.054011395   -0.81610844     0.043021675   -0.69212194     0.01356142   
   1616000   0.055096696   -0.81726064     0.042983318   -0.6916856      0.008197863  
   1617000   0.05257423    -0.81601778     0.042682459   -0.69452486     0.013184615  
   1618000   0.054986162   -0.81660772     0.04213687    -0.69204482     0.032838235  
   1619000   0.052169355   -0.81555004     0.040583316   -0.69676318     0.025329928  
   1620000   0.05430782    -0.81904867     0.043824214   -0.69381528     0.021167935  
   1621000   0.053970563   -0.81882552     0.042620895   -0.69530101     0.015869667  
   1622000   0.05351457    -0.81631677     0.044226044   -0.69187066     0.03031136   
   1623000   0.055079406   -0.81845494     0.041680558   -0.69420858     0.0268563    
   1624000   0.053519575   -0.81728325     0.041492878   -0.69556281     0.017432933  
   1625000   0.052165103   -0.81538909     0.043128474   -0.69406344     0.01725712   
   1626000   0.054248266   -0.81651823     0.04242123    -0.6927771      0.018537944  
   1627000   0.055621703   -0.81902558     0.043220827   -0.69242603     0.0071113256 
   1628000   0.053273716   -0.81788095     0.041305425   -0.69671651     0.0045890652 
   1629000   0.054374811   -0.81788974     0.044690438   -0.69168971     0.0047894647 
   1630000   0.055006475   -0.81786946     0.042779791   -0.69263318     0.011607922  
   1631000   0.054861478   -0.81830178     0.043365975   -0.69269668     0.014934027  
   1632000   0.054392735   -0.81795503     0.044449215   -0.69196935     0.019247713  
   1633000   0.053451618   -0.8189783      0.044103786   -0.69474881     0.0095455102 
   1634000   0.053137275   -0.81780621     0.043210575   -0.69494115    -0.0023304279 
   1635000   0.05354608    -0.81670671     0.043330234   -0.69310917     0.0078692618 
   1636000   0.055737905   -0.81826988     0.042194983   -0.69252198     0.0079316098 
   1637000   0.053869549   -0.81680342     0.043682846   -0.69236838     0.032328137  
   1638000   0.057023723   -0.818587       0.043090781   -0.69001582     0.031969801  
   1639000   0.055646911   -0.81759485     0.042154959   -0.69202338     0.022302     
   1640000   0.054394952   -0.81719769     0.042650955   -0.69300694     0.020687969  
   1641000   0.055225603   -0.81799759     0.043679399   -0.69153324     0.010423138  
   1642000   0.055788997   -0.81560516     0.043474171   -0.68850149     0.010178304  
   1643000   0.051806507   -0.81508063     0.042725396   -0.69469561     0.0042614338 
   1644000   0.051996111   -0.81706016     0.041222909   -0.6978934      0.023657825  
   1645000   0.052673526   -0.81614757     0.042489411   -0.69469884     0.0083491031 
   1646000   0.052579991   -0.81631562     0.042158182   -0.69533834     0.0034221863 
   1647000   0.053317646   -0.81645038     0.039764387   -0.69676113     0.022584612  
   1648000   0.052695597   -0.81876411     0.041284141   -0.69848757     0.01376657   
   1649000   0.053117707   -0.8183892      0.042592975   -0.69617107     0.022651861  
   1650000   0.053312102   -0.81887456     0.042650846   -0.69630715     0.02225581   
   1651000   0.054160748   -0.81573207     0.043472255   -0.69107111     0.016718042  
   1652000   0.055643108   -0.81828172     0.044295433   -0.69057547     0.024179601  
   1653000   0.054928952   -0.81436424     0.042698651   -0.68932532     0.02001446   
   1654000   0.053904006   -0.81330414     0.042396433   -0.69010386     0.01981887   
   1655000   0.053015501   -0.81541379     0.041339107   -0.69460274     0.0092170136 
   1656000   0.053206972   -0.81790833     0.043296193   -0.69485317     0.013916774  
   1657000   0.054216341   -0.81711739     0.044090523   -0.69175483     0.028010294  
   1658000   0.052344408   -0.81767642     0.042905332   -0.69630514     0.01531879   
   1659000   0.054320147   -0.81609522     0.039884657   -0.69478291     0.022516408  
   1660000   0.052706582   -0.81509065     0.042107131   -0.69397465     0.016329066  
   1661000   0.055310905   -0.81698406     0.042592351   -0.69147888     0.01194178   
   1662000   0.053044752   -0.81634238     0.043353027   -0.69347356     0.016992509  
   1663000   0.054925299   -0.8178343      0.042185951   -0.69331356     0.012379897  
   1664000   0.052377355   -0.81600968     0.042366411   -0.69512793     0.014691952  
   1665000   0.054001767   -0.81590956     0.041217949   -0.69374122     0.015286379  
   1666000   0.054669524   -0.81651724     0.04151632    -0.69304954     0.031234029  
   1667000   0.053815186   -0.81599985     0.042172953   -0.6931562      0.015075596  
   1668000   0.05431679    -0.81737046     0.043308952   -0.69263889     0.019593342  
   1669000   0.052962871   -0.81508253     0.040783977   -0.6949055      0.011747874  
   1670000   0.053321971   -0.81649263     0.041616674   -0.6949446      0.0095999399 
   1671000   0.055387788   -0.81611958     0.041359647   -0.69173185     0.0098740921 
   1672000   0.052875193   -0.81325297     0.04247299    -0.69151836     0.020380735  
   1673000   0.054168226   -0.81653813     0.042353428   -0.69298479     0.0087420791 
   1674000   0.053114066   -0.81522688     0.041420421   -0.69418677     0.040411966  
   1675000   0.053040267   -0.81656235     0.042268424   -0.69478486     0.0011937056 
   1676000   0.055630451   -0.8151061      0.043085927   -0.68862834     0.0018200139 
   1677000   0.055795325   -0.81599118     0.041960806   -0.69039138     0.0048095922 
   1678000   0.055176921   -0.81663635     0.04344782    -0.69047655    -0.0026051543 
   1679000   0.054505489   -0.81577722     0.043815961   -0.69025577     0.0070463663 
   1680000   0.052862129   -0.81743839     0.041624748   -0.69657161     0.0087164382 
   1681000   0.05258575    -0.81409451     0.042814548   -0.69245222     0.010115506  
   1682000   0.053361211   -0.815639       0.043199828   -0.692449       0.0051205392 
   1683000   0.05485246    -0.81609118     0.0429036     -0.69096198     0.01581603   
   1684000   0.055150969   -0.81620014     0.041479513   -0.69204755     0.018116284  
   1685000   0.053104566   -0.81824556     0.044042513   -0.69459759     0.0011785417 
   1686000   0.053986445   -0.81553949     0.041846419   -0.69276565    -0.0010300502 
   1687000   0.053709427   -0.81519481     0.041504043   -0.69317861     0.021759017  
   1688000   0.05464725    -0.81550903     0.041890611   -0.69170043     0.025906246  
   1689000   0.055008899   -0.81651976     0.044255293   -0.68980435     0.011311745  
   1690000   0.054087722   -0.81480358     0.042652231   -0.6910721      0.026559715  
   1691000   0.054797817   -0.81857252     0.045450538   -0.69097828     0.005848785  
   1692000   0.0531855     -0.81872756     0.041229214   -0.69777157     0.0033690093 
   1693000   0.053975662   -0.81824459     0.040940792   -0.69639254     0.019049203  
   1694000   0.053909018   -0.81822741     0.042846372   -0.69456968     0.012045721  
   1695000   0.055666128   -0.81600705     0.045252468   -0.68730926     0.020664181  
   1696000   0.055956733   -0.81828239     0.043338693   -0.69106275     0.010991517  
   1697000   0.054059433   -0.81681664     0.043605224   -0.69217458     0.01097632   
   1698000   0.053274504   -0.81860644     0.042206813   -0.69653943     0.008647279  
   1699000   0.054708124   -0.81652696     0.041730616   -0.69278711     0.017783263  
   1700000   0.05428436    -0.82001425     0.043347931   -0.69529231     0.0096014635 
   1701000   0.052808612   -0.81692485     0.041665296   -0.69609774     0.021492191  
   1702000   0.052880337   -0.81890089     0.043619557   -0.69601201    -0.00013655286
   1703000   0.053879755   -0.81851374     0.041872395   -0.69587385     0.012854997  
   1704000   0.054801585   -0.81847099     0.040431775   -0.69588987    -7.4418174e-05
   1705000   0.054927075   -0.82067422     0.042166208   -0.69617055     0.018748681  
   1706000   0.054448854   -0.81721238     0.044631985   -0.6909598      0.012903661  
   1707000   0.05365015    -0.81886562     0.043437693   -0.69500462     0.013191045  
   1708000   0.05352293    -0.81946951     0.042152486   -0.69708442     0.0095348057 
   1709000   0.053907292   -0.8172704      0.041365619   -0.69509601     0.019241844  
   1710000   0.055172808   -0.81814294     0.042593304   -0.69284382     0.0038447194 
   1711000   0.055541813   -0.81860325     0.042235224   -0.69310906    -0.017222996  
   1712000   0.051708205   -0.81801542     0.04241939    -0.69808376     0.0089867902 
   1713000   0.05458765    -0.81790147     0.041640065   -0.69443275     0.017233408  
   1714000   0.052531065   -0.81755371     0.045487995   -0.69331995     0.024479643  
   1715000   0.056350733   -0.81984337     0.042043479   -0.69332833     0.00077916969
   1716000   0.055056013   -0.81852612     0.043249502   -0.69274587     0.0089125547 
   1717000   0.054076927   -0.81891831     0.043256748   -0.69459851    -0.0055247742 
   1718000   0.055161903   -0.81825958     0.04369384    -0.69187627     0.0058893314 
   1719000   0.053892635   -0.81904462     0.045067969   -0.69318985    -0.0028170653 
   1720000   0.055752972   -0.81794109     0.042258344   -0.69210724     0.013387175  
   1721000   0.053055087   -0.81550468     0.042121228   -0.69385216     0.0024968814 
   1722000   0.054019783   -0.8177403      0.043602101   -0.6931608      0.023536475  
   1723000   0.055062263   -0.81699725     0.04108778    -0.69336936    -0.0059891032 
   1724000   0.05424928    -0.81744596     0.043860785   -0.69226376    -0.0008762844 
   1725000   0.054767127   -0.81930845     0.043265577   -0.69394519    -0.00020347015
   1726000   0.052563413   -0.81923932     0.042022481   -0.69842258     0.0069297287 
   1727000   0.052672279   -0.81884667     0.044661938   -0.69522729    -0.0026106583 
   1728000   0.053236041   -0.82123408     0.042385254   -0.69904628    -0.012125372  
   1729000   0.054310865   -0.81963131     0.039927476   -0.6982901      0.0041493677 
   1730000   0.054346674   -0.8172922      0.042267712   -0.69355707     0.0029751936 
   1731000   0.052266235   -0.81735416     0.040414395   -0.69859099     0.014685965  
   1732000   0.051533887   -0.82013632     0.040286201   -0.70259916     0.00046661175
   1733000   0.053285431   -0.81962929     0.042646087   -0.69710663    -0.0074556166 
   1734000   0.054340414   -0.81953383     0.042059888   -0.69601591     0.034915531  
   1735000   0.053577589   -0.81843014     0.042028169   -0.69608744     0.017059004  
   1736000   0.054874619   -0.81920996     0.042622329   -0.69432881     0.02628286   
   1737000   0.054743658   -0.81778996     0.043283434   -0.69244402     0.013741134  
   1738000   0.055028528   -0.81966468     0.043334259   -0.69384088    -0.015614148  
   1739000   0.055343609   -0.82006622     0.042355778   -0.69474858     0.028259573  
   1740000   0.055204776   -0.81940552     0.041104467   -0.69554732     0.027432613  
   1741000   0.055559894   -0.8189217      0.042122363   -0.69351326     0.044060716  
   1742000   0.053336275   -0.81803479     0.041253552   -0.69682844     0.025594041  
   1743000   0.053349265   -0.82016499     0.043105695   -0.69708703     0.015220727  
   1744000   0.052189149   -0.81964059     0.044199475   -0.6972079      0.01968296   
   1745000   0.05478674    -0.81847224     0.040450721   -0.69589443     0.010700823  
   1746000   0.054580841   -0.81843657     0.043425914   -0.69319222     0.02328584   
   1747000   0.053205643   -0.81865443     0.042036864   -0.69686059     0.0089396149 
   1748000   0.054218547   -0.81975364     0.042203936   -0.69627435     0.0021520694 
   1749000   0.05498386    -0.81782691     0.043457048   -0.69194728     0.0016788375 
   1750000   0.051724995   -0.8204425      0.041725833   -0.70117923    -0.009601184  
   1751000   0.053068789   -0.8210334      0.042152249   -0.69932932     0.0086606581 
   1752000   0.054361838   -0.81824071     0.042436976   -0.69431359     0.018089253  
   1753000   0.054286651   -0.81707576     0.043567247   -0.69213107     0.02773442   
   1754000   0.052311317   -0.81992361     0.043228009   -0.69827925     0.041705037  
   1755000   0.052621334   -0.81929443     0.042411518   -0.69800183     0.024856618  
   1756000   0.055732173   -0.81943103     0.038027876   -0.69785883     0.014406663  
   1757000   0.05399374    -0.81902995     0.043151008   -0.69494058     0.014055699  
   1758000   0.053882917   -0.81755388     0.043150346   -0.6936313      0.025746638  
   1759000   0.055755159   -0.81884706     0.043894783   -0.69137349     0.033626289  
   1760000   0.053920014   -0.82140216     0.043671459   -0.69690286     0.024509423  
   1761000   0.053709368   -0.81898842     0.042671944   -0.6958044      0.0076078597 
   1762000   0.05391853    -0.81955058     0.042478588   -0.69624637     0.035401545  
   1763000   0.05316348    -0.81948856     0.042259641   -0.69753514     0.017505308  
   1764000   0.053618352   -0.82127818     0.043662158   -0.69724038     0.011989191  
   1765000   0.054351996   -0.82146959     0.042545001   -0.69744919     0.014582169  
   1766000   0.052615873   -0.81736889     0.04310443    -0.69539157     0.038370749  
   1767000   0.052465613   -0.81937174     0.043892888   -0.69683121     0.027077158  
   1768000   0.054972971   -0.81930445     0.043628474   -0.69326972     0.03927621   
   1769000   0.055914713   -0.82075215     0.043230815   -0.69370338     0.022904626  
   1770000   0.053950704   -0.81988809     0.043748416   -0.69526583     0.038987461  
   1771000   0.054730529   -0.81793601     0.040897139   -0.69499604     0.023628014  
   1772000   0.05316007    -0.82006425     0.04044955    -0.69992604     0.019901319  
   1773000   0.05250893    -0.81841        0.039823864   -0.69987355     0.01998114   
   1774000   0.052818968   -0.81968225     0.042810088   -0.69769482     0.0023386245 
   1775000   0.052871109   -0.82062935     0.041860087   -0.69951376     0.028577998  
   1776000   0.054390385   -0.81875396     0.042196136   -0.69502488     0.0078580495 
   1777000   0.053385355   -0.81745743     0.043759665   -0.6936714      0.021944356  
   1778000   0.052010895   -0.82017968     0.043526524   -0.69868714     0.01578711   
   1779000   0.053750385   -0.8197262      0.043011721   -0.69614092     0.0011656709 
   1780000   0.055156426   -0.8184067      0.041300076   -0.69442537     0.016087686  
   1781000   0.053074857   -0.81860799     0.042152471   -0.6968946      0.014759293  
   1782000   0.052558084   -0.81839175     0.041757611   -0.69784788     0.01777203   
   1783000   0.051448575   -0.81946356     0.042041448   -0.70029904     0.02796841   
   1784000   0.051533737   -0.81996441     0.042331404   -0.70038227     0.01185629   
   1785000   0.053367227   -0.81699607     0.042641534   -0.69435535     0.020861444  
   1786000   0.054340794   -0.81848407     0.043111215   -0.69391425     0.017020217  
   1787000   0.052462139   -0.8201459      0.045040421   -0.69646303     0.008824732  
   1788000   0.053316461   -0.81761686     0.04096761    -0.69672615     0.017901425  
   1789000   0.054067157   -0.82030796     0.040299239   -0.6989603      0.039119885  
   1790000   0.054238106   -0.8187299      0.041979533   -0.6954457      0.011635752  
   1791000   0.05480963    -0.81994023     0.043899878   -0.69387895     0.017848883  
   1792000   0.053172056   -0.81995154     0.043459151   -0.69678576     0.025619601  
   1793000   0.053010253   -0.8187856      0.041209054   -0.69811246     0.030208157  
   1794000   0.054226042   -0.81931841     0.042442341   -0.69558949     0.016491401  
   1795000   0.056000757   -0.81865438     0.042945072   -0.69176236     0.044946605  
   1796000   0.054981464   -0.81971248     0.044394102   -0.69289939     0.045369011  
   1797000   0.052258841   -0.81802448     0.040834273   -0.69885252     0.041171756  
   1798000   0.054309662   -0.82054294     0.044222155   -0.69490885     0.026439036  
   1799000   0.053461987   -0.81952323     0.043598832   -0.69578316     0.024123     
   1800000   0.054914325   -0.82059158     0.042742006   -0.69553123     0.036762605  
   1801000   0.055368627   -0.81971871     0.042972922   -0.69374643     0.0092118746 
   1802000   0.052640908   -0.8191577      0.041023556   -0.69922372     0.029435616  
   1803000   0.054490061   -0.81757985     0.041597015   -0.69430047     0.049647277  
   1804000   0.053697797   -0.82064161     0.043028116   -0.69711877     0.0073000603 
   1805000   0.054087668   -0.81789325     0.042386377   -0.69442772     0.037956614  
   1806000   0.054463268   -0.82161672     0.04614336    -0.69383116     0.0051680144 
   1807000   0.053628866   -0.81653335     0.042461313   -0.69368064     0.031965714  
   1808000   0.053988323   -0.81898652     0.040533676   -0.69752261     0.021804861  
   1809000   0.052876642   -0.81896157     0.042362314   -0.69733546     0.015007043  
   1810000   0.052577495   -0.82081013     0.041942796   -0.70005197     0.037160553  
   1811000   0.053097197   -0.81991346     0.040845013   -0.69947403     0.015299754  
   1812000   0.052091334   -0.81775052     0.039420742   -0.70024319     0.027950066  
   1813000   0.052507677   -0.82071898     0.043145022   -0.69886326     0.029264147  
   1814000   0.054721803   -0.81754115     0.042993141   -0.69251826     0.018650141  
   1815000   0.054695659   -0.82020265     0.044365158   -0.69384694     0.029579323  
   1816000   0.054614286   -0.81984227     0.043149073   -0.69482463     0.010438629  
   1817000   0.055622588   -0.82109593     0.043567154   -0.69414873     0.013275441  
   1818000   0.053011134   -0.81872249     0.040501707   -0.69875538     0.024979103  
   1819000   0.054271372   -0.82066837     0.045209469   -0.69410436     0.028344829  
   1820000   0.053712703   -0.81999375     0.043951568   -0.69552511    -0.0067809724 
   1821000   0.0555198     -0.81960659     0.040510946   -0.69586967     0.0172786    
   1822000   0.053609571   -0.81950773     0.042734065   -0.69641119     0.021194621  
   1823000   0.053984078   -0.81869311     0.044960674   -0.69280856     0.0034002308 
   1824000   0.054444568   -0.81860483     0.043553063   -0.6934376      0.014450542  
   1825000   0.055414529   -0.81736257     0.042638032   -0.69165637     0.0060232819 
   1826000   0.056111455   -0.81776508     0.042529741   -0.69112246     0.00039497177
   1827000   0.053676427   -0.82022706     0.042706061   -0.6970583     -0.00026233526
   1828000   0.054494659   -0.81701692     0.04115859    -0.69416908     0.034882408  
   1829000   0.054105812   -0.81749        0.042752682   -0.69363096     0.01172594   
   1830000   0.053119685   -0.81862514     0.044746288   -0.69425073     0.0047863547 
   1831000   0.053220651   -0.81969603     0.043983971   -0.69593259     0.01521831   
   1832000   0.055159238   -0.8177666      0.043173429   -0.6919077     -0.0028879804 
   1833000   0.055607008   -0.81804159     0.040858045   -0.69382684     0.031618634  
   1834000   0.053042035   -0.81817594     0.042716258   -0.69594796     0.026221413  
   1835000   0.052508466   -0.81943137     0.043114042   -0.69760544     0.016387778  
   1836000   0.053883348   -0.81725602     0.043550292   -0.69293285     0.016288363  
   1837000   0.052701862   -0.81857977     0.040981925   -0.69859605     0.019349337  
   1838000   0.054439694   -0.81825586     0.040109941   -0.69653906    -0.0030083861 
   1839000   0.055267192   -0.81986064     0.042745181   -0.69426816     0.0089665086 
   1840000   0.055032636   -0.81799001     0.042354063   -0.69314025     0.0031266026 
   1841000   0.05219139    -0.81949982     0.043331281   -0.69793196     0.031008385  
   1842000   0.052789454   -0.81975778     0.041908873   -0.69871581     0.009742857  
   1843000   0.052653899   -0.81851574     0.041589382   -0.69799647     0.022655633  
   1844000   0.053755007   -0.81937253     0.043177197   -0.69561484    -0.0011878817 
   1845000   0.05549124    -0.81949825     0.042760998   -0.69355409     0.0062518307 
   1846000   0.055042289   -0.8196442      0.042312336   -0.6948217      0.0076974891 
   1847000   0.054356721   -0.81945495     0.042835017   -0.69513746     0.011513084  
   1848000   0.054156057   -0.82057777     0.045981696   -0.6934144      0.0027179757 
   1849000   0.052911115   -0.81880732     0.046708444   -0.69278341     0.02044768   
   1850000   0.052844572   -0.81834718     0.04187333    -0.69725813     0.043375044  
   1851000   0.054225543   -0.82042182     0.041491851   -0.69764413     0.03305608   
   1852000   0.050301384   -0.81933516     0.044199276   -0.69973249     0.013940937  
   1853000   0.052843503   -0.82161321     0.042751772   -0.69964733     0.012160517  
   1854000   0.05278896    -0.81998685     0.043241499   -0.697613       0.0022889527 
   1855000   0.053847335   -0.81901847     0.04213299    -0.69616659     0.006447656  
   1856000   0.055666723   -0.81924531     0.042103785   -0.69369532     0.014798058  
   1857000   0.053658007   -0.81896169     0.045779554   -0.69274706     0.006011676  
   1858000   0.055760439   -0.82130145     0.042733262   -0.69498149     0.0032695757 
   1859000   0.051905561   -0.81948712     0.04302783    -0.69865118     0.020392695  
   1860000   0.055724265   -0.81986649     0.042111686   -0.69422234     0.029129051  
   1861000   0.052442999   -0.82150843     0.045167338   -0.69772734     0.02446738   
   1862000   0.05449674    -0.81861081     0.0446486     -0.69226984     0.0078350737 
   1863000   0.054707546   -0.81690582     0.044397082   -0.69050036     0.026288264  
   1864000   0.056552178   -0.81693217     0.045099135   -0.6870595      0.010462675  
   1865000   0.05527038    -0.81800688     0.046118653   -0.68903614    -0.00050727388
   1866000   0.054121856   -0.81834131     0.043630441   -0.69358046     0.015958464  
   1867000   0.054045373   -0.81865679     0.042992843   -0.69464819     0.0042030981 
   1868000   0.052763683   -0.81905577     0.042093549   -0.69786775     0.005551884  
   1869000   0.056535802   -0.81618771     0.045535003   -0.68590372    -0.0019990476 
   1870000   0.054837341   -0.81852976     0.046723898   -0.68960292     0.016558865  
   1871000   0.054992795   -0.81810153     0.042995437   -0.69267012     0.024073805  
   1872000   0.054627692   -0.81617639     0.043115972   -0.69117174     0.033456487  
   1873000   0.054995843   -0.81672308     0.044077862   -0.69020467     0.0013936487 
   1874000   0.055696414   -0.81547712     0.044468346   -0.68751805     0.015344641  
   1875000   0.055550811   -0.8194437      0.043504166   -0.69266708     0.017597162  
   1876000   0.054216905   -0.81796741     0.046084223   -0.6906103     -0.003400164  
   1877000   0.05401438    -0.81634835     0.042344686   -0.69303437     0.018270322  
   1878000   0.054959735   -0.81752766     0.042889244   -0.692252       0.0031334874 
   1879000   0.05399737    -0.81968992     0.042653055   -0.69609306    -0.0098275449 
   1880000   0.051111133   -0.8140334      0.042943637   -0.69447252     0.016545239  
   1881000   0.054133596   -0.81625903     0.041546621   -0.69356441     0.031400761  
   1882000   0.056499246   -0.81619377     0.042438604   -0.68906098     0.043953757  
   1883000   0.054195682   -0.81689598     0.04592287    -0.68973203     0.012457726  
   1884000   0.053646693   -0.81553156     0.043544285   -0.69156915    -0.0038252273 
   1885000   0.053839754   -0.81838662     0.043423427   -0.69425566     0.011305112  
   1886000   0.052990428   -0.81741486     0.04405364    -0.69392686     0.0080538845 
   1887000   0.053428443   -0.81552484     0.045299169   -0.69013471     0.021039424  
   1888000   0.054294812   -0.81689493     0.043952292   -0.69155296     0.016326697  
   1889000   0.054449034   -0.81594051     0.04291333    -0.69140632     0.013166415  
   1890000   0.053325298   -0.81649685     0.041396339   -0.69516416     0.0018253126 
   1891000   0.053568443   -0.81790844     0.041165886   -0.69644173     0.021411078  
   1892000   0.053868403   -0.81567507     0.042609647   -0.69231495     0.0295368    
   1893000   0.055572478   -0.81638205     0.041302357   -0.69177476     0.0075110977 
   1894000   0.051127329   -0.81767465     0.042977085   -0.69805605     0.010856439  
   1895000   0.053161133   -0.81339644     0.043979901   -0.68972629     0.02631798   
   1896000   0.05257793    -0.81345086     0.04363368    -0.69100116     0.011252158  
   1897000   0.055022453   -0.81130524     0.044142365   -0.68468245     0.018427508  
   1898000   0.055782975   -0.81325293     0.042253151   -0.6873793      0.028661438  
   1899000   0.053390638   -0.81342129     0.043492913   -0.68989409     0.014731228  
   1900000   0.053745135   -0.81144691     0.04312965    -0.68775157     0.021713131  
   1901000   0.054312134   -0.81152072     0.042646305   -0.68745878     0.039667096  
   1902000   0.053951491   -0.81087083     0.04304093    -0.68695487     0.036114527  
   1903000   0.052874739   -0.81138052     0.044102518   -0.68801706     0.018978767  
   1904000   0.05393716    -0.80997139     0.041719593   -0.68739825     0.028611831  
   1905000   0.053705828   -0.81180327     0.042561537   -0.68873496     0.0088267564 
   1906000   0.053794663   -0.81124332     0.044073112   -0.68653028     0.014197998  
   1907000   0.054693107   -0.81365643     0.042762521   -0.68890718    -0.0064270804 
   1908000   0.052126219   -0.81119198     0.041735438   -0.69131766     0.021187739  
   1909000   0.054824173   -0.81214462     0.043564452   -0.68639697     0.020802766  
   1910000   0.053920996   -0.81232446     0.044155269   -0.68733988     0.025721163  
   1911000   0.055746029   -0.81114809     0.044289951   -0.68329304     0.020665338  
   1912000   0.053800176   -0.81075026     0.041971984   -0.68813008     0.018748343  
   1913000   0.053577923   -0.81060728     0.044256736   -0.68603551     0.018130879  
   1914000   0.054910704   -0.81139882     0.043495159   -0.68559074     0.0076796772 
   1915000   0.054439638   -0.81083302     0.045365148   -0.68386109     0.0050822554 
   1916000   0.053170073   -0.80954385     0.045332865   -0.68450733     0.024684643  
   1917000   0.053911931   -0.81084173     0.044956526   -0.68506948     0.0075351067 
   1918000   0.053718456   -0.8111398      0.045708315   -0.68490579     0.029992538  
   1919000   0.055184817   -0.81206194     0.044117132   -0.68522099     0.013921913  
   1920000   0.052999759   -0.81064007     0.044060583   -0.68713114     0.016469181  
   1921000   0.055508181   -0.81216556     0.045448234   -0.68350877     0.01962523   
   1922000   0.055232223   -0.81074901     0.047325954   -0.68062817     0.010862966  
   1923000   0.056268947   -0.81072868     0.04299342    -0.6833863      0.012026305  
   1924000   0.053324876   -0.81083508     0.043247567   -0.6876518      0.011667473  
   1925000   0.055066413   -0.81264513     0.045051225   -0.68504757     0.0074365319 
   1926000   0.055842307   -0.81267621     0.045489003   -0.68347779     0.020733421  
   1927000   0.056068105   -0.80917566     0.045116883   -0.68001088     0.028708026  
   1928000   0.055466331   -0.80884424     0.045550145   -0.68014827     0.011344926  
   1929000   0.054511831   -0.81140357     0.04608644    -0.68360214     0.0019935458 
   1930000   0.056160756   -0.81166288     0.044541993   -0.6829341      0.0068414099 
   1931000   0.055409996   -0.80975369     0.045965225   -0.68072709     0.023079237  
   1932000   0.055321892   -0.81156378     0.047129427   -0.68150505     0.01930201   
   1933000   0.054390851   -0.81256902     0.043352365   -0.68768301     0.011120228  
   1934000   0.053502926   -0.81371352     0.044637809   -0.6888731      0.010427827  
   1935000   0.054937117   -0.8132205      0.044391246   -0.68647674     0.023600756  
   1936000   0.053869475   -0.81366105     0.045766639   -0.68714233     0.020946574  
   1937000   0.053757694   -0.81305076     0.045893469   -0.68657277     0.033382455  
   1938000   0.054913403   -0.81274435     0.046636957   -0.68379043    -0.00048474401
   1939000   0.054293847   -0.81198562     0.045348474   -0.68524892     0.022493157  
   1940000   0.054412435   -0.81188392     0.044078861   -0.68623906     0.018020378  
   1941000   0.055211432   -0.81248654     0.044500287   -0.68522253    -0.004308857  
   1942000   0.054443411   -0.81284537     0.043037479   -0.68819546     0.017090537  
   1943000   0.05618821    -0.81245837     0.044136688   -0.68409374     0.018913188  
   1944000   0.055163253   -0.81225704     0.04522686    -0.68433868     0.0092243921 
   1945000   0.05320446    -0.81322705     0.043962539   -0.68950931     0.019164461  
   1946000   0.054725601   -0.81244863     0.043911725   -0.68650146     0.011305646  
   1947000   0.053324092   -0.81253683     0.044594595   -0.6880077     -0.0021752156 
   1948000   0.053987912   -0.81274031     0.045027283   -0.68678341     0.023839355  
   1949000   0.053920191   -0.81257599     0.043686461   -0.68806142     0.014525531  
   1950000   0.052325386   -0.81190472     0.045716614   -0.68775067     0.029324946  
   1951000   0.053140433   -0.81308748     0.046847677   -0.68658058     0.02856416   
   1952000   0.05489617    -0.81263619     0.045685634   -0.68465942     0.0027291099 
   1953000   0.054514931   -0.81203349     0.044574035   -0.68573982     0.01378199   
   1954000   0.054648742   -0.8125826      0.047621215   -0.68304116     0.012661763  
   1955000   0.0554276     -0.81049337     0.04561651    -0.6817891      0.020041746  
   1956000   0.05463757    -0.81259555     0.043351207   -0.68734086     0.031698131  
   1957000   0.053843281   -0.81210432     0.041658737   -0.68973276     0.029890349  
   1958000   0.053053543   -0.8100707      0.041393156   -0.68914857     0.0067595904 
   1959000   0.054574837   -0.81177888     0.042545663   -0.68742377     0.024173353  
   1960000   0.052817166   -0.81335525     0.041768328   -0.69241229     0.032856777  
   1961000   0.053623225   -0.81080911     0.043484795   -0.68694137     0.027590538  
   1962000   0.0546031     -0.80770358     0.042066045   -0.68378573     0.033374689  
   1963000   0.053327501   -0.81197352     0.04234746    -0.68968642     0.022660639  
   1964000   0.053453574   -0.81272182     0.043615876   -0.68897731     0.015190679  
   1965000   0.054849342   -0.81047862     0.043505281   -0.68475241     0.0075643921 
   1966000   0.054623519   -0.81265061     0.044334725   -0.68643347     0.012663864  
   1967000   0.052799765   -0.81132408     0.044092452   -0.68808308    -0.0055690211 
   1968000   0.055084629   -0.81351856     0.042707069   -0.68823786     0.019114959  
   1969000   0.054103105   -0.81366418     0.044575488   -0.6879864      0.03174775   
   1970000   0.052629705   -0.81100249     0.041918993   -0.69018987     0.01208048   
   1971000   0.053774622   -0.81334455     0.043437345   -0.68929731     0.0099854707 
   1972000   0.053111327   -0.81119313     0.042771104   -0.68880643     0.016238134  
   1973000   0.056703455   -0.81174641     0.043651775   -0.68309432     0.014788303  
   1974000   0.055034492   -0.81173695     0.042418051   -0.68682042     0.022956956  
   1975000   0.057858658   -0.81189708     0.044561993   -0.68060309     0.0028603047 
   1976000   0.053616282   -0.81159518     0.044174233   -0.68704841     0.0029814364 
   1977000   0.053622366   -0.81171694     0.042299319   -0.68903596     0.002588477  
   1978000   0.055103993   -0.81154951     0.042299393   -0.68664746     0.01348524   
   1979000   0.055928229   -0.81312847     0.043110925   -0.68617932    -0.0096515642 
   1980000   0.054848766   -0.8134329      0.04421924    -0.68699359     0.0079977557 
   1981000   0.053860482   -0.81262781     0.044874709   -0.6870145      0.018674439  
   1982000   0.054104624   -0.81338371     0.042468434   -0.6898107      0.025676519  
   1983000   0.053685302   -0.81412653     0.045908187   -0.68774235    -0.0064503243 
   1984000   0.054869853   -0.81293681     0.042768151   -0.68791698     0.0028367195 
   1985000   0.052291972   -0.8135848      0.041822947   -0.6933745      0.012774383  
   1986000   0.053964426   -0.81244583     0.043225499   -0.68832592     0.021784014  
   1987000   0.054028398   -0.81283495     0.041987391   -0.68985725     0.01356773   
   1988000   0.054327412   -0.81284413     0.044091562   -0.68731403     0.002379486  
   1989000   0.054195019   -0.81332249     0.043767053   -0.68831536     0.0086333834 
   1990000   0.053708827   -0.81010401     0.040638421   -0.68895432     0.014435873  
   1991000   0.054441053   -0.81254052     0.040735514   -0.69019611    -0.00085153515
   1992000   0.051396765   -0.81160088     0.042135887   -0.69241958     0.015694022  
   1993000   0.05513618    -0.81248596     0.044618131   -0.68521691    -0.0047597548 
   1994000   0.0574383     -0.8122841      0.043608899   -0.68257334     0.010696967  
   1995000   0.054382863   -0.81296682     0.046599509   -0.68484565     0.011592746  
   1996000   0.053093676   -0.81217783     0.046186482   -0.68640221     0.00026605384
   1997000   0.055444235   -0.81343007     0.045035679   -0.6852817      0.00086283048
   1998000   0.053279498   -0.81080916     0.04303933    -0.68790214    -0.0019733581 
   1999000   0.054651029   -0.81313548     0.045727708   -0.68548412     0.015223682  
   2000000   0.052766219   -0.81347794     0.041550869   -0.69282881     0.0076528594 
   2001000   0.0557948     -0.8128397      0.041758373   -0.68744312    -0.014890903  
   2002000   0.055719037   -0.81308822     0.041700146   -0.68786344    -0.010007038  
   2003000   0.056188151   -0.81496387     0.042707156   -0.68802887    -0.012729717  
   2004000   0.05564483    -0.81405835     0.044832175   -0.68581278    -0.00089075462
   2005000   0.053780565   -0.81388367     0.044281953   -0.68898291    -0.0060675942 
   2006000   0.053162339   -0.81341034     0.044250571   -0.68946771     0.015561222  
   2007000   0.056497987   -0.81459602     0.044629836   -0.68527388     0.0023032677 
   2008000   0.054423193   -0.81302535     0.046347432   -0.6850958      0.01526029   
   2009000   0.054399102   -0.81291996     0.044242673   -0.68713128     0.026985881  
   2010000   0.057548076   -0.81313375     0.04634691    -0.68052042     0.0075229111 
   2011000   0.055342096   -0.81300892     0.045741419   -0.68430791     0.027650919  
   2012000   0.054942321   -0.81369838     0.043328397   -0.68800967     0.030443437  
   2013000   0.0545902     -0.81441589     0.043333914   -0.68924951     0.019127781  
   2014000   0.053967278   -0.8134843      0.043573739   -0.68901188     0.024945624  
   2015000   0.054261508   -0.81374281     0.043277731   -0.68912533     0.002888187  
   2016000   0.052527916   -0.81324761     0.04322136    -0.69128521     0.014897808  
   2017000   0.05333628    -0.811898       0.042590699   -0.6893545     -0.0012899848 
   2018000   0.054198229   -0.81389367     0.042586283   -0.6900625     -0.00062516844
   2019000   0.055059089   -0.81155712     0.043172794   -0.68584898     0.018666162  
   2020000   0.054152099   -0.81346769     0.042889461   -0.68940248     0.0015713535 
   2021000   0.053846708   -0.81095502     0.042971745   -0.68726532     0.020300264  
   2022000   0.053855172   -0.81366631     0.041797579   -0.69113809     0.010331874  
   2023000   0.053636804   -0.8153437      0.04548553    -0.68945487    -0.0035033306 
   2024000   0.052164089   -0.81294606     0.04277059    -0.69197981     0.0042312751 
   2025000   0.055773648   -0.81446565     0.041469802   -0.68938935     0.014651883  
   2026000   0.053764786   -0.81405464     0.042671398   -0.69078809     0.0097358959 
   2027000   0.054675921   -0.81351207     0.04233396    -0.68921714     0.015714611  
   2028000   0.055310905   -0.81413829     0.043926681   -0.68729878     0.0040555573 
   2029000   0.054854527   -0.81281389     0.044397649   -0.68618754    -0.0021462105 
   2030000   0.05329311    -0.81263449     0.043275302   -0.6894711      0.021301869  
   2031000   0.051832668   -0.81388744     0.043454455   -0.69273415     0.015248935  
   2032000   0.05537386    -0.81354567     0.04181722    -0.68872125     0.026318379  
   2033000   0.054961492   -0.81428115     0.042811543   -0.68908056     0.01106018   
   2034000   0.054418754   -0.81514542     0.043957993   -0.68961196    -0.0064417474 
   2035000   0.054513723   -0.81197942     0.042168437   -0.68809315     0.016705084  
   2036000   0.055885186   -0.81588725     0.043466515   -0.68864704     0.0022526511 
   2037000   0.052928093   -0.81440816     0.042457612   -0.69260963     0.0047192925 
   2038000   0.055352237   -0.81549886     0.046425902   -0.68609817     0.0034670675 
   2039000   0.05540327    -0.81178873     0.041395568   -0.68734188     0.015637449  
   2040000   0.055932451   -0.81385516     0.043110025   -0.68690059    -0.013183777  
   2041000   0.054686217   -0.8130918      0.043131327   -0.68798407    -0.017050494  
   2042000   0.053471656   -0.81243604     0.043534757   -0.68874554     0.0070276474 
   2043000   0.055338072   -0.81454988     0.041786081   -0.68981024    -0.01120584   
   2044000   0.055498109   -0.81347555     0.042023353   -0.68825874     0.003119161  
   2045000   0.053804064   -0.81311223     0.041814782   -0.69064342    -0.004806005  
   2046000   0.052823394   -0.81478003     0.042406386   -0.69318968    -0.00098151931
   2047000   0.053428171   -0.81297212     0.04118465    -0.69169692     0.011921595  
   2048000   0.054097254   -0.81338789     0.044862792   -0.68743157     0.012694756  
   2049000   0.05500318    -0.81187708     0.044269763   -0.68515577    -0.0023876828 
   2050000   0.054451301   -0.8140447      0.041222605   -0.69119784     0.0025844092 
   2051000   0.052504127   -0.81380032     0.042589424   -0.69250552     0.00031640627
   2052000   0.053487123   -0.81358917     0.04134445    -0.69206579    -0.015529984  
   2053000   0.053995055   -0.8141732      0.040547876   -0.692685       0.014482103  
   2054000   0.055077563   -0.81302832     0.040934863   -0.68953042    -0.0031999618 
   2055000   0.053818382   -0.8126077      0.041860291   -0.69007192     0.0036600475 
   2056000   0.054327565   -0.81545283     0.046441678   -0.68757238    -0.019209227  
   2057000   0.054404518   -0.81079647     0.041680817   -0.68756153     0.0028023458 
   2058000   0.053459308   -0.812601       0.043695017   -0.68876875    -0.0037489987 
   2059000   0.053010828   -0.81316135     0.042028861   -0.69166755    -0.011178907  
   2060000   0.05345922    -0.81276253     0.044673682   -0.68795176    -0.0013164935 
   2061000   0.054023593   -0.81380751     0.04169843    -0.69112597     0.00011968417
   2062000   0.051606244   -0.81368293     0.040053935   -0.69626957     0.029720187  
   2063000   0.052125804   -0.81404368     0.044681612   -0.69122381     0.0069728184 
   2064000   0.055603567   -0.81308483     0.042435761   -0.68729753     0.0058258869 
   2065000   0.054115917   -0.81485903     0.044298994   -0.68943854    -0.0023564192 
   2066000   0.053842828   -0.81342239     0.042389405   -0.69032085     0.0018153637 
   2067000   0.052765397   -0.81540118     0.043553055   -0.69275109     6.4762353e-05
   2068000   0.054433236   -0.81258578     0.042838899   -0.68814971    -0.0094956434 
   2069000   0.054609321   -0.81661804     0.043115334   -0.69164157    -0.012682058  
   2070000   0.053209897   -0.81427692     0.044473373   -0.69004019     0.020950905  
   2071000   0.055593567   -0.8154737      0.042256226   -0.68988093    -0.0054774154 
   2072000   0.05325742    -0.81134568     0.045312994   -0.68619809     0.0037208426 
   2073000   0.055125332   -0.81297257     0.044441234   -0.68589669    -0.0033560786 
   2074000   0.054323424   -0.81261595     0.044667237   -0.68651615     0.0048246718 
   2075000   0.055803858   -0.81284276     0.043784591   -0.68540638     0.010127512  
   2076000   0.055560182   -0.81307765     0.041591254   -0.68819989     0.012530961  
   2077000   0.0537475     -0.81307061     0.04512835    -0.68737302     0.0036321834 
   2078000   0.052849441   -0.81242732     0.043069259   -0.69013505     0.011907978  
   2079000   0.053830163   -0.81222886     0.042154527   -0.68938118     0.015573915  
   2080000   0.054013374   -0.81288363     0.04269994    -0.6892159      0.025001765  
   2081000   0.05336705    -0.81251731     0.0458664     -0.68665198     0.020086236  
   2082000   0.056191692   -0.81309025     0.042505115   -0.68635197     0.0079678723 
   2083000   0.05368877    -0.81346081     0.043102939   -0.68987668     0.010166058  
   2084000   0.053279603   -0.81143325     0.040285723   -0.69127969     0.010238855  
   2085000   0.053994644   -0.81308161     0.040822609   -0.69131928     0.0051917657 
   2086000   0.053663376   -0.81479702     0.043907803   -0.69044609     0.0094590901 
   2087000   0.053842147   -0.81336579     0.042791035   -0.68986364     0.0088480544 
   2088000   0.054754685   -0.81218759     0.043128033   -0.68698051     0.035204592  
   2089000   0.0518519     -0.81557546     0.041621821   -0.69622597     0.0036840846 
   2090000   0.05322946    -0.81353106     0.040962402   -0.69277598     0.0011693547 
   2091000   0.052161126   -0.81264298     0.042085402   -0.69236636     0.012595092  
   2092000   0.051740252   -0.81313884     0.044317592   -0.69126094     0.015977881  
   2093000   0.052734318   -0.81132844     0.044024992   -0.68825301     0.014964838  
   2094000   0.054741111   -0.81293525     0.045769212   -0.68510735     0.0041928745 
   2095000   0.05630407    -0.81398844     0.042083306   -0.68750352     0.011795217  
   2096000   0.053299445   -0.8121784      0.043640583   -0.68864023    -0.0018587453 
   2097000   0.054311125   -0.81385883     0.042870192   -0.68957451     0.008425603  
   2098000   0.053934587   -0.81382812     0.043771818   -0.68920662     0.0048941636 
   2099000   0.054423      -0.81301815     0.041554644   -0.68988167     0.010638674  
   2100000   0.053244244   -0.8143516      0.043010359   -0.6915264      0.00420798   
   2101000   0.052209983   -0.813562       0.043908228   -0.69138932     0.0030624083 
   2102000   0.055646075   -0.81363333     0.045356302   -0.68486176     0.018718323  
   2103000   0.054150217   -0.81137724     0.042819743   -0.68738458     0.025414356  
   2104000   0.054747463   -0.81427693     0.042641665   -0.68956705     0.029703031  
   2105000   0.054693274   -0.81377994     0.042601312   -0.68919165     0.0150196    
   2106000   0.052691443   -0.81448354     0.043393624   -0.69210375    -0.012900131  
   2107000   0.052681656   -0.81366083     0.044729601   -0.68995972     0.013456838  
   2108000   0.053563596   -0.81392647     0.041948843   -0.69168406     0.0075476776 
   2109000   0.052540875   -0.81380648     0.040978912   -0.6940671     -0.0060008794 
   2110000   0.052434729   -0.81258506     0.041800753   -0.69218296     0.034003554  
   2111000   0.053413783   -0.81290223     0.042065971   -0.69076728     0.0093819573 
   2112000   0.052969374   -0.8118411      0.0428637     -0.6895746      0.01865164   
   2113000   0.053447699   -0.81120858     0.043097031   -0.68799172     0.020766747  
   2114000   0.054277434   -0.8143149      0.043384641   -0.68956664     0.0035729871 
   2115000   0.054042236   -0.81366745     0.041605599   -0.69105079     0.015384731  
   2116000   0.054616269   -0.81334054     0.046401807   -0.68506718     0.022934714  
   2117000   0.055068457   -0.81520905     0.041734606   -0.69092505     0.0051759126 
   2118000   0.052260528   -0.81230385     0.04233804    -0.6916256      0.0090260266 
   2119000   0.054589417   -0.81357744     0.044803184   -0.68694296     0.0070358882 
   2120000   0.053309955   -0.81515755     0.044221083   -0.69102312     0.0071704993 
   2121000   0.053922286   -0.81451862     0.04425217    -0.6894352      0.0041120638 
   2122000   0.054428878   -0.81349563     0.043182957   -0.68872203     0.004638362  
   2123000   0.053479389   -0.81393291     0.043095939   -0.69066965     0.003509787  
   2124000   0.055466218   -0.81311646     0.043066367   -0.68690444     0.023233818  
   2125000   0.055523196   -0.81233069     0.042282278   -0.68681735    -0.00093050444
   2126000   0.054212035   -0.81163881     0.042022994   -0.68835023     0.014410426  
   2127000   0.054103737   -0.81447869     0.04473543    -0.68864001     0.025515092  
   2128000   0.054682308   -0.81274883     0.042684053   -0.68809423    -0.008627331  
   2129000   0.053705448   -0.81313207     0.043163076   -0.6894628      0.014282645  
   2130000   0.053658539   -0.8125341      0.042852801   -0.68924542    -0.011604366  
   2131000   0.055249887   -0.81205611     0.042024103   -0.68721064     0.012821764  
   2132000   0.053673958   -0.81213432     0.045177059   -0.68649827     0.0099135705 
   2133000   0.053799794   -0.81541127     0.044131299   -0.69063234    -0.005463552  
   2134000   0.053864375   -0.81391187     0.046435756   -0.68673168     0.015556686  
   2135000   0.055701842   -0.81284886     0.043967108   -0.68538289     0.011859523  
   2136000   0.054906074   -0.81505781     0.044012278   -0.68873956    -0.0056468009 
   2137000   0.056083179   -0.81319567     0.044103051   -0.68502213     0.0084471294 
   2138000   0.055864017   -0.8136069      0.042373301   -0.68749164     0.010719079  
   2139000   0.055661863   -0.81061038     0.045008008   -0.68216345     0.011571384  
   2140000   0.054779226   -0.8148552      0.044639824   -0.68809955     0.014028249  
   2141000   0.053916075   -0.81136602     0.044631598   -0.68591248     0.0078291272 
   2142000   0.052416245   -0.81388729     0.043242568   -0.69207108     0.021729438  
   2143000   0.050437296   -0.81332435     0.042183804   -0.69553341    -0.0059657321 
   2144000   0.054481666   -0.81112777     0.044077297   -0.6853807      0.0087586587 
   2145000   0.055020861   -0.8125783      0.04296902    -0.68713123     0.015201976  
   2146000   0.053780216   -0.81478359     0.043530273   -0.69063504     0.0060082286 
   2147000   0.053640911   -0.81340394     0.042529983   -0.6904645     -0.0026862632 
   2148000   0.055921004   -0.81352635     0.042386666   -0.6873123      0.031746024  
   2149000   0.054936137   -0.81180471     0.041384035   -0.68806964     0.0061292822 
   2150000   0.052974322   -0.81366363     0.046428716   -0.6878247      0.033486624  
   2151000   0.054117755   -0.81466692     0.042775499   -0.69076716     0.0080531896 
   2152000   0.054943141   -0.81261073     0.043476346   -0.68677284     0.011006459  
   2153000   0.053754795   -0.81294355     0.04431092    -0.68805246     0.029377394  
   2154000   0.054900995   -0.81190289     0.042784419   -0.68682011     0.02637179   
   2155000   0.054817829   -0.81158783     0.043671172   -0.68574297     0.016492178  
   2156000   0.05413498    -0.81538242     0.043735854   -0.69049648    -0.0078856641 
   2157000   0.051982736   -0.81099706     0.04454304    -0.68853022     0.024544446  
   2158000   0.053660893   -0.8120793      0.042512007   -0.68912788     0.0197156    
   2159000   0.053756486   -0.81292433     0.044979765   -0.68736186     0.018082538  
   2160000   0.054190453   -0.81263617     0.043663444   -0.68773948     0.0033323998 
   2161000   0.054724574   -0.81354147     0.045783974   -0.6857236      0.0013534107 
   2162000   0.054578878   -0.8137069      0.041873237   -0.69001816     0.020587867  
   2163000   0.052399543   -0.81379916     0.045339714   -0.68991084     0.027191073  
   2164000   0.053275108   -0.81451097     0.042249954   -0.69239991    -0.0044579719 
   2165000   0.054221487   -0.81571288     0.041938792   -0.69249433     0.014350131  
   2166000   0.052560936   -0.81279978     0.042508994   -0.69150024     0.029977262  
   2167000   0.052372769   -0.81405421     0.043034368   -0.69251138     0.013624978  
   2168000   0.053780405   -0.81287141     0.043145738   -0.68910711     0.025216891  
   2169000   0.055511323   -0.81391961     0.041235229   -0.68947112     0.017401795  
   2170000   0.053870256   -0.81397263     0.045393825   -0.68782555     0.03592327   
   2171000   0.054526479   -0.8130565      0.043183093   -0.68813645     0.033692529  
   2172000   0.052794657   -0.81392546     0.045077552   -0.68970701     0.025675198  
   2173000   0.051990156   -0.8110925      0.043996835   -0.68916075     0.024265523  
   2174000   0.054021618   -0.81375594     0.040378503   -0.69239729     0.014091401  
   2175000   0.053735256   -0.81593282     0.043709679   -0.69167226     0.013948839  
   2176000   0.053304395   -0.81383468     0.046775956   -0.68715372     0.023642104  
   2177000   0.054421996   -0.81282936     0.043209028   -0.68804001     0.021814892  
   2178000   0.05379393    -0.81501156     0.043337677   -0.69103504     0.0076757279 
   2179000   0.05587456    -0.81334196     0.044039455   -0.68554474     0.033027736  
   2180000   0.055633689   -0.81006101     0.041589585   -0.68507473     0.039637343  
   2181000   0.056514132   -0.81282873     0.042679011   -0.68543321     0.021635744  
   2182000   0.053565907   -0.81217941     0.042672987   -0.6892094      0.0066887562 
   2183000   0.052692363   -0.81298832     0.04290643    -0.69109434     0.017582104  
   2184000   0.053739669   -0.81305894     0.041704951   -0.69079649     0.034250085  
   2185000   0.055812219   -0.81618372     0.043456818   -0.68906259     0.010762194  
   2186000   0.054699102   -0.81444575     0.044653434   -0.6877966      0.020056239  
   2187000   0.054428788   -0.81583596     0.044805257   -0.68944019     0.024971889  
   2188000   0.052549535   -0.81697183     0.04343399    -0.69476439     0.028090364  
   2189000   0.052156425   -0.81624182     0.043014323   -0.69504334     0.039424442  
   2190000   0.054924688   -0.81694238     0.044203993   -0.69040451     0.03517694   
   2191000   0.053892321   -0.8145646      0.04376742    -0.69001085     0.033246131  
   2192000   0.054324172   -0.81427044     0.043103866   -0.68973289     0.014350492  
   2193000   0.053169502   -0.81460573     0.04418533    -0.6907176      0.022899372  
   2194000   0.056094915   -0.81491414     0.043576171   -0.68724988     0.023997779  
   2195000   0.055193121   -0.81412653     0.043361397   -0.68802886     0.031413503  
   2196000   0.054083511   -0.81426788     0.045036053   -0.6881589      0.023876438  
   2197000   0.054340238   -0.81390977     0.045203588   -0.68724841     0.017357916  
   2198000   0.055546589   -0.81337065     0.043500007   -0.68660452     0.037378513  
   2199000   0.054321467   -0.81531731     0.042561683   -0.691326       0.031926632  
   2200000   0.05387605    -0.81458109     0.04395982    -0.68985933     0.015597313  
   2201000   0.053303527   -0.81334582     0.044628326   -0.68881378     0.019032664  
   2202000   0.053738301   -0.81596594     0.042930442   -0.69248005     0.028464184  
   2203000   0.053733618   -0.81496461     0.042103386   -0.6923128      0.028767339  
   2204000   0.054082939   -0.81407568     0.04414556    -0.68885805     0.034059072  
   2205000   0.054358355   -0.81513375     0.041964766   -0.69168406     0.022995689  
   2206000   0.053887708   -0.81514444     0.041611065   -0.69275396     0.014077348  
   2207000   0.054500379   -0.81268636     0.039922047   -0.69106649     0.03825011   
   2208000   0.053436282   -0.81515447     0.042479301   -0.69257246     0.017697582  
   2209000   0.054182295   -0.81499928     0.043080194   -0.69069808     0.02782281   
   2210000   0.054709973   -0.8158197      0.042805184   -0.6910025      0.014286564  
   2211000   0.05467549    -0.81470171     0.044841344   -0.68790004     0.00049726561
   2212000   0.055041901   -0.81427593     0.043101365   -0.68866498     0.047293177  
   2213000   0.05213742    -0.81362642     0.041662357   -0.69380839     0.027990529  
   2214000   0.05408043    -0.81671261     0.042062349   -0.69358195     0.04114107   
   2215000   0.052571641   -0.81535035     0.042649367   -0.69389439     0.015053154  
   2216000   0.053562791   -0.81521718     0.042176569   -0.69274826     0.013695646  
   2217000   0.055691773   -0.81322678     0.045799772   -0.68394325     0.037341162  
   2218000   0.055906942   -0.81564501     0.042089226   -0.68974947     0.016945488  
   2219000   0.053458189   -0.81450708     0.042113317   -0.69225821     0.025322313  
   2220000   0.054628176   -0.8152031      0.041853086   -0.69146061     0.027019507  
   2221000   0.054597066   -0.81329191     0.044102728   -0.68734642     0.020894288  
   2222000   0.054539342   -0.81537498     0.043501042   -0.69011771     0.027932511  
   2223000   0.054748427   -0.81424794     0.044377735   -0.68780055     0.032923463  
   2224000   0.057197404   -0.81543317     0.044535683   -0.68515673     0.013037486  
   2225000   0.052271816   -0.81431447     0.04483063    -0.69112671     0.0010321044 
   2226000   0.055041463   -0.81255939     0.041859797   -0.68819066     0.038374185  
   2227000   0.054421675   -0.81372889     0.043892506   -0.68825654     0.029960027  
   2228000   0.053963372   -0.81621019     0.042742938   -0.69257442     0.027857855  
   2229000   0.053793617   -0.81488405     0.044229313   -0.69001637     0.029399675  
   2230000   0.055752517   -0.8158896      0.043653101   -0.68866168     0.018812409  
   2231000   0.053595086   -0.81401818     0.042621482   -0.69105593     0.019329846  
   2232000   0.054357106   -0.81372452     0.040067988   -0.69217348     0.01538074   
   2233000   0.053910269   -0.81386524     0.042615101   -0.69043691     0.03131537   
   2234000   0.053959381   -0.813322       0.043524646   -0.68891051     0.025501332  
   2235000   0.055438777   -0.81468587     0.043358394   -0.68822296     0.030755345  
   2236000   0.055422516   -0.81460984     0.043828781   -0.68770092     0.0034243144 
   2237000   0.054613306   -0.81356862     0.042728516   -0.68897299     0.023206779  
   2238000   0.053661935   -0.81524869     0.043521429   -0.69128629     0.031140177  
   2239000   0.054299339   -0.81468389     0.041796466   -0.69149096     0.023046615  
   2240000   0.054379818   -0.81346134     0.043369164   -0.68857507     0.0058249083 
   2241000   0.055095655   -0.81415408     0.040883418   -0.6906805      0.023586698  
   2242000   0.056078973   -0.81505986     0.042441328   -0.68855435     0.046042476  
   2243000   0.052790226   -0.81480851     0.045256289   -0.69041797     0.047448587  
   2244000   0.052066859   -0.81433646     0.042886983   -0.69339957     0.022244001  
   2245000   0.055605568   -0.8159787      0.041352112   -0.69127205     0.018031384  
   2246000   0.054038552   -0.81566571     0.041744538   -0.69291564     0.016962709  
   2247000   0.054639925   -0.81289803     0.042716733   -0.68827429     0.013621824  
   2248000   0.05467548    -0.81387658     0.045028957   -0.68688731     0.02031491   
   2249000   0.055657521   -0.81573235     0.046566006   -0.68573393     0.015858075  
   2250000   0.056890281   -0.81440225     0.04473985    -0.68438203     0.0080202719 
   2251000   0.056281574   -0.81451464     0.041611716   -0.68853503     0.025498966  
   2252000   0.055688031   -0.81395759     0.045219478   -0.68525996     0.0075934062 
   2253000   0.055318286   -0.81393868     0.045390868   -0.68562391     0.013158493  
   2254000   0.055745098   -0.81336371     0.043804786   -0.68599522     0.0039421389 
   2255000   0.053071642   -0.81637355     0.043126323   -0.69369112     0.020614882  
   2256000   0.052553273   -0.81390064     0.044188237   -0.69093336     0.021715106  
   2257000   0.051943201   -0.81477692     0.042164277   -0.69474811     0.00075451566
   2258000   0.055412433   -0.8138386      0.043042186   -0.68773139     0.0077519775 
   2259000   0.055001389   -0.81298898     0.044721627   -0.6858185      0.013134221  
   2260000   0.05375585    -0.81639559     0.04454796    -0.69126587     0.032104596  
   2261000   0.055892605   -0.81749508     0.042694125   -0.69101614     0.024602253  
   2262000   0.054421968   -0.81471073     0.043190441   -0.68994        0.0084755073 
   2263000   0.052946741   -0.81461566     0.044732456   -0.69051434     0.020917836  
   2264000   0.054013138   -0.81321824     0.042628031   -0.68962278     0.038466269  
   2265000   0.053895952   -0.8130566      0.044858317   -0.68740651     0.03475077   
   2266000   0.053595046   -0.81358879     0.042145491   -0.6911026      0.016406079  
   2267000   0.05691525    -0.8141945      0.042647409   -0.68622929     0.042023603  
   2268000   0.053808868   -0.81409837     0.043057404   -0.69037973     0.010015724  
   2269000   0.055189752   -0.81471242     0.042693039   -0.68928816     0.0088055328 
   2270000   0.05354792    -0.81288285     0.044905345   -0.68770744     0.030777584  
   2271000   0.055066354   -0.81332962     0.044519236   -0.68626414     0.022460008  
   2272000   0.054054278   -0.81406916     0.043126314   -0.68991374     0.019965977  
   2273000   0.053151596   -0.81389236     0.04204566    -0.69217075     0.0075148554 
   2274000   0.055263348   -0.81474805     0.041902507   -0.690004       0.015055087  
   2275000   0.054666953   -0.81355137     0.043552388   -0.68805145     0.02640113   
   2276000   0.054541145   -0.81528553     0.044936651   -0.68858994     0.02281127   
   2277000   0.054257177   -0.81436934     0.041592144   -0.69144394     0.037586177  
   2278000   0.052475239   -0.81239951     0.044681922   -0.68905551     0.024770316  
   2279000   0.056258943   -0.81338748     0.044092989   -0.68496052     0.044144817  
   2280000   0.05555943    -0.81276914     0.045513343   -0.68397041     0.04936272   
   2281000   0.055849177   -0.8159976      0.042757146   -0.68952073     0.023026114  
   2282000   0.053530174   -0.81781799     0.043356715   -0.69421782     0.025348916  
   2283000   0.054114922   -0.81619863     0.047261551   -0.68781707     0.0049969343 
   2284000   0.053994132   -0.81163739     0.043232537   -0.68746591     0.0047231308 
   2285000   0.054790498   -0.81277935     0.042526944   -0.68811969     0.0074336623 
   2286000   0.055963917   -0.81272924     0.045263732   -0.68357379     0.013822665  
   2287000   0.052832274   -0.8150022      0.043493021   -0.6923119     -0.0043735141 
   2288000   0.054358208   -0.81225775     0.044009976   -0.68676306     0.011023084  
   2289000   0.053620448   -0.81256324     0.042236847   -0.68994762     0.037286724  
   2290000   0.053915597   -0.81359976     0.04267941    -0.69009913     0.0088730693 
   2291000   0.051538121   -0.81335669     0.045222426   -0.69087695     0.015350653  
   2292000   0.053161719   -0.81295477     0.04332858    -0.68993506     0.026698492  
   2293000   0.054187906   -0.81330411     0.04354993    -0.68852476     0.0186507    
   2294000   0.055643654   -0.81460825     0.045609341   -0.68558728     0.026956159  
   2295000   0.057527019   -0.8118596      0.042280848   -0.68334389     0.0244817    
   2296000   0.05557962    -0.8141303      0.042962934   -0.68785173     0.0058788555 
   2297000   0.0523357     -0.81247606     0.042053916   -0.69196924     0.0047189013 
   2298000   0.051458273   -0.81327174     0.042681306   -0.69345282     0.011287609  
   2299000   0.053023449   -0.81258348     0.043397144   -0.68970248     0.009276618  
   2300000   0.053758307   -0.8141913      0.044916516   -0.68868934    -0.0051105449 
   2301000   0.054688463   -0.8134487      0.045270919   -0.68619801     0.013665834  
   2302000   0.054562405   -0.81269757     0.04418139    -0.68672537     0.0053815415 
   2303000   0.052629586   -0.81377919     0.046446824   -0.68843891     0.016457794  
   2304000   0.056689048   -0.81243643     0.044674873   -0.68278285     0.0099622243 
   2305000   0.05387617    -0.81015551     0.04545703    -0.68393636     0.017686832  
   2306000   0.054876305   -0.81324529     0.043609093   -0.68737484     0.011063854  
   2307000   0.055570252   -0.81086531     0.043523437   -0.68404027     0.0088127086 
   2308000   0.055868377   -0.81310156     0.044474144   -0.68487892     0.028465162  
   2309000   0.054890062   -0.81456279     0.045206685   -0.68707413     0.0023734651 
   2310000   0.053958762   -0.81351255     0.044170817   -0.68845581     0.0023321891 
   2311000   0.055579792   -0.81437168     0.045287931   -0.68576785     0.010095819  
   2312000   0.053768254   -0.81365323     0.044004251   -0.68904864     0.017115876  
   2313000   0.053869422   -0.81355666     0.045283222   -0.68752144     0.021870689  
   2314000   0.054336407   -0.81309482     0.042094079   -0.68954871     0.013292432  
   2315000   0.053299413   -0.81236286     0.043897064   -0.68856825     0.005387071  
   2316000   0.051749388   -0.81142007     0.045177893   -0.68866817     0.0046336341 
   2317000   0.053421038   -0.81432988     0.044184623   -0.6900654      0.013354155  
   2318000   0.053669397   -0.81359116     0.042911616   -0.69022739     0.0071067323 
   2319000   0.052882675   -0.81255036     0.044493024   -0.6887845      0.0062664937 
   2320000   0.054173148   -0.81486582     0.044334146   -0.68932437     0.014691812  
   2321000   0.055251988   -0.81423176     0.044310066   -0.68709718     0.012731684  
   2322000   0.054443881   -0.81344503     0.042938841   -0.68889305     0.018698209  
   2323000   0.054870947   -0.81390573     0.045265225   -0.68638719     0.017990944  
   2324000   0.053556156   -0.81342077     0.046170226   -0.68696814     0.013494195  
   2325000   0.05744392    -0.81248914     0.045483135   -0.68089572     0.0042774153 
   2326000   0.055320743   -0.813099       0.044435652   -0.68573577    -0.0094959446 
   2327000   0.053783729   -0.81220342     0.04349129    -0.68808858     0.011017742  
   2328000   0.053702639   -0.8127226      0.042667807   -0.68955281     0.013833578  
   2329000   0.054509734   -0.81329172     0.043209541   -0.68837033    -0.0054248447 
   2330000   0.052305554   -0.81389139     0.042112731   -0.69337095     0.0078007348 
   2331000   0.054454153   -0.81387212     0.04379864    -0.68844495     0.020405974  
   2332000   0.054754814   -0.81233377     0.044194764   -0.68605977     0.0094731249 
   2333000   0.055251596   -0.81452777     0.04622949    -0.68547435     0.0080593459 
   2334000   0.055785885   -0.81385862     0.045214234   -0.68501955     0.0014446522 
   2335000   0.055752851   -0.81350225     0.042519616   -0.68740731    -0.00944775   
   2336000   0.055536702   -0.81297524     0.04175437    -0.68796956     0.0049362443 
   2337000   0.05402859    -0.81208361     0.045182103   -0.6859109      0.0064899074 
   2338000   0.054733012   -0.81193883     0.041199375   -0.6886929      0.0050799821 
   2339000   0.053390468   -0.81280616     0.042361755   -0.69041037     0.01578728   
   2340000   0.054987301   -0.81361567     0.044514502   -0.68667343     0.013751541  
   2341000   0.053783105   -0.81376973     0.043211638   -0.68993548    -0.0071432841 
   2342000   0.055367331   -0.8147997      0.043460384   -0.6883419     -0.0082811665 
   2343000   0.055899027   -0.81435422     0.043390134   -0.68716964    -0.011589497  
   2344000   0.05541535    -0.81250816     0.044282485   -0.68515628     0.0039001428 
   2345000   0.052657705   -0.81127043     0.042951639   -0.6893832      0.011824109  
   2346000   0.055389706   -0.81491775     0.04377839    -0.68810841     0.015353748  
   2347000   0.055230545   -0.81203659     0.044592111   -0.68465211    -0.00062623326
   2348000   0.054349741   -0.81254651     0.042146792   -0.68892771     0.0020573062 
   2349000   0.055867116   -0.81377403     0.042395844   -0.68763157     0.016966633  
   2350000   0.055870595   -0.81264111     0.04216197    -0.68672732     0.019871045  
   2351000   0.055695596   -0.81385705     0.043614273   -0.68675329     0.017373467  
   2352000   0.054684006   -0.81328146     0.043981922   -0.68732644     0.023701517  
   2353000   0.054899604   -0.81354726     0.043332786   -0.6879182      0.017937058  
   2354000   0.053786062   -0.81302561     0.044657218   -0.68774135     0.027611558  
   2355000   0.052667626   -0.81245881     0.042453018   -0.69105532     0.031426694  
   2356000   0.056146258   -0.81120856     0.043352442   -0.68369107     0.018744162  
   2357000   0.0548229     -0.81481162     0.043648354   -0.68898197     0.0020337509 
   2358000   0.053726697   -0.81186334     0.043813111   -0.68751218     0.0048548935 
   2359000   0.054895177   -0.81167312     0.043178041   -0.68620544     0.010482813  
   2360000   0.055619181   -0.81428278     0.041973406   -0.68893442     0.0068225932 
   2361000   0.054038635   -0.81187758     0.044488869   -0.68638305     0.034601714  
   2362000   0.054119898   -0.81342539     0.044945824   -0.68735209     0.010889326  
   2363000   0.055836598   -0.81112569     0.04729412    -0.68013071     0.025133576  
   2364000   0.054501888   -0.81336935     0.046021539   -0.68564773     0.030106239  
   2365000   0.056105401   -0.81512903     0.043386382   -0.68763884     0.038457891  
   2366000   0.052725942   -0.81376029     0.043346851   -0.69137555     0.036853252  
   2367000   0.054080722   -0.81641221     0.041487519   -0.69385594     0.011905764  
   2368000   0.05504761    -0.81447489     0.042984503   -0.68897224     0.025425456  
   2369000   0.054763201   -0.81542254     0.040708979   -0.69262176     0.03873264   
   2370000   0.052679192   -0.81380909     0.043455237   -0.69138604     0.032387039  
   2371000   0.054413497   -0.81627252     0.04258287    -0.69212207     0.030368518  
   2372000   0.052740267   -0.81541904     0.043744037   -0.69261564     0.035530546  
   2373000   0.05367307    -0.81442752     0.044003294   -0.68996656     0.025551394  
   2374000   0.05383648    -0.81482069     0.04259107    -0.691527       0.017638174  
   2375000   0.052630529   -0.81313829     0.044766261   -0.68947717     0.02517441   
   2376000   0.052963781   -0.81413365     0.042908995   -0.69183024     0.042840709  
   2377000   0.05478409    -0.81518071     0.044380226   -0.68867737     0.022197555  
   2378000   0.053580588   -0.81680247     0.044555673   -0.69192777     0.028443554  
   2379000   0.05338212    -0.81515896     0.04359411    -0.69154333     0.032768534  
   2380000   0.054687165   -0.81492978     0.04215291    -0.69079905     0.031159402  
   2381000   0.054340722   -0.81503514     0.045297559   -0.68827909     0.02866401   
   2382000   0.053515085   -0.81376851     0.043576715   -0.68997096     0.038863277  
   2383000   0.05463687    -0.81515964     0.043607067   -0.68965015     0.044865543  
   2384000   0.056717518   -0.81491259     0.042611228   -0.68727997     0.039845819  
   2385000   0.052918506   -0.81574272     0.046144563   -0.69027161     0.019012529  
   2386000   0.055822112   -0.81465759     0.044849341   -0.68612911     0.030621178  
   2387000   0.055571514   -0.8145848      0.044487322   -0.68679399     0.014930385  
   2388000   0.055684762   -0.81562372     0.043606807   -0.68854366     0.026043223  
   2389000   0.052667637   -0.8152624      0.044364796   -0.69194711    -0.0010011486 
   2390000   0.053923774   -0.81540693     0.042860485   -0.69171297     0.014161615  
   2391000   0.053865117   -0.81518719     0.045149547   -0.6892921      0.02847242   
   2392000   0.053525712   -0.81618516     0.045308568   -0.69063983     0.032171151  
   2393000   0.054777811   -0.815956       0.044375656   -0.68946664     0.041472769  
   2394000   0.052955279   -0.81317523     0.042214066   -0.69157949     0.051015588  
   2395000   0.053633938   -0.81459746     0.044365786   -0.68983267     0.024494443  
   2396000   0.054315093   -0.81427073     0.044958733   -0.68789192     0.016519134  
   2397000   0.056024871   -0.81489609     0.042674321   -0.68823868     0.040538107  
   2398000   0.053167764   -0.813556       0.042970424   -0.69088538     0.061730512  
   2399000   0.054274663   -0.8144798      0.042769817   -0.69035051     0.046144686  
   2400000   0.055487681   -0.81550422     0.045238787   -0.68708761     0.026845046  
   2401000   0.055269747   -0.81624053     0.043765142   -0.68962425     0.047782871  
   2402000   0.05346982    -0.81459993     0.04321526    -0.69123168     0.040457528  
   2403000   0.055798745   -0.81309704     0.042426366   -0.68702655     0.032878172  
   2404000   0.05436466    -0.81439762     0.044457322   -0.68844592     0.041648712  
   2405000   0.056323887   -0.81350168     0.046159144   -0.68291121     0.049655558  
   2406000   0.057498734   -0.81450209     0.046345527   -0.68196411     0.036676769  
   2407000   0.055361551   -0.81681903     0.044028725   -0.68980155     0.04408503   
   2408000   0.053977884   -0.81498868     0.043951501   -0.69012259     0.022519656  
   2409000   0.053188332   -0.81551141     0.043683364   -0.69209703     0.029110264  
   2410000   0.049644711   -0.81361301     0.042163995   -0.69702999     0.029855401  
   2411000   0.053757355   -0.81438288     0.042469318   -0.69132956     0.020861236  
   2412000   0.056089969   -0.81578364     0.045408772   -0.6862942      0.033986491  
   2413000   0.055184429   -0.81406903     0.044553431   -0.68679236     0.051907279  
   2414000   0.053757025   -0.81517222     0.041537801   -0.69305091     0.024419587  
   2415000   0.05467773    -0.81433995     0.043139137   -0.68923713     0.0042196194 
   2416000   0.05228705    -0.81453162     0.043278636   -0.69287301     0.028613533  
   2417000   0.052855914   -0.8125831      0.042750425   -0.69059996     0.022341664  
   2418000   0.053850403   -0.81606021     0.042054279   -0.69328244     0.0040198299 
   2419000   0.051790702   -0.81383844     0.042711823   -0.69349069     0.033097179  
   2420000   0.054929736   -0.81593293     0.042682775   -0.6909087      0.035959663  
   2421000   0.054371999   -0.81354574     0.040662568   -0.69137779     0.033426176  
   2422000   0.054543973   -0.81562018     0.043777446   -0.69007956     0.0139853    
   2423000   0.051812925   -0.81327413     0.044179758   -0.69142513     0.030030513  
   2424000   0.052257022   -0.81461654     0.041725727   -0.69455586     0.014985209  
   2425000   0.053991983   -0.81622461     0.040334798   -0.69495409     0.033584446  
   2426000   0.053995335   -0.81678307     0.043740201   -0.69210212     0.046907196  
   2427000   0.053875063   -0.8143177      0.042266927   -0.69129032     0.027361333  
   2428000   0.052791035   -0.81459598     0.043024913   -0.6924356      0.038461794  
   2429000   0.053963666   -0.81802555     0.04402071    -0.69311157     0.008508142  
   2430000   0.0535407     -0.81600311     0.043571579   -0.69217229    -5.1500516e-05
   2431000   0.057284629   -0.81487948     0.042101899   -0.68690607     0.018391464  
   2432000   0.054107898   -0.81326842     0.045390554   -0.68676838     0.013376788  
   2433000   0.054477461   -0.81332389     0.043242205   -0.68841822     0.03214305   
   2434000   0.051890634   -0.8152922      0.0438121     -0.69369437     0.0094506373 
   2435000   0.053532312   -0.81523208     0.041336304   -0.69364911     0.019553382  
   2436000   0.053606367   -0.8137676      0.042665077   -0.69074485     0.071821531  
   2437000   0.051790465   -0.81422069     0.042511252   -0.69407386     0.037578252  
   2438000   0.055754908   -0.81684065     0.041677839   -0.6915844      0.019407295  
   2439000   0.05642328    -0.81487197     0.044812515   -0.68547913     0.011888252  
   2440000   0.055597628   -0.81395771     0.041925906   -0.68868916     0.013960433  
   2441000   0.054383393   -0.81498863     0.045877276   -0.68758889     0.010693586  
   2442000   0.055275695   -0.81605414     0.043417341   -0.68977675     0.017604255  
   2443000   0.057438516   -0.8157457      0.041623034   -0.68802048     0.021851628  
   2444000   0.053879766   -0.81608137     0.042540871   -0.69277299     0.035545338  
   2445000   0.054321488   -0.81705036     0.041314514   -0.69430618     0.031639223  
   2446000   0.055171719   -0.8157435      0.039935886   -0.69310343     0.03588631   
   2447000   0.05330044    -0.81693304     0.043576468   -0.69345749     0.043329798  
   2448000   0.053003438   -0.81589238     0.041469077   -0.69496943     0.050472239  
   2449000   0.052497647   -0.81450904     0.042457932   -0.69335544     0.04439787   
   2450000   0.053051083   -0.81575202     0.045073272   -0.69115347     0.02672054   
   2451000   0.054209271   -0.81739833     0.045108163   -0.69102872     0.040371661  
   2452000   0.054917718   -0.81721485     0.045287368   -0.68960405     0.019442742  
   2453000   0.054993381   -0.8174493      0.044705377   -0.69030707     0.020263992  
   2454000   0.053236755   -0.81550089     0.043855568   -0.69184171     0.014903828  
   2455000   0.053872063   -0.81792046     0.042872357   -0.69429214     0.01603247   
   2456000   0.052883845   -0.81502719     0.04391466    -0.69183794    -0.0096830509 
   2457000   0.055287119   -0.81755458     0.044671176   -0.69000623     0.017212765  
   2458000   0.055004007   -0.8181994      0.043575829   -0.69217079     0.010176739  
   2459000   0.054741003   -0.81922788     0.045111684   -0.69205766     0.0049678066 
   2460000   0.053050675   -0.81530347     0.044028706   -0.69175009     0.030110915  
   2461000   0.054356677   -0.81759969     0.044833602   -0.69128367     0.023259049  
   2462000   0.053088334   -0.81602876     0.044907357   -0.69154028     0.043591254  
   2463000   0.055792827   -0.81462912     0.042932649   -0.68806122     0.053462287  
   2464000   0.055059479   -0.81798923     0.042006967   -0.69344633     0.029114188  
   2465000   0.054490725   -0.81431724     0.042522599   -0.69011129     0.049105602  
   2466000   0.055163244   -0.81526194     0.043530836   -0.68903962     0.034857016  
   2467000   0.053772599   -0.81560556     0.042775286   -0.69222341     0.066560345  
   2468000   0.054363093   -0.81541329     0.040664607   -0.69325665     0.061195785  
   2469000   0.055121707   -0.81650594     0.04199326    -0.69188347     0.056979125  
   2470000   0.053283469   -0.81520441     0.043775314   -0.69155545     0.019664952  
   2471000   0.053390832   -0.81883968     0.042543822   -0.69626128     0.026715638  
   2472000   0.052655888   -0.81637583     0.043681237   -0.69376172     0.048909046  
   2473000   0.051494364   -0.8153003      0.042311142   -0.69579745     0.059683885  
   2474000   0.055693114   -0.81728964     0.043543606   -0.69026026     0.060929372  
   2475000   0.053274842   -0.81787397     0.044153684   -0.69385958     0.018275176  
   2476000   0.053056862   -0.81518804     0.044855048   -0.69079904     0.026941539  
   2477000   0.053605624   -0.81837243     0.044671394   -0.69334448     0.025779751  
   2478000   0.054762492   -0.81622647     0.045662499   -0.68847323     0.044713841  
   2479000   0.053939639   -0.81571997     0.043935687   -0.69092702     0.029391563  
   2480000   0.05469956    -0.81518477     0.043557091   -0.68963128     0.050503838  
   2481000   0.055698652   -0.81786699     0.043864409   -0.69050851     0.025156529  
   2482000   0.053891908   -0.81391366     0.042396111   -0.69073184     0.06075408   
   2483000   0.054260143   -0.81668771     0.042057142   -0.69329286     0.029995107  
   2484000   0.053623655   -0.81560878     0.042441421   -0.69278377     0.052758723  
   2485000   0.05348403    -0.81500528     0.043896538   -0.69093445     0.042784218  
   2486000   0.054793567   -0.81561843     0.04513978    -0.68834133     0.041593011  
   2487000   0.055006121   -0.81699271     0.044084814   -0.69045195     0.062581064  
   2488000   0.05406135    -0.81713218     0.043603021   -0.69248946     0.076730201  
   2489000   0.05511586    -0.81603711     0.044940123   -0.68847654     0.056042237  
   2490000   0.053878513   -0.81374328     0.045386335   -0.68759132     0.058623249  
   2491000   0.057286887   -0.81781003     0.044438269   -0.68749687     0.056108201  
   2492000   0.05557358    -0.81720586     0.041768215   -0.69213106     0.071744054  
   2493000   0.053355712   -0.81674903     0.04428998    -0.69247711     0.065918971  
   2494000   0.055572525   -0.81543718     0.045139079   -0.6869931      0.047479192  
   2495000   0.057024775   -0.81320496     0.043867871   -0.68385511     0.064590413  
   2496000   0.055499115   -0.81506667     0.042277365   -0.68959434     0.032404806  
   2497000   0.053538466   -0.81573731     0.042318729   -0.6931627      0.044980779  
   2498000   0.054899434   -0.81497359     0.044353532   -0.68832404     0.061625392  
   2499000   0.05372672    -0.81825566     0.044627182   -0.69309039     0.018630905  
   2500000   0.053435726   -0.81680571     0.043461515   -0.69324231     0.03739082   
   2501000   0.05522125    -0.81682788     0.043629754   -0.69041969     0.027117301  
   2502000   0.052234701   -0.81570586     0.040578105   -0.69682626     0.050933041  
   2503000   0.05566732    -0.81645521     0.041753735   -0.69125437     0.070307633  
   2504000   0.05270564    -0.81537099     0.043847487   -0.69251605     0.038811031  
   2505000   0.05627635    -0.81608182     0.044627943   -0.68709381     0.036438596  
   2506000   0.053450983   -0.81784638     0.044453689   -0.69326795     0.051241073  
   2507000   0.055942956   -0.81623076     0.043851204   -0.68851926     0.051838877  
   2508000   0.054294112   -0.81466192     0.043860845   -0.68941245     0.058714922  
   2509000   0.053880347   -0.81474864     0.046433589   -0.68754667     0.054392447  
   2510000   0.054287606   -0.8175497      0.043553175   -0.69261765     0.025599096  
   2511000   0.055762212   -0.81633453     0.045591501   -0.68715368     0.05641924   
   2512000   0.054433419   -0.81831538     0.042754013   -0.69396392     0.013682961  
   2513000   0.053675861   -0.81792233     0.044463381   -0.6929971      0.026489593  
   2514000   0.053812289   -0.81392838     0.043043483   -0.69021854     0.051965232  
   2515000   0.056107967   -0.81612304     0.043841003   -0.68817438     0.03703296   
   2516000   0.053150453   -0.8160025      0.044203195   -0.69212506     0.016838843  
   2517000   0.055429984   -0.8193378      0.04452254    -0.69172392     0.024824764  
   2518000   0.054865783   -0.81802005     0.042674179   -0.69310029     0.0086043239 
   2519000   0.053328711   -0.81658035     0.042466185   -0.69417271     0.028619144  
   2520000   0.05214605    -0.81693976     0.043480556   -0.6952906      0.048404527  
   2521000   0.052757143   -0.81425788     0.043274      -0.69189922     0.047809523  
   2522000   0.054282146   -0.81630061     0.044570745   -0.69035918     0.03601447   
   2523000   0.05355241    -0.8176171      0.043927053   -0.69341326     0.065597949  
   2524000   0.054004751   -0.81679076     0.043919391   -0.6919165      0.079211724  
   2525000   0.055305762   -0.81758434     0.043830053   -0.69084916     0.067403476  
   2526000   0.052024358   -0.81651071     0.04360785    -0.69491667     0.10804045   
   2527000   0.052605936   -0.815735       0.04365837    -0.69321864     0.089420292  
   2528000   0.05490134    -0.81693796     0.043171063   -0.69146802     0.075093371  
   2529000   0.053008325   -0.818026       0.041355604   -0.69720921     0.094323758  
   2530000   0.05341624    -0.81730481     0.043343265   -0.69388888     0.039956607  
   2531000   0.055459516   -0.81713978     0.043966164   -0.69003801     0.050232671  
   2532000   0.053288641   -0.81737843     0.042314883   -0.69518216     0.066107129  
   2533000   0.055557688   -0.81768485     0.042179319   -0.69222277     0.048539139  
   2534000   0.053640081   -0.81670496     0.044770236   -0.69152651     0.081855709  
   2535000   0.054982606   -0.81560114     0.043951921   -0.68922851     0.061276253  
   2536000   0.055403863   -0.81495319     0.043662385   -0.68823862     0.07159838   
   2537000   0.054717244   -0.8150761      0.045506837   -0.68754635     0.068534858  
   2538000   0.055659158   -0.81545067     0.042465522   -0.68955027     0.11441522   
   2539000   0.055082625   -0.81643538     0.042932202   -0.69093254     0.039883348  
   2540000   0.055110769   -0.81552896     0.04288482    -0.69003132     0.042684053  
   2541000   0.052595578   -0.81528952     0.043228746   -0.69321831     0.032714799  
   2542000   0.054448201   -0.81770551     0.044863732   -0.69122217     0.025100429  
   2543000   0.054780397   -0.81579169     0.043370461   -0.69030365     0.055265719  
   2544000   0.055066615   -0.81598956     0.043659844   -0.68978309     0.057449854  
   2545000   0.054793433   -0.81626795     0.043260194   -0.69087063     0.045167749  
   2546000   0.052612283   -0.8165357      0.043719141   -0.69394905     0.036319182  
   2547000   0.053266134   -0.81436831     0.04371327    -0.69080739     0.056467094  
   2548000   0.056341476   -0.81897956     0.045964473   -0.6885574      0.028999941  
   2549000   0.053562359   -0.81754799     0.043922477   -0.69333381     0.034950221  
   2550000   0.053837352   -0.81510272     0.045377782   -0.68902101     0.029133088  
   2551000   0.054917307   -0.81572955     0.045879683   -0.68752705     0.058606708  
   2552000   0.05432213    -0.81640023     0.046036426   -0.68893318     0.059739992  
   2553000   0.055578419   -0.81525264     0.043435121   -0.68850368     0.053315238  
   2554000   0.055328438   -0.81441631     0.04452747    -0.68694973     0.038263087  
   2555000   0.052561386   -0.81740369     0.045377313   -0.69323516     0.034091107  
   2556000   0.052770115   -0.81649776     0.043901495   -0.69349216     0.030118697  
   2557000   0.053041657   -0.81517746     0.046485553   -0.68918075     0.034174497  
   2558000   0.054658736   -0.81605201     0.04488145    -0.68923535     0.054408544  
   2559000   0.054456006   -0.8159265      0.044910555   -0.68938464     0.032437127  
   2560000   0.054436124   -0.81763727     0.044418808   -0.69161696     0.082764469  
   2561000   0.054275558   -0.81659791     0.042108269   -0.69312883     0.055097128  
   2562000   0.052150904   -0.81509669     0.043031333   -0.69388947     0.056441684  
   2563000   0.054228518   -0.8174067      0.042206074   -0.69391033     0.045557363  
   2564000   0.056084904   -0.81602879     0.044281484   -0.68767423     0.048357985  
   2565000   0.055691757   -0.81770263     0.042170601   -0.69204829     0.067819636  
   2566000   0.053417148   -0.81634766     0.043739821   -0.69253381     0.05276393   
   2567000   0.053377851   -0.81602581     0.043708635   -0.69230206     0.047983822  
   2568000   0.05505025    -0.81388614     0.044499057   -0.68686498     0.086088225  
   2569000   0.054591975   -0.8154447      0.045490849   -0.68811872     0.057255637  
   2570000   0.053432069   -0.81578532     0.042126275   -0.69356265     0.056141907  
   2571000   0.054917334   -0.81524344     0.04202947    -0.69089111     0.053868568  
   2572000   0.053991003   -0.81585352     0.040871537   -0.69404773     0.076061179  
   2573000   0.053187826   -0.81816246     0.044197531   -0.69423467     0.06621335   
   2574000   0.054742658   -0.81467754     0.042717858   -0.68989867     0.089297424  
   2575000   0.054148284   -0.81835709     0.042554528   -0.69463254     0.043085212  
   2576000   0.053254351   -0.81460375     0.041920718   -0.69285305     0.044177066  
   2577000   0.05261458    -0.81640731     0.044400633   -0.69313572     0.043872406  
   2578000   0.05578927    -0.81653439     0.042478098   -0.69042637     0.020924912  
   2579000   0.054117091   -0.81653154     0.044316519   -0.69109175     0.060127566  
   2580000   0.053779798   -0.81609816     0.045874932   -0.68960558     0.059075731  
   2581000   0.055098817   -0.81506684     0.04251197    -0.68995996     0.072921164  
   2582000   0.052085868   -0.81637975     0.041635465   -0.69666589     0.026521235  
   2583000   0.053257973   -0.8174216      0.041678861   -0.69590732     0.034395049  
   2584000   0.053023158   -0.81564087     0.044194207   -0.69196324     0.017188975  
   2585000   0.052483865   -0.81654631     0.042434366   -0.69543694     0.042548963  
   2586000   0.056659238   -0.81815963     0.041881651   -0.69134395     0.019560755  
   2587000   0.054309819   -0.81444166     0.04433796    -0.68869153     0.029365004  
   2588000   0.053072346   -0.81518916     0.043665243   -0.69196676     0.039606313  
   2589000   0.053306657   -0.8161806      0.045845351   -0.69042685     0.052137536  
   2590000   0.053351872   -0.81526763     0.043504466   -0.69178699     0.036351642  
   2591000   0.054676413   -0.81439715     0.041523504   -0.69091194     0.051288696  
   2592000   0.053031433   -0.81795955     0.044564791   -0.69389893     0.053781414  
   2593000   0.05343718    -0.81741707     0.044058734   -0.69325428     0.025371421  
   2594000   0.053919141   -0.8154105      0.044271658   -0.69031231     0.02305808   
   2595000   0.054309045   -0.81646191     0.044402371   -0.69064853     0.012225529  
   2596000   0.053966047   -0.81653131     0.045182764   -0.6904517      0.039663481  
   2597000   0.05660033    -0.81587714     0.046809036   -0.68422238     0.022984165  
   2598000   0.054527523   -0.81545392     0.044545586   -0.68916982     0.040655806  
   2599000   0.055954858   -0.8185359      0.043105931   -0.69155183     0.061113479  
   2600000   0.05554821    -0.81769437     0.043587916   -0.69083789     0.032363526  
   2601000   0.055238673   -0.816113       0.042559925   -0.69074852     0.020404668  
   2602000   0.053379718   -0.81322543     0.042872107   -0.69033541     0.034841891  
   2603000   0.054838055   -0.81458562     0.039972557   -0.69240905     0.062776601  
   2604000   0.055246218   -0.81501592     0.042880986   -0.68931908     0.044889613  
   2605000   0.053705993   -0.8177913      0.042090052   -0.69519423     0.038601664  
   2606000   0.055199815   -0.81594631     0.043451336   -0.68974867     0.031162777  
   2607000   0.055134939   -0.81622377     0.041884263   -0.69169046     0.024178215  
   2608000   0.053954741   -0.81594518     0.047135446   -0.68792984     0.039626114  
   2609000   0.054009775   -0.81618622     0.044692489   -0.69053134     0.028337211  
   2610000   0.053654974   -0.81479602     0.044823488   -0.68954199     0.023977238  
   2611000   0.052540415   -0.81833828     0.043238664   -0.69633984     0.031156392  
   2612000   0.053573606   -0.81768637     0.043099321   -0.69427848     0.012793568  
   2613000   0.052298205   -0.81667395     0.043188311   -0.69508894     0.046639452  
   2614000   0.05368166    -0.81555911     0.044043152   -0.69104542     0.034816859  
   2615000   0.054232096   -0.81581539     0.043807364   -0.69071237     0.024268596  
   2616000   0.054712133   -0.81594721     0.043381601   -0.69055036     0.0048627219 
   2617000   0.054348226   -0.81746622     0.046203661   -0.68979281     0.039353644  
   2618000   0.053648493   -0.81511284     0.044404557   -0.69028746     0.057820883  
   2619000   0.054890678   -0.81715032     0.044703615   -0.69016381     0.057285147  
   2620000   0.0573821     -0.81595202     0.041858381   -0.68807602     0.031434118  
   2621000   0.056302161   -0.81408838     0.044004301   -0.68568532     0.044536457  
   2622000   0.054809186   -0.81465575     0.044851043   -0.68764397     0.052748894  
   2623000   0.053427879   -0.81493865     0.045773571   -0.68907496     0.028533555  
   2624000   0.053376876   -0.81417        0.044345234   -0.68981111     0.022260563  
   2625000   0.05470688    -0.81614285     0.045005241   -0.68913023     0.035217679  
   2626000   0.054329938   -0.81556517     0.043030357   -0.69109248     0.0005541988 
   2627000   0.056506066   -0.81566197     0.043449091   -0.68750846     0.034894499  
   2628000   0.054133084   -0.81548757     0.043829184   -0.69051115     0.012302332  
   2629000   0.055591873   -0.81669349     0.046729885   -0.68662959     0.032805094  
   2630000   0.055532564   -0.81626044     0.045551766   -0.68746357     0.008749719  
   2631000   0.054097078   -0.81554847     0.04272456    -0.69173064     0.0075212536 
   2632000   0.05598717    -0.81679462     0.045584276   -0.68728377     0.034693566  
   2633000   0.054487249   -0.81374003     0.044032475   -0.68802941     0.028711451  
   2634000   0.053851836   -0.81454999     0.042127787   -0.69169657     0.018840419  
   2635000   0.053338997   -0.81673718     0.04321903    -0.69356127     0.043799926  
   2636000   0.052185336   -0.81560429     0.042812064   -0.69456473     0.021609296  
   2637000   0.053617541   -0.8165948      0.043758205   -0.69246217     0.017896393  
   2638000   0.055564106   -0.81686345     0.042658271   -0.69091279     0.050274444  
   2639000   0.054051041   -0.81555483     0.043394379   -0.6911362      0.060621271  
   2640000   0.052881054   -0.81673639     0.043900836   -0.69356515     0.029652112  
   2641000   0.05323286    -0.81364391     0.043583731   -0.6902624      0.027337499  
   2642000   0.053580242   -0.81486397     0.043353962   -0.6911915      0.047835727  
   2643000   0.054059364   -0.81604805     0.041610479   -0.69340084     0.037892091  
   2644000   0.056902929   -0.81586556     0.043241136   -0.6873251      0.0391232    
   2645000   0.054034859   -0.81499543     0.043975974   -0.69001946     0.021880332  
   2646000   0.05514692    -0.81538481     0.043267928   -0.68944987     0.023180323  
   2647000   0.053609133   -0.81578889     0.043975671   -0.6914514      0.011401522  
   2648000   0.053834332   -0.81573123     0.044951524   -0.69008031     0.057880808  
   2649000   0.055389945   -0.81634531     0.042966128   -0.69034787     0.04936208   
   2650000   0.054455169   -0.81747252     0.040955286   -0.69488718     0.05766178   
   2651000   0.052413622   -0.81618085     0.045110906   -0.69250023     0.048916973  
   2652000   0.054612384   -0.81777503     0.04308593    -0.69282338     0.035373655  
   2653000   0.055770973   -0.81678032     0.04354973    -0.6896281      0.033186927  
   2654000   0.057213586   -0.81737727     0.044590858   -0.68702141     0.061540064  
   2655000   0.053833018   -0.81383673     0.041914946   -0.69122435     0.039747987  
   2656000   0.053860596   -0.81601021     0.044233076   -0.69103836     0.022027021  
   2657000   0.054974171   -0.81625477     0.04704402    -0.68680269     0.031242166  
   2658000   0.05326398    -0.81703923     0.044070469   -0.69312433     0.032264136  
   2659000   0.053181171   -0.8145742      0.043600579   -0.69125333     0.025205118  
   2660000   0.053177604   -0.81604304     0.043860959   -0.69246714     0.015235093  
   2661000   0.055982138   -0.8173045      0.043931371   -0.6894541      0.022162095  
   2662000   0.053458168   -0.8168997      0.043181125   -0.69358306     0.04010164   
   2663000   0.053357176   -0.8157166      0.043455606   -0.69227687     0.037939419  
   2664000   0.053234627   -0.81767831     0.043595108   -0.69428278     0.017621801  
   2665000   0.052914326   -0.81508211     0.042364311   -0.69339751     0.04044491   
   2666000   0.054391469   -0.81512281     0.044416297   -0.68917195     0.033840831  
   2667000   0.055350773   -0.81635726     0.044826389   -0.68855828     0.010463773  
   2668000   0.056111013   -0.81410286     0.045623493   -0.68436715     0.016836184  
   2669000   0.054732092   -0.81463863     0.045196955   -0.6873965      0.042371493  
   2670000   0.055225269   -0.81605004     0.045301279   -0.6879643      0.038111592  
   2671000   0.054464427   -0.81722346     0.045148894   -0.69043064     0.026296991  
   2672000   0.054984856   -0.81513253     0.04344493    -0.68926353     0.037804877  
   2673000   0.05286959    -0.8150168      0.044172186   -0.69159139     0.041921723  
   2674000   0.051654693   -0.81455707     0.04323556    -0.69388946     0.03781574   
   2675000   0.054306571   -0.81569896     0.041782842   -0.69250881     0.016698909  
   2676000   0.054491014   -0.81671534     0.042967279   -0.69206428     0.016351034  
   2677000   0.055464988   -0.81322398     0.043922035   -0.68615814     0.02748666   
   2678000   0.053306996   -0.81518961     0.043639643   -0.69164106     0.019205792  
   2679000   0.053910419   -0.81555163     0.044290902   -0.69044727     0.012215727  
   2680000   0.053020316   -0.8162671      0.041430742   -0.6953572      0.019118542  
   2681000   0.053899251   -0.81430603     0.04270818    -0.69080114     0.026675216  
   2682000   0.053686267   -0.81481491     0.040565775   -0.69377169     0.032844346  
   2683000   0.053407399   -0.81661186     0.045854769   -0.69069767     0.021045349  
   2684000   0.053418819   -0.81726446     0.043079025   -0.6941089      0.010455766  
   2685000   0.053140301   -0.81657113     0.042120601   -0.69479151     0.027957226  
   2686000   0.05409722    -0.81519326     0.041963968   -0.69213581     0.01519362   
   2687000   0.052500065   -0.81601475     0.044558083   -0.69275737     0.030258548  
   2688000   0.055168298   -0.81518693     0.043152905   -0.68933497     0.014266233  
   2689000   0.054480009   -0.81523313     0.043139479   -0.69042636     0.027612614  
   2690000   0.05455934    -0.81542529     0.046154942   -0.68748414     0.034700145  
   2691000   0.052665328   -0.81470258     0.044540548   -0.69121501     0.01197553   
   2692000   0.054725907   -0.81626227     0.044957986   -0.68926838     0.023384988  
   2693000   0.054409418   -0.81394275     0.0420972     -0.69028408     0.024583095  
   2694000   0.053574381   -0.8159391      0.042659379   -0.69296999     0.05644876   
   2695000   0.053922512   -0.81480129     0.041606317   -0.69236339     0.017565402  
   2696000   0.053766358   -0.8137907      0.042142915   -0.69105028     0.035593886  
   2697000   0.052800599   -0.81578991     0.040974672   -0.69566544     0.036210168  
   2698000   0.053588276   -0.81746199     0.043320357   -0.69381108     0.012997794  
   2699000   0.054703853   -0.81621259     0.041720554   -0.6924892      0.02275356   
   2700000   0.053639484   -0.81613352     0.044378097   -0.69134811     0.04470107   
   2701000   0.054508688   -0.81363746     0.043657491   -0.68826969     0.011761895  
   2702000   0.054266629   -0.81419544     0.045162909   -0.6876851      0.013006844  
   2703000   0.054504766   -0.81530905     0.046522362   -0.68708228    -0.0088104637 
   2704000   0.054817617   -0.81320256     0.04201053    -0.68901865     0.025952339  
   2705000   0.053564835   -0.81411158     0.04406395    -0.68975222     0.015444282  
   2706000   0.054413945   -0.81234016     0.041378941   -0.68939296     0.071081397  
   2707000   0.05620271    -0.8145252      0.043871069   -0.68640445     0.026229897  
   2708000   0.054492644   -0.81658627     0.04538727    -0.68951277     0.040317236  
   2709000   0.053145509   -0.8166202      0.045320698   -0.69163267     0.04903239   
   2710000   0.054427167   -0.81597652     0.043654582   -0.69073386    -0.0055878969 
   2711000   0.055719124   -0.81594849     0.041982696   -0.69044103     0.035254947  
   2712000   0.051960595   -0.8161228      0.04321524    -0.69501696     0.018598749  
   2713000   0.053691731   -0.81395388     0.043708128   -0.68976012     0.036741916  
   2714000   0.054016519   -0.81557972     0.041935842   -0.69267137     0.012729052  
   2715000   0.053772551   -0.81519067     0.042108884   -0.69247499     0.061291211  
   2716000   0.053844715   -0.81514753     0.044961909   -0.68947066     0.032780186  
   2717000   0.055451982   -0.81597586     0.045290509   -0.68756104     0.02852213   
   2718000   0.053743345   -0.81548313     0.04263283    -0.6922873      0.02645628   
   2719000   0.05623707    -0.81481546     0.042482211   -0.68803207     0.044186046  
   2720000   0.054558503   -0.8141939      0.043729632   -0.68867931     0.032116579  
   2721000   0.052834639   -0.81582609     0.045714      -0.69091126     0.03049909   
   2722000   0.054137588   -0.81635671     0.042422424   -0.69278029     0.014306652  
   2723000   0.055438257   -0.81480625     0.043221291   -0.68848122     0.049078629  
   2724000   0.054724945   -0.81610483     0.043176439   -0.69089393     0.028611753  
   2725000   0.055777565   -0.81641026     0.042618127   -0.69017977     0.020775165  
   2726000   0.054180982   -0.81481632     0.042717243   -0.69088003     0.038935088  
   2727000   0.052543487   -0.81528663     0.042721652   -0.6938006      0.077583581  
   2728000   0.055504011   -0.81340563     0.042955772   -0.68724756     0.015962722  
   2729000   0.055267712   -0.81417363     0.044358376   -0.68696717     0.034039834  
   2730000   0.054207319   -0.8145891      0.044411847   -0.68891873     0.025099115  
   2731000   0.054197671   -0.81425658     0.043863026   -0.6891495      0.04071765   
   2732000   0.053937122   -0.81542835     0.044077523   -0.69049734     0.031570584  
   2733000   0.055236142   -0.81563502     0.043746739   -0.68908752     0.020719694  
   2734000   0.056749788   -0.81489176     0.044506867   -0.68531513     0.019222639  
   2735000   0.054647773   -0.81594801     0.044295459   -0.68973378     0.012511013  
   2736000   0.053934414   -0.81535993     0.0457009     -0.68880961     0.012032145  
   2737000   0.054870058   -0.8147333      0.043967349   -0.68851397     0.040021698  
   2738000   0.05452145    -0.81413188     0.04279891    -0.68960356     0.053225035  
   2739000   0.055773155   -0.81398799     0.04386596    -0.68651627     0.037464364  
   2740000   0.054116617   -0.81598869     0.04410699    -0.69075915     0.054242253  
   2741000   0.056818934   -0.8137283      0.042556294   -0.68599859     0.020274479  
   2742000   0.05280274    -0.81559578     0.041247776   -0.695195       0.018824043  
   2743000   0.053433876   -0.81413668     0.041613614   -0.69242396     0.046987444  
   2744000   0.053172082   -0.81609307     0.044624126   -0.69176228     0.02274307   
   2745000   0.053947483   -0.81571707     0.042343391   -0.69250466     0.01785788   
   2746000   0.054422401   -0.81414097     0.042144103   -0.69041594     0.044223993  
   2747000   0.054159246   -0.81511554     0.043013855   -0.69091523     0.012285686  
   2748000   0.052577355   -0.81395636     0.043053655   -0.69208756     0.019828805  
   2749000   0.052357397   -0.81697021     0.045356032   -0.69312875     0.018938656  
   2750000   0.055702068   -0.81544986     0.041512693   -0.69043797     0.028665834  
   2751000   0.057077401   -0.81396374     0.043958917   -0.68444396     0.036935148  
   2752000   0.054506006   -0.81373573     0.045445071   -0.68658439     0.032990515  
   2753000   0.054120895   -0.81541821     0.044263645   -0.6900256      0.020795731  
   2754000   0.055400552   -0.81613099     0.043005515   -0.69007826     0.023918664  
   2755000   0.052235074   -0.81520801     0.04341921    -0.69348674     0.024641889  
   2756000   0.052331569   -0.81515325     0.042022123   -0.69468442     0.021146438  
   2757000   0.053325688   -0.81538434     0.042521928   -0.69292549     0.044550319  
   2758000   0.056346009   -0.81604338     0.044924405   -0.68665449     0.047369238  
   2759000   0.054842536   -0.81651872     0.045819002   -0.68848898     0.023446899  
   2760000   0.055527502   -0.81572295     0.043347558   -0.68913788     0.038072182  
   2761000   0.054674686   -0.81631671     0.043373645   -0.69098395     0.04252532   
   2762000   0.053707079   -0.81376196     0.042759603   -0.69049371     0.047506685  
   2763000   0.05286008    -0.8162062      0.047356334   -0.6896109      0.034450805  
   2764000   0.055040993   -0.81450549     0.042175773   -0.6898215      0.037415594  
   2765000   0.056973477   -0.81540724     0.042468848   -0.68753331     0.046338143  
   2766000   0.05295499    -0.81494167     0.043460288   -0.69210014     0.0070419451 
   2767000   0.053333795   -0.81652557     0.044979152   -0.69159734     0.023122929  
   2768000   0.053284795   -0.81546518     0.042956071   -0.69263348     0.039542064  
   2769000   0.054773651   -0.81712202     0.044678037   -0.69033651     0.014494195  
   2770000   0.054416078   -0.81406494     0.042598527   -0.68989496     0.041400374  
   2771000   0.053593092   -0.8134634      0.043867311   -0.68925831     0.025555404  
   2772000   0.055572507   -0.81461438     0.04138396    -0.68992543    -0.0051290308 
   2773000   0.053621828   -0.81664382     0.04505585    -0.69120712     0.025502088  
   2774000   0.054459206   -0.81374765     0.044963439   -0.68714811     0.019684468  
   2775000   0.053528396   -0.81598375     0.045412017   -0.69033094     0.033656572  
   2776000   0.053453861   -0.81561266     0.042390056   -0.69309354     0.007496057  
   2777000   0.055062025   -0.81627775     0.043376195   -0.6903618      0.024439817  
   2778000   0.053642549   -0.81527362     0.044061113   -0.6908006      0.025651084  
   2779000   0.055553193   -0.81345136     0.041883238   -0.6882921      0.015220204  
   2780000   0.053840148   -0.81616743     0.044839799   -0.69061952     0.011862221  
   2781000   0.053796376   -0.81789921     0.044914686   -0.69234202    -0.0017518374 
   2782000   0.05228876    -0.81566161     0.041654647   -0.69562443     0.033941793  
   2783000   0.055348852   -0.81563974     0.046319986   -0.68635004     0.01990543   
   2784000   0.05572587    -0.81641183     0.045269295   -0.68760766     0.018965363  
   2785000   0.053798233   -0.81418637     0.045635521   -0.68790557     0.012927881  
   2786000   0.054956944   -0.8142276      0.04347831    -0.68836705     0.018285704  
   2787000   0.054878766   -0.81586537     0.046273966   -0.68732636    -0.017126535  
   2788000   0.055070623   -0.8151267      0.044866813   -0.68770725     0.0069194968 
   2789000   0.056250893   -0.8163069      0.041924099   -0.69006089    -0.0070772268 
   2790000   0.055226472   -0.81597767     0.044688071   -0.68850334     0.024928119  
   2791000   0.054869474   -0.81388599     0.044760524   -0.68687436     0.022058346  
   2792000   0.056977482   -0.81647196     0.044149916   -0.68691096    -0.018554976  
   2793000   0.055895221   -0.81405156     0.04246351    -0.68779931    -0.00062923635
   2794000   0.054340746   -0.81524131     0.042956368   -0.69082641     0.018868344  
   2795000   0.05418036    -0.81311785     0.042025416   -0.68987433     0.023021361  
   2796000   0.054502865   -0.81561129     0.043828192   -0.69008155     0.018270555  
   2797000   0.054992629   -0.81579231     0.045556532   -0.68780006     0.032576713  
   2798000   0.055403763   -0.81345772     0.044781589   -0.68562411     0.024111784  
   2799000   0.054236729   -0.81439919     0.044042666   -0.68905392     0.019589864  
   2800000   0.054937777   -0.81596852     0.045141507   -0.68847351     0.016030623  
   2801000   0.054208125   -0.81666081     0.043880692   -0.69152039     0.011049628  
   2802000   0.054480907   -0.81584808     0.044236973   -0.68994247     0.030484378  
   2803000   0.054494755   -0.81496624     0.044560542   -0.6887163      0.023032985  
   2804000   0.053548571   -0.81652475     0.043774261   -0.69247945    -0.0018093386 
   2805000   0.054377142   -0.81482562     0.043193677   -0.69011886    -0.0071960577 
   2806000   0.052470656   -0.81579989     0.044592327   -0.69255236     0.0091942982 
   2807000   0.052913363   -0.81540015     0.045765273   -0.69031604     0.0054492497 
   2808000   0.054291706   -0.81645696     0.041885041   -0.6931869     -0.011350085  
   2809000   0.053784373   -0.81478507     0.042214835   -0.69194573     0.0098818363 
   2810000   0.054579111   -0.81707469     0.046561753   -0.68869709    -0.0033027877 
   2811000   0.053931263   -0.81609579     0.044711111   -0.69053998    -0.00027876972
   2812000   0.054585884   -0.81565336     0.043753974   -0.69007338     0.024552056  
   2813000   0.054242908   -0.81514459     0.042364522   -0.6914682      0.028013496  
   2814000   0.056451841   -0.81189539     0.041788086   -0.68548417     0.03407433   
   2815000   0.053428179   -0.81494877     0.043912197   -0.69094601     0.0047863401 
   2816000   0.051628095   -0.81330416     0.043409586   -0.69250239    -0.0012778135 
   2817000   0.052103339   -0.81436444     0.043238983   -0.69302087    -0.00345557   
   2818000   0.054223845   -0.81380369     0.043875251   -0.68864515     0.010917261  
   2819000   0.053203109   -0.81561595     0.043842365   -0.69202041     0.0042355086 
   2820000   0.052711335   -0.81546441     0.045685843   -0.69076257    -0.00020483888
   2821000   0.053089134   -0.81630725     0.045330498   -0.69139442     0.0030588372 
   2822000   0.054067693   -0.81539098     0.04273111    -0.69161065     0.0059031354 
   2823000   0.055639594   -0.81541629     0.042421411   -0.68958934     0.017022173  
   2824000   0.053748562   -0.81415718     0.043242719   -0.69034363     0.011458015  
   2825000   0.052809913   -0.81453596     0.043147822   -0.69222438     0.030802326  
   2826000   0.052515278   -0.81569168     0.043159121   -0.69381047     0.0078140002 
   2827000   0.054498319   -0.81500984     0.042023122   -0.69129198    -0.0020313363 
   2828000   0.05436139    -0.81508026     0.042072058   -0.69151872    -0.00050999702
   2829000   0.052218925   -0.81523389     0.04337867    -0.69357737     0.0086823949 
   2830000   0.056360566   -0.81337678     0.041818217   -0.68707226     0.0042052537 
   2831000   0.05397326    -0.8148767      0.044245553   -0.68972349    -0.0099053087 
   2832000   0.055246078   -0.81535039     0.044481208   -0.68805353    -0.011213147  
   2833000   0.05383802    -0.81526673     0.044094378   -0.69046742     0.016630734  
   2834000   0.053790572   -0.81519784     0.043101518   -0.69146251    -0.0044128311 
   2835000   0.054550726   -0.81373686     0.042735848   -0.68922772     0.020263574  
   2836000   0.053942325   -0.81395934     0.043657221   -0.68944084     0.0011403259 
   2837000   0.055444224   -0.81462581     0.043397307   -0.68811582    -0.0027171803 
   2838000   0.055201164   -0.81733731     0.046057218   -0.68853177     8.4930459e-05
   2839000   0.057085342   -0.81441272     0.04328891    -0.68555104     0.0048852549 
   2840000   0.054756599   -0.81563413     0.045886351   -0.68766587    -0.014243258  
   2841000   0.055669679   -0.81304778     0.044400136   -0.685197       0.016826045  
   2842000   0.054332999   -0.81551913     0.044762847   -0.68930937    -0.0070925323 
   2843000   0.054432741   -0.81204905     0.041889975   -0.68856264     0.023399141  
   2844000   0.05494793    -0.81305841     0.045989927   -0.68469976     0.012058784  
   2845000   0.054099968   -0.81379877     0.043484617   -0.68921655     0.011416091  
   2846000   0.053769754   -0.81569656     0.043940969   -0.69115299     0.005892469  
   2847000   0.05299073    -0.81408608     0.044420989   -0.69023027     0.00079022315
   2848000   0.052042588   -0.81625978     0.042680038   -0.69556623    -0.011308303  
   2849000   0.05421435    -0.81607492     0.042932152   -0.69187371    -0.0038561489 
   2850000   0.052134343   -0.81626464     0.04260139    -0.69551219     0.018904095  
   2851000   0.054450792   -0.81514239     0.043680231   -0.68983866     0.0029780911 
   2852000   0.053465361   -0.81478332     0.043673938   -0.69096308     0.0028850532 
   2853000   0.055664463   -0.81451313     0.043234807   -0.6878355     -0.0041581572 
   2854000   0.053697199   -0.81557891     0.043296031   -0.69178904    -0.0088196376 
   2855000   0.055729217   -0.81333005     0.043286741   -0.68650341     0.018300289  
   2856000   0.056188633   -0.81445386     0.043891134   -0.68633415     0.014661975  
   2857000   0.054362599   -0.81405619     0.04521766    -0.68734724     0.012826306  
   2858000   0.055540622   -0.81537436     0.044180546   -0.68793663     0.0055436593 
   2859000   0.056010723   -0.81507802     0.045190366   -0.68592578     0.0076622474 
   2860000   0.055336421   -0.81414766     0.045048456   -0.68614812     0.010512465  
   2861000   0.053570707   -0.81535149     0.043552271   -0.691495       0.026622511  
   2862000   0.054332954   -0.81488797     0.044472586   -0.68896853     0.016717023  
   2863000   0.05348117    -0.81497603     0.043729391   -0.69107664     0.0010851706 
   2864000   0.053613067   -0.8139173      0.044823103   -0.68872648    -0.0040709426 
   2865000   0.054580085   -0.81660371     0.044934082   -0.68985232     0.0017727591 
   2866000   0.052327094   -0.81549276     0.042168165   -0.6948846     -0.0034249977 
   2867000   0.05417777    -0.81419176     0.04259018    -0.69038735     0.00095364502
   2868000   0.056705526   -0.81592465     0.044658255   -0.68626298    -0.0045013458 
   2869000   0.055267703   -0.81689015     0.044969389   -0.68907269    -0.0029626931 
   2870000   0.05414425    -0.81410884     0.042285637   -0.69065923     0.0058289468 
   2871000   0.054964026   -0.81552085     0.04444902    -0.68867898    -0.0036154611 
   2872000   0.053875049   -0.81612033     0.041891119   -0.69346877     0.0099931008 
   2873000   0.055016082   -0.81594817     0.041251534   -0.69222576     0.0020474386 
   2874000   0.055029451   -0.81389039     0.043357654   -0.68804182    -0.0068013776 
   2875000   0.053956223   -0.8137204      0.045289384   -0.6875489     -0.015451587  
   2876000   0.054889517   -0.81779377     0.045126514   -0.6903861     -0.0074313821 
   2877000   0.053910468   -0.81776093     0.044794586   -0.69215282    -0.0019130627 
   2878000   0.055297732   -0.81449563     0.044944867   -0.68665768     0.0053004595 
   2879000   0.051882389   -0.81514917     0.042951127   -0.69442467     0.0087663461 
   2880000   0.05331331    -0.81445283     0.042249265   -0.69228519    -0.0027434688 
   2881000   0.052429827   -0.81488968     0.041062514   -0.69523316    -0.0055731423 
   2882000   0.054933405   -0.81424986     0.041419225   -0.69048369     0.0035794258 
   2883000   0.055009305   -0.81353689     0.041066888   -0.69000928     0.0010651318 
   2884000   0.053893471   -0.81611213     0.042946033   -0.69237805     0.013879426  
   2885000   0.053738325   -0.81340397     0.042149998   -0.69069849     0.0056067055 
   2886000   0.05322047    -0.81362376     0.042644089   -0.69120047    -0.0023023186 
   2887000   0.055178227   -0.81476666     0.042094397   -0.68995832     0.0060216692 
   2888000   0.054717739   -0.8158236      0.044310841   -0.68948911    -0.011691599  
   2889000   0.055674745   -0.81602692     0.042520359   -0.69004832     0.00089075823
   2890000   0.054805467   -0.81570516     0.042913235   -0.69063676     0.0077050872 
   2891000   0.0559003     -0.81464599     0.043049285   -0.68780035     0.0034164258 
   2892000   0.055802865   -0.81486519     0.043044909   -0.68816998    -0.010261862  
   2893000   0.055585348   -0.81472206     0.041960533   -0.6894373      0.0080274908 
   2894000   0.054281499   -0.81481111     0.041706111   -0.69173528    -0.0058544064 
   2895000   0.052720087   -0.81430373     0.040778543   -0.69449608     0.0043262027 
   2896000   0.052903256   -0.81572053     0.041364462   -0.69505239     0.0074482624 
   2897000   0.055443834   -0.81518469     0.042160152   -0.68991244     0.015461974  
   2898000   0.054654052   -0.81552973     0.042126782   -0.69147476    -0.006534277  
   2899000   0.053303006   -0.81542886     0.042046183   -0.69347975    -0.008163881  
   2900000   0.052754036   -0.81587836     0.042964643   -0.69383372    -0.0010307149 
   2901000   0.054986332   -0.81465916     0.043063413   -0.68916946     0.012527913  
   2902000   0.053589023   -0.81596789     0.041747769   -0.69388845    -0.013266503  
   2903000   0.0523592     -0.81615071     0.043357866   -0.69430472    -0.017670074  
   2904000   0.055190809   -0.81536994     0.0417919     -0.69084524    -0.0054343121 
   2905000   0.054553193   -0.81527748     0.041707444   -0.69179304     0.01731046   
   2906000   0.053245937   -0.81666585     0.042497021   -0.69435145    -0.0064640284 
   2907000   0.053285356   -0.8152612      0.042462543   -0.69292219    -0.008736154  
   2908000   0.053307456   -0.81339198     0.041802358   -0.69168003     0.0012612006 
   2909000   0.054336619   -0.81686481     0.043062812   -0.69234965    -0.00011812624
   2910000   0.054348684   -0.81446015     0.042389503   -0.69060022     0.001861497  
   2911000   0.053935297   -0.81455086     0.045442279   -0.68825783    -0.012706909  
   2912000   0.054969307   -0.81521215     0.040800735   -0.69201065    -0.0053009034 
   2913000   0.054462738   -0.81426339     0.039487039   -0.69313495     0.012576779  
   2914000   0.054758478   -0.81433011     0.042017868   -0.69022751     0.0072185075 
   2915000   0.053167199   -0.81671834     0.041421139   -0.69559785    -0.00064191156
   2916000   0.053822055   -0.81546835     0.040034321   -0.69475303     0.010535758  
   2917000   0.054125      -0.81500762     0.04075218    -0.69312032    -0.0015799794 
   2918000   0.054656819   -0.81741773     0.043275826   -0.69220957    -0.0069137677 
   2919000   0.054934834   -0.81551116     0.041358812   -0.69180326     0.010111054  
   2920000   0.054427003   -0.81384291     0.042333911   -0.68992116    -0.0064823292 
   2921000   0.0539962     -0.81646054     0.043564043   -0.69195445    -0.0091687716 
   2922000   0.055437031   -0.81265257     0.04252452    -0.68702615     0.010128737  
   2923000   0.054292713   -0.81435245     0.042426392   -0.69053952     0.0015817666 
   2924000   0.052867689   -0.81375308     0.041497336   -0.69300537    -0.010202627  
   2925000   0.052386178   -0.81435841     0.040139911   -0.69568993     0.012981936  
   2926000   0.053180377   -0.81531598     0.042984305   -0.69261258    -0.0012152379 
   2927000   0.053481567   -0.81526808     0.041397278   -0.6937002     -0.016613581  
   2928000   0.054072234   -0.81469486     0.039460465   -0.69417838     0.013987246  
   2929000   0.054634857   -0.81392384     0.041489094   -0.69053533     0.01242408   
   2930000   0.054457553   -0.8146018      0.042059422   -0.69090875     0.0027989329 
   2931000   0.055021249   -0.81539814     0.042669769   -0.69024974     0.01560839   
   2932000   0.054190135   -0.81494417     0.042989982   -0.69072143     0.0063250679 
   2933000   0.055079276   -0.81595553     0.044260754   -0.68912917     0.0020618756 
   2934000   0.054199155   -0.81561729     0.042668506   -0.69170251    -0.017156224  
   2935000   0.05355816    -0.8139502      0.044024609   -0.68964018    -0.0063141303 
   2936000   0.055706565   -0.81485539     0.040684157   -0.6906653      0.007870636  
   2937000   0.054648728   -0.8132147      0.042184953   -0.68910954    -0.0015213008 
   2938000   0.05294448    -0.81436969     0.040258499   -0.6947457     -0.013259792  
   2939000   0.052730356   -0.81439845     0.04016814    -0.6951858     -0.001480167  
   2940000   0.054357712   -0.81635681     0.040672284   -0.69420057     0.0025566631 
   2941000   0.054048549   -0.81582925     0.040612117   -0.69419662    -0.0060113597 
   2942000   0.052769425   -0.81553007     0.042328377   -0.69409862     0.013849069  
   2943000   0.054026149   -0.81669509     0.042783036   -0.69292511    -0.0012479453 
   2944000   0.051638923   -0.81558401     0.042412395   -0.6957632     -0.0012887088 
   2945000   0.054335419   -0.81379071     0.0421968     -0.69014337     0.014811023  
   2946000   0.053460309   -0.81595557     0.041029262   -0.69478758     0.0085342055 
   2947000   0.053677905   -0.81437531     0.042208751   -0.69170165     0.012064062  
   2948000   0.05494938    -0.81631481     0.040843099   -0.69310082     0.0040591102 
   2949000   0.055067152   -0.81516043     0.041986616   -0.69062637     0.0093546754 
   2950000   0.054130458   -0.8155852      0.041916702   -0.6925252      0.014689507  
   2951000   0.055198209   -0.81491281     0.043490692   -0.68867822     0.01986306   
   2952000   0.055562636   -0.81369888     0.043869942   -0.68653876     0.012468594  
   2953000   0.053901372   -0.81438563     0.042416742   -0.69116899    -0.00035158877
   2954000   0.052841151   -0.81592921     0.042515591   -0.69420303    -0.015373371  
   2955000   0.053800792   -0.81419291     0.042533342   -0.69101045     0.016910543  
   2956000   0.054388035   -0.81654964     0.042341542   -0.69267868     0.0096102613 
   2957000   0.05489629    -0.81427117     0.041463784   -0.69051608    -0.0053764633 
   2958000   0.052802289   -0.81554402     0.043511021   -0.69288066    -0.0079393455 
   2959000   0.053995542   -0.81591114     0.041654168   -0.69331591     0.019108155  
   2960000   0.055766654   -0.81565409     0.042045742   -0.69001233     0.0081621611 
   2961000   0.054454348   -0.81341515     0.040598793   -0.69118753     0.016113484  
   2962000   0.054469955   -0.81776929     0.041556463   -0.69456061     0.010898784  
   2963000   0.053538444   -0.81761369     0.041914114   -0.69544372     0.005628925  
   2964000   0.055412424   -0.81610899     0.040707805   -0.69233617     0.014424965  
   2965000   0.056140084   -0.81577334     0.045045569   -0.68657197     0.027868123  
   2966000   0.05412884    -0.81291615     0.042317504   -0.68945777     0.0014238743 
   2967000   0.055377185   -0.81308949     0.041386453   -0.68869085    -0.00011781863
   2968000   0.054575267   -0.8153715      0.043593583   -0.68996783     0.0091223433 
   2969000   0.055199193   -0.81479308     0.042037216   -0.69001049     0.0033385705 
   2970000   0.055410709   -0.81584728     0.044214003   -0.68857083     0.017033144  
   2971000   0.053310716   -0.81450782     0.042340256   -0.69225308    -0.013732821  
   2972000   0.053951691   -0.81428526     0.040758162   -0.69265178     0.00024048573
   2973000   0.056167728   -0.81519957     0.0405617     -0.69044063    -0.0062712157 
   2974000   0.054847713   -0.81345219     0.041781217   -0.68945249     0.019121239  
   2975000   0.054193919   -0.8137997      0.041961023   -0.69060024     0.00032847207
   2976000   0.055953894   -0.81231394     0.043937843   -0.68449941     0.004111638  
   2977000   0.054825264   -0.81461426     0.042209619   -0.6902198      0.024370461  
   2978000   0.053508698   -0.81488806     0.042510761   -0.69216603     0.011098084  
   2979000   0.05309814    -0.81547922     0.043812582   -0.69207081    -0.0048448678 
   2980000   0.053416026   -0.81289635     0.045389718   -0.68743428     0.010880552  
   2981000   0.055040808   -0.81528531     0.044097673   -0.68867969     0.0026468147 
   2982000   0.056418352   -0.81529251     0.041108367   -0.68961121     0.008512113  
   2983000   0.051752137   -0.81150284     0.04320527    -0.69071945     0.010540746  
   2984000   0.052793858   -0.81464552     0.039799251   -0.69570657     0.023863863  
   2985000   0.055054671   -0.81531417     0.041240075   -0.69154537     0.00099557136
   2986000   0.05453298    -0.81324846     0.042896817   -0.68860495     0.013819917  
   2987000   0.054454326   -0.81439639     0.044845598   -0.687922       0.014236767  
   2988000   0.053937927   -0.81687466     0.044923366   -0.69109661    -0.0037874446 
   2989000   0.052629357   -0.81164926     0.042929754   -0.6898264      0.028652916  
   2990000   0.053542338   -0.81686347     0.041930722   -0.69467106     0.012296289  
   2991000   0.053960453   -0.81564625     0.042632607   -0.69212519     0.011071995  
   2992000   0.054141765   -0.81386694     0.042481966   -0.69022472     0.0086576611 
   2993000   0.055551473   -0.81440596     0.043009454   -0.68812306     0.013821416  
   2994000   0.054387095   -0.81286177     0.040481921   -0.69085184    -0.00018754202
   2995000   0.056115403   -0.81553131     0.04247684    -0.68893568     0.015240074  
   2996000   0.052346547   -0.8163896      0.040981229   -0.69693921    -0.0046226912 
   2997000   0.05259148    -0.81496941     0.041972304   -0.69416078     0.01488086   
   2998000   0.0522027     -0.81221394     0.041609983   -0.69235043     0.015546203  
   2999000   0.051782531   -0.81375846     0.043780696   -0.69235408     0.0090878252 
   3000000   0.055146048   -0.81457823     0.042611881   -0.68930065     0.0042192083 
   3001000   0.055133161   -0.81440132     0.043255246   -0.68849969     0.01276014   
   3002000   0.054193754   -0.81555939     0.042254905   -0.6920663      0.0033166899 
   3003000   0.053359735   -0.81377807     0.041844353   -0.69194575     0.0096510231 
   3004000   0.054429458   -0.81375543     0.038830107   -0.69333381     0.0045384495 
   3005000   0.053443915   -0.81399727     0.041611727   -0.69227139     0.0045715486 
   3006000   0.054813132   -0.81650108     0.041570462   -0.69276397     0.022922839  
   3007000   0.052285744   -0.81466308     0.039632829   -0.69665223     0.01490628   
   3008000   0.054306692   -0.81440156     0.040649079   -0.692345       0.0069482395 
   3009000   0.051704257   -0.81239219     0.040167723   -0.69471812     0.012122989  
   3010000   0.053965684   -0.81606506     0.040630608   -0.69453815    -0.0041098638 
   3011000   0.05334282    -0.8128572      0.043092862   -0.68980173     0.01298577   
   3012000   0.053934397   -0.8145997      0.041101557   -0.69264874     0.013552143  
   3013000   0.053868      -0.81369767     0.043002618   -0.68994518     0.0056321501 
   3014000   0.054612418   -0.81349982     0.042257604   -0.68937644     0.0046058989 
   3015000   0.052809382   -0.81345333     0.043213386   -0.69107698     0.0066340208 
   3016000   0.054221037   -0.81352053     0.041445264   -0.69079618     0.0066696387 
   3017000   0.055437251   -0.81430723     0.042304827   -0.68890017     0.0084854448 
   3018000   0.054706405   -0.81460807     0.041382328   -0.69121908    -0.0030210981 
   3019000   0.052961603   -0.81555883     0.042068918   -0.69409876     0.011198791  
   3020000   0.052726058   -0.81549958     0.042944984   -0.69351654     0.0073073193 
   3021000   0.053297159   -0.81360856     0.042356062   -0.69135834     0.013962487  
   3022000   0.053510242   -0.81433385     0.040825212   -0.69329506     0.012748667  
   3023000   0.054727432   -0.81416621     0.040509996   -0.69161802     0.011282092  
   3024000   0.054804688   -0.81393195     0.04228302    -0.68949493     0.030044335  
   3025000   0.053566718   -0.8139268      0.04181743    -0.69181113     0.0033167951 
   3026000   0.052906437   -0.81509777     0.039927296   -0.69586202     0.01392326   
   3027000   0.053572869   -0.81526323     0.041970664   -0.69298511     0.0026648581 
   3028000   0.05452618    -0.81444889     0.043115572   -0.68959681    -0.002040645  
   3029000   0.054204939   -0.81393595     0.042246695   -0.6904343      0.02927109   
   3030000   0.055306499   -0.81417704     0.040515542   -0.69075527     0.020247764  
   3031000   0.053914349   -0.81609568     0.041408308   -0.69386802     0.0015042407 
   3032000   0.054649091   -0.8157408      0.042338826   -0.69148122     0.027004488  
   3033000   0.055872366   -0.81270453     0.040520299   -0.68842975     0.0087813885 
   3034000   0.054477937   -0.81318846     0.041892258   -0.68963201     0.038613272  
   3035000   0.053165546   -0.8143227      0.045662619   -0.68896321     0.036335842  
   3036000   0.054666938   -0.81226358     0.042865792   -0.68745028     0.010267637  
   3037000   0.054805579   -0.81434559     0.041078715   -0.69111154     0.023722137  
   3038000   0.055005422   -0.81429005     0.040266174   -0.69156897     0.020058483  
   3039000   0.05442859    -0.81256634     0.040939759   -0.69003637     0.035258018  
   3040000   0.053963392   -0.81236158     0.04355562    -0.6879131      0.03034631   
   3041000   0.054303199   -0.81500564     0.042920965   -0.69068243     0.040478061  
   3042000   0.054937789   -0.81448361     0.041398463   -0.69073163     0.01099342   
   3043000   0.053998654   -0.81282137     0.043158715   -0.68871693     0.029381229  
   3044000   0.052896316   -0.81424476     0.039470317   -0.69548116     0.021949959  
   3045000   0.054182706   -0.81274984     0.04117588    -0.69035233     0.018335656  
   3046000   0.053165094   -0.8147299      0.041193692   -0.69384002     0.011919176  
   3047000   0.055846887   -0.81349797     0.042174973   -0.68760671     0.038976035  
   3048000   0.055844419   -0.8130909      0.042276713   -0.6871016      0.014586122  
   3049000   0.055423909   -0.81481517     0.04152851    -0.69020443     0.0016426189 
   3050000   0.054724617   -0.81391363     0.041199394   -0.69068027     0.027744125  
   3051000   0.053931141   -0.81434426     0.040612726   -0.69288702     0.0084189009 
   3052000   0.053335345   -0.81504381     0.042195143   -0.69289726     0.051407405  
   3053000   0.053010374   -0.81444448     0.043234082   -0.69174614     0.012313121  
   3054000   0.05424553    -0.81409459     0.040794475   -0.69198432     0.017880991  
   3055000   0.053819464   -0.81342413     0.041670833   -0.69107619     0.024660184  
   3056000   0.054277402   -0.81201405     0.03883585    -0.69181462     0.016545183  
   3057000   0.052405938   -0.8135449      0.03985461    -0.6951321      0.030466345  
   3058000   0.053086969   -0.81332298     0.04014268    -0.69360122     0.027347411  
   3059000   0.055038001   -0.81530975     0.039171126   -0.69363488     0.0034241784 
   3060000   0.054490903   -0.81201575     0.041429014   -0.68890311     0.022118478  
   3061000   0.052606447   -0.81409623     0.042754028   -0.69248344     0.019786102  
   3062000   0.054856726   -0.81608421     0.042643675   -0.69120853     0.0089044601 
   3063000   0.054751214   -0.81378922     0.042151243   -0.68956414     0.012453212  
   3064000   0.057006196   -0.81179159     0.043673434   -0.68266403     0.035705155  
   3065000   0.055192693   -0.81273086     0.043237632   -0.6867576      0.034412212  
   3066000   0.055075125   -0.81543851     0.040368518   -0.6925106      0.01658539   
   3067000   0.053470192   -0.81506346     0.045229955   -0.68967996     0.020893188  
   3068000   0.054624634   -0.81283986     0.043144136   -0.68781164     0.027008509  
   3069000   0.053302741   -0.81386048     0.0418751     -0.69208285     0.0097369178 
   3070000   0.054574581   -0.81421544     0.040313154   -0.69209323     0.02164803   
   3071000   0.052408255   -0.81527495     0.041600606   -0.69511268     0.021678306  
   3072000   0.05378424    -0.81193426     0.043336342   -0.68797361     0.027321999  
   3073000   0.055322463   -0.81514514     0.0437039     -0.68851108     0.011900118  
   3074000   0.052615417   -0.81474949     0.042553288   -0.693324       0.013256612  
   3075000   0.052776396   -0.81435187     0.040114614   -0.69512373     0.037379026  
   3076000   0.052384351   -0.81444558     0.040426757   -0.69549299     0.02907662   
   3077000   0.054536419   -0.81437802     0.042346108   -0.69028006     0.022328198  
   3078000   0.053261077   -0.81422695     0.043492686   -0.69089419     0.011452055  
   3079000   0.053934383   -0.81403035     0.042296751   -0.69088422     0.011086024  
   3080000   0.053100003   -0.8136904      0.043272804   -0.69081898     0.0088571888 
   3081000   0.054581126   -0.81381409     0.042357491   -0.68963773     0.020672097  
   3082000   0.052923698   -0.81707935     0.041457586   -0.69628743     0.0039078505 
   3083000   0.053446754   -0.81277798     0.04252062    -0.69013895     0.021429579  
   3084000   0.054448078   -0.81210047     0.043005028   -0.68747602     0.029226055  
   3085000   0.051395609   -0.81508766     0.042410345   -0.69563364     0.0042762182 
   3086000   0.054587901   -0.81429815     0.042598908   -0.68987021     0.027144375  
   3087000   0.055473808   -0.8149385      0.040857185   -0.69092428     0.021834695  
   3088000   0.054649304   -0.81331095     0.042982537   -0.68840735     3.891897e-05 
   3089000   0.055576767   -0.81262589     0.045837412   -0.68347711     0.014306526  
   3090000   0.05534385    -0.81400659     0.042752207   -0.68829217     0.017510609  
   3091000   0.055908012   -0.81620339     0.043257607   -0.68913787     0.035727512  
   3092000   0.054370289   -0.81420949     0.044267779   -0.68843889     0.01186994   
   3093000   0.053975976   -0.81457352     0.043318559   -0.69034323    -0.0040778715 
   3094000   0.055686904   -0.81648889     0.042877855   -0.69013457     0.0031101558 
   3095000   0.052734485   -0.81271151     0.041511913   -0.6921489      0.016356042  
   3096000   0.054100941   -0.8143567      0.042547567   -0.69071008     0.011724045  
   3097000   0.054629416   -0.81457013     0.042046551   -0.69063233    -0.0027849182 
   3098000   0.055459619   -0.81484604     0.044579054   -0.68713123     0.0026439663 
   3099000   0.056369539   -0.81603643     0.042069861   -0.68946681    -0.0067557115 
   3100000   0.05446149    -0.81310673     0.043673509   -0.68779369     0.0047618712 
   3101000   0.05473235    -0.8130531      0.041238728   -0.68976881     0.0057367126 
   3102000   0.054513558   -0.81539233     0.043912756   -0.689762       0.019619329  
   3103000   0.052936257   -0.81419127     0.041752051   -0.69308606     0.0026364594 
   3104000   0.053112432   -0.8133877      0.040613879   -0.69315657     0.012247892  
   3105000   0.055330713   -0.81437188     0.042625202   -0.68880416     0.02481427   
   3106000   0.05430708    -0.81624356     0.042607102   -0.69222839     0.024881175  
   3107000   0.055760001   -0.81420864     0.041980235   -0.68864236     0.033781076  
   3108000   0.054588999   -0.81431575     0.044042519   -0.68844256     0.022350624  
   3109000   0.055481149   -0.81450195     0.04365786    -0.68767606     0.017796488  
   3110000   0.053457683   -0.81404087     0.042884007   -0.69102207     0.026222702  
   3111000   0.054768037   -0.81134525     0.041885933   -0.68736026     0.025725088  
   3112000   0.055370048   -0.81539115     0.043959934   -0.68842973     0.020103451  
   3113000   0.053922856   -0.81329854     0.042638151   -0.68982828     0.014698591  
   3114000   0.052896878   -0.81443253     0.040842272   -0.69429614     0.020965087  
   3115000   0.052895781   -0.81340124     0.041839303   -0.69226945     0.0140513    
   3116000   0.052701021   -0.81496149     0.042949092   -0.69301187     0.0028344078 
   3117000   0.054172999   -0.81525255     0.042389758   -0.69165572     0.013719132  
   3118000   0.051601989   -0.81552335     0.045154493   -0.69301581     0.014230458  
   3119000   0.053179372   -0.81332523     0.042244861   -0.69136278     0.013253152  
   3120000   0.054904316   -0.81443052     0.042777115   -0.68935006     0.015071713  
   3121000   0.053814025   -0.81405802     0.042521241   -0.69086782     0.016685074  
   3122000   0.053012155   -0.81442771     0.042544104   -0.69241668     0.021990893  
   3123000   0.053671753   -0.81453062     0.042652447   -0.69142248     0.025840937  
   3124000   0.052519355   -0.81386121     0.041857121   -0.69327588     0.024216864  
   3125000   0.0530983     -0.81435675     0.041249063   -0.69351163     0.018172833  
   3126000   0.05322847    -0.81451271     0.041355423   -0.6933661      0.01213663   
   3127000   0.053028553   -0.8145314      0.042048029   -0.69299186     0.019147532  
   3128000   0.055303113   -0.81318052     0.042839329   -0.68744004     0.010794347  
   3129000   0.056169006   -0.81319223     0.039189553   -0.68980353     0.021441823  
   3130000   0.05428619    -0.81391596     0.041668966   -0.69087024     0.025574255  
   3131000   0.051949034   -0.81377309     0.041333889   -0.69456592     0.033230249  
   3132000   0.05226829    -0.81414069     0.042836729   -0.69295211     0.017829488  
   3133000   0.054384637   -0.81514092     0.03857138    -0.69504522     0.0045119772 
   3134000   0.053397598   -0.81452297     0.041978846   -0.69249941     0.012230192  
   3135000   0.051937952   -0.81340478     0.042392657   -0.69315546     0.0051710933 
   3136000   0.055196908   -0.81342266     0.042587946   -0.68809277    -0.001070041  
   3137000   0.053666931   -0.81473283     0.039205582   -0.69507878     0.0082928933 
   3138000   0.053518069   -0.81422416     0.042758613   -0.69124024     0.01467505   
   3139000   0.055039554   -0.81424969     0.043707402   -0.68803622     0.018942173  
   3140000   0.052318233   -0.81532837     0.043760067   -0.69314159     0.012846631  
   3141000   0.051330617   -0.81323103     0.040060823   -0.69622396     0.025157792  
   3142000   0.053586485   -0.81406567     0.040546885   -0.69319091     0.025629459  
   3143000   0.054331823   -0.81478603     0.03999015    -0.69335072     0.044196776  
   3144000   0.053734147   -0.81372642     0.041324455   -0.69185274     0.038949733  
   3145000   0.054428694   -0.81419351     0.041981372   -0.69062177     0.00025446871
   3146000   0.052741363   -0.81249398     0.041544509   -0.69188847     0.029879109  
   3147000   0.053375559   -0.81548327     0.04293836    -0.69253323     0.015716529  
   3148000   0.052672691   -0.81323408     0.042783335   -0.69149268     0.019164398  
   3149000   0.052519758   -0.8136613      0.041006969   -0.69392552     0.015651286  
   3150000   0.052584472   -0.81252661     0.040386206   -0.69331458     0.023182772  
   3151000   0.05374616    -0.81370297     0.041758783   -0.69137696     0.024356463  
   3152000   0.052986553   -0.81489573     0.039056287   -0.69641089     0.0082420933 
   3153000   0.052808887   -0.81501757     0.03932913    -0.69652621     0.011839212  
   3154000   0.054540429   -0.813165       0.042804442   -0.68860269     0.026896576  
   3155000   0.053958965   -0.81349284     0.04219522    -0.69041139     0.040860728  
   3156000   0.053142781   -0.8160364      0.043786109   -0.69258755     0.01102715   
   3157000   0.054080072   -0.81374251     0.043034213   -0.68964053     0.031185777  
   3158000   0.054520086   -0.81443912     0.041588055   -0.6911237      0.019780306  
   3159000   0.053873851   -0.81571426     0.042309827   -0.69264579     0.0015641044 
   3160000   0.054584106   -0.81318913     0.039071475   -0.69229432    -0.0018810304 
   3161000   0.051046006   -0.8142828      0.041825495   -0.6959377      0.018279409  
   3162000   0.055747695   -0.81318112     0.042294043   -0.68731948     0.021389196  
   3163000   0.054820655   -0.81361215     0.043546235   -0.68788799     0.02339034   
   3164000   0.054543765   -0.81075436     0.041535869   -0.68745563     0.044265409  
   3165000   0.054897931   -0.81383804     0.040426444   -0.69111783     0.03100791   
   3166000   0.052372141   -0.8131126      0.040726897   -0.69387818     0.012252967  
   3167000   0.054129361   -0.81402259     0.04115172    -0.69172921     0.035429507  
   3168000   0.054212409   -0.8129291      0.043358596   -0.68830435     0.02142081   
   3169000   0.05325731    -0.81584763     0.03972135    -0.69629186     0.013048532  
   3170000   0.052855864   -0.81455911     0.040853141   -0.69447333     0.0067169679 
   3171000   0.053091791   -0.81190101     0.043137237   -0.68917747     0.029045084  
   3172000   0.054042364   -0.81454662     0.041512241   -0.69202313     0.024123561  
   3173000   0.053949758   -0.81348408     0.043242543   -0.68936911     0.0088246214 
   3174000   0.054210083   -0.81275774     0.038546736   -0.69294834     0.046756548  
   3175000   0.056323879   -0.81233003     0.040757577   -0.68714114     0.011354649  
   3176000   0.055085412   -0.81320241     0.043938253   -0.68668935     0.0090731905 
   3177000   0.054613834   -0.81544433     0.042783646   -0.69079278     0.022011049  
   3178000   0.053731914   -0.81202323     0.039766231   -0.69171113     0.039245402  
   3179000   0.053882589   -0.81519605     0.042590278   -0.69183404    -0.0053844562 
   3180000   0.053456601   -0.8141932      0.038765269   -0.69529476     0.0098412316 
   3181000   0.055216711   -0.81565885     0.04093208    -0.69195514     0.035418893  
   3182000   0.055311509   -0.81560285     0.041897039   -0.69079207     0.052985194  
   3183000   0.052807545   -0.81421683     0.039459467   -0.69559715     0.02531196   
   3184000   0.053410655   -0.8153176      0.04225479    -0.69299852     0.017492707  
   3185000   0.053018799   -0.81482859     0.044572124   -0.69077958     0.029935742  
   3186000   0.054141937   -0.8121247      0.042362962   -0.68860123     0.029386545  
   3187000   0.053093999   -0.8148376      0.040057832   -0.69519015     0.01105528   
   3188000   0.053812376   -0.81148474     0.042277976   -0.68854028     0.0085652881 
   3189000   0.055466426   -0.81245905     0.040677136   -0.68863595    -0.0062374515 
   3190000   0.055265959   -0.8138306      0.039853934   -0.69113122     0.011618073  
   3191000   0.054489533   -0.8153752      0.043020853   -0.69067278     0.0063825947 
   3192000   0.054786536   -0.81467883     0.041095714   -0.69145633     0.040591766  
   3193000   0.053189094   -0.81372767     0.042630747   -0.69136475     0.024060409  
   3194000   0.053147642   -0.81351525     0.043107674   -0.69073755     0.032147328  
   3195000   0.053943552   -0.81275423     0.039765639   -0.69212547     0.024953893  
   3196000   0.052731092   -0.81590804     0.042577459   -0.69428498    -0.015265005  
   3197000   0.052927766   -0.81365704     0.043617951   -0.69069866    -0.0064959877 
   3198000   0.053788394   -0.81454763     0.042114804   -0.69180229     0.0023326988 
   3199000   0.0544641     -0.81547293     0.04222451    -0.69160498     0.020480663  
   3200000   0.054241107   -0.81417402     0.042897966   -0.68996688    -0.012110718  
   3201000   0.05507817    -0.81397494     0.041344078   -0.69006691     0.0079891318 
   3202000   0.05594665    -0.8132062      0.041911121   -0.68742924     0.016561503  
   3203000   0.055530467   -0.81507629     0.04306994    -0.68876439     0.0037534087 
   3204000   0.054950746   -0.81341702     0.04069588    -0.6903482      0.020324365  
   3205000   0.053795174   -0.81485374     0.041521161   -0.69269188     0.022399049  
   3206000   0.052493146   -0.81281436     0.0423522     -0.69177324    -0.0011602166 
   3207000   0.052279298   -0.81236902     0.042406508   -0.69159416     0.0075116988 
   3208000   0.05402609    -0.81324474     0.03962961    -0.69262828     0.030026028  
   3209000   0.052655732   -0.81239526     0.041310423   -0.6921522      0.0078069273 
   3210000   0.053348649   -0.81483624     0.042331435   -0.69253346    -0.0003711254 
   3211000   0.052884936   -0.812538       0.042651834   -0.69060994     0.0027525958 
   3212000   0.050417354   -0.81499313     0.041160776   -0.69825511    -0.0010245212 
   3213000   0.05235863    -0.81418658     0.042349845   -0.69334946     0.026678349  
   3214000   0.054189964   -0.81508706     0.04153788    -0.69231668     0.022057941  
   3215000   0.05389157    -0.81431513     0.040763454   -0.69276647     0.0085440943 
   3216000   0.055293128   -0.81389326     0.043973609   -0.68703346     0.026665975  
   3217000   0.052606298   -0.81378529     0.042863887   -0.69206287     0.033033216  
   3218000   0.054332852   -0.81285171     0.042089113   -0.6893159      0.018177863  
   3219000   0.055036765   -0.81299038     0.040146604   -0.69034189     0.042074253  
   3220000   0.052429284   -0.81358512     0.041598291   -0.69339364     0.027266176  
   3221000   0.054302404   -0.81275828     0.040360456   -0.69099676    -0.0040539606 
   3222000   0.055490973   -0.81427778     0.041578551   -0.68951648     0.025881189  
   3223000   0.052557816   -0.81183347     0.04309947    -0.68994814     0.014629253  
   3224000   0.05501335    -0.81481771     0.042553753   -0.68979717     0.013737175  
   3225000   0.056516228   -0.81290839     0.041060987   -0.68712775     0.010320864  
   3226000   0.054135347   -0.8135083      0.043072828   -0.68928484     0.0015783688 
   3227000   0.053992549   -0.81146419     0.04401462    -0.686513      -0.015077434  
   3228000   0.055668411   -0.81522182     0.042895092   -0.68887799     0.016014703  
   3229000   0.053488084   -0.81160436     0.04009528    -0.69132872     0.01260812   
   3230000   0.054321121   -0.81264595     0.04156756    -0.68964927    -0.002251048  
   3231000   0.054477769   -0.81307907     0.042734396   -0.68868074     0.005386076  
   3232000   0.052406575   -0.81352976     0.043390976   -0.69157964    -0.0040532984 
   3233000   0.053459536   -0.81249969     0.041955416   -0.69040671     0.023841391  
   3234000   0.054362831   -0.81180705     0.041085767   -0.68922964     0.041803867  
   3235000   0.054423296   -0.81044894     0.040864954   -0.68800171     0.027385643  
   3236000   0.052775594   -0.81130017     0.041980241   -0.69020761     0.020052138  
   3237000   0.054090048   -0.8135013      0.042680148   -0.68973843     0.00088996634
   3238000   0.05486878    -0.81322709     0.040942123   -0.69003489     0.013771205  
   3239000   0.053953018   -0.81292501     0.040781662   -0.69126603    -0.0065561281 
   3240000   0.05551072    -0.81048871     0.04311542    -0.68416093     0.039288916  
   3241000   0.054880707   -0.81368041     0.043676097   -0.68773636     0.026821928  
   3242000   0.054589097   -0.81256205     0.043791018   -0.68694022     0.010079862  
   3243000   0.056078403   -0.81445384     0.043049977   -0.68734052     0.0050722094 
   3244000   0.055035844   -0.81186749     0.041565918   -0.68780107     0.015943552  
   3245000   0.054359403   -0.81364249     0.041020407   -0.69113558     0.0087494278 
   3246000   0.053521084   -0.81183911     0.044050371   -0.68755891     0.0075257282 
   3247000   0.054784179   -0.81164395     0.041251415   -0.68826929     0.030615162  
   3248000   0.054423072   -0.81280356     0.044823197   -0.68639842     0.0097382653 
   3249000   0.054391168   -0.81234169     0.044089716   -0.68671786     0.0063369291 
   3250000   0.054104512   -0.81315118     0.041433685   -0.69061308     0.029983675  
   3251000   0.053063886   -0.81295557     0.042700098   -0.69071099     0.0042692038 
   3252000   0.054639951   -0.81270463     0.040286935   -0.69051064     0.0094237431 
   3253000   0.053359081   -0.81398987     0.040882171   -0.69312072     0.013841361  
   3254000   0.052429056   -0.81488105     0.040318586   -0.69596962     0.02022731   
   3255000   0.051929985   -0.81434829     0.041718709   -0.69478486     0.0071112105 
   3256000   0.056809673   -0.81335524     0.042055713   -0.68614       -0.0061810451 
   3257000   0.054111637   -0.81114023     0.043656706   -0.68636844     0.019782006  
   3258000   0.055167346   -0.8123221      0.042293674   -0.6873308     -0.0024547454 
   3259000   0.054179137   -0.81247757     0.042959269   -0.68830203     0.019884497  
   3260000   0.055608333   -0.81126225     0.041789787   -0.68611378     0.028719873  
   3261000   0.054868484   -0.81292596     0.042620001   -0.68805633     0.030924478  
   3262000   0.054032171   -0.81262296     0.041222578   -0.69040442     0.0049660517 
   3263000   0.054099889   -0.81227409     0.043698437   -0.68747817     0.012619016  
   3264000   0.053702273   -0.81154738     0.040786602   -0.69025934     0.024938833  
   3265000   0.051887638   -0.81253012     0.041480108   -0.69326876     0.023757867  
   3266000   0.054325676   -0.813454       0.041393437   -0.69062463    -0.003704175  
   3267000   0.053600477   -0.81351901     0.042346316   -0.69082385     0.033044077  
   3268000   0.056282428   -0.81186925     0.042468248   -0.68503182     0.041387072  
   3269000   0.05447723    -0.81319296     0.039829953   -0.69169988     0.019096986  
   3270000   0.0553445     -0.81321064     0.042721883   -0.68752557    -0.00055837504
   3271000   0.055329212   -0.81284291     0.040242824   -0.68965981     0.011373602  
   3272000   0.05447302    -0.81307501     0.042365039   -0.68905315     0.020226649  
   3273000   0.055602742   -0.81248168     0.043753543   -0.68537783     0.013204748  
   3274000   0.054652412   -0.81215786     0.044590356   -0.68564177     0.0030959921 
   3275000   0.053846172   -0.81293815     0.042020262   -0.69020074     0.014287796  
   3276000   0.053219978   -0.81352849     0.041011386   -0.69273864     0.017711368  
   3277000   0.055540841   -0.81006354     0.044045405   -0.68276062     0.038636252  
   3278000   0.058245716   -0.81222887     0.041165588   -0.68375108     0.014196293  
   3279000   0.053075817   -0.81339834     0.043477542   -0.69035844     0.013284291  
   3280000   0.055796526   -0.81367769     0.042047459   -0.68798944     0.0014269224 
   3281000   0.055463066   -0.81470646     0.040966393   -0.69059915     0.014287586  
   3282000   0.053730606   -0.81240135     0.042335797   -0.68952164     0.017298431  
   3283000   0.054678972   -0.81389153     0.042732953   -0.68919304     0.0080618537 
   3284000   0.055126605   -0.81189425     0.043540347   -0.68571734     0.018282148  
   3285000   0.054701521   -0.81369946     0.041618588   -0.69008153    -0.0017786438 
   3286000   0.052461216   -0.81217436     0.041421584   -0.69211172     0.013340611  
   3287000   0.055608978   -0.81348691     0.041192248   -0.68893501     0.015658736  
   3288000   0.055119364   -0.81325249     0.04172255    -0.68890424     0.019124213  
   3289000   0.053428124   -0.81105209     0.04253036    -0.68843124     0.02242358   
   3290000   0.054361293   -0.81225789     0.042964295   -0.68780426     0.0068163156 
   3291000   0.055587476   -0.81273006     0.043419767   -0.68598287     0.02906963   
   3292000   0.055260846   -0.81197906     0.041237755   -0.68790352     0.017453992  
   3293000   0.053715082   -0.81131015     0.041083193   -0.68970632     0.011126678  
   3294000   0.053631678   -0.81153209     0.042189613   -0.68894687     0.044291912  
   3295000   0.051909753   -0.81444478     0.045615758   -0.69101463     0.0024788511 
   3296000   0.054087105   -0.81273088     0.042114263   -0.68953831     0.017193659  
   3297000   0.054117728   -0.81286118     0.042067695   -0.68966926     0.019581581  
   3298000   0.05430102    -0.81394855     0.041934376   -0.6906152      0.041897149  
   3299000   0.053007456   -0.81372469     0.042435705   -0.6918291      0.027731536  
   3300000   0.052247287   -0.81102626     0.04147792    -0.69122797     0.022921993  
   3301000   0.055670935   -0.81252367     0.041641632   -0.68742951     0.0067121763 
   3302000   0.055320582   -0.81373677     0.042702988   -0.68810644     0.0066993856 
   3303000   0.053347918   -0.8123985      0.042003617   -0.69042463     0.010939853  
   3304000   0.053081949   -0.81203386     0.039405008   -0.69305729     0.016613934  
   3305000   0.054095965   -0.81365133     0.042535374   -0.69002436     0.0069788136 
   3306000   0.053070652   -0.81301275     0.040637965   -0.69282016     0.019314747  
   3307000   0.054667817   -0.81146878     0.040995899   -0.68852406     0.034747402  
   3308000   0.053632188   -0.81267528     0.042501434   -0.68977746     0.024723022  
   3309000   0.053703458   -0.81395099     0.040711647   -0.69273613     0.012752377  
   3310000   0.053138746   -0.81355501     0.041372856   -0.69252546     0.029148679  
   3311000   0.053866806   -0.81585403     0.040778365   -0.69432758     0.0052725519 
   3312000   0.054435147   -0.81246846     0.042306753   -0.68856167     0.027280318  
   3313000   0.05477453    -0.81477627     0.044561272   -0.68810621     0.036166732  
   3314000   0.055335207   -0.81338763     0.043638392   -0.68679998     0.0035557128 
   3315000   0.054252979   -0.81206946     0.042743348   -0.68799915     0.0093599083 
   3316000   0.054122403   -0.81184056     0.041675294   -0.68903404     0.016468123  
   3317000   0.055378553   -0.81285857     0.043353682   -0.68649066    -0.0048983856 
   3318000   0.055306825   -0.81391912     0.042246618   -0.68876579     0.018161995  
   3319000   0.054504372   -0.81359706     0.043032522   -0.68886073     0.035056429  
   3320000   0.055101062   -0.81333316     0.042870469   -0.68786442     0.026763602  
   3321000   0.054858118   -0.8136069      0.041509954   -0.68986286     0.0071394287 
   3322000   0.053751425   -0.81381286     0.040489222   -0.69274852     0.00038557791
   3323000   0.054731384   -0.81336329     0.042004054   -0.68931513     0.0153321    
   3324000   0.053867183   -0.81509468     0.042598661   -0.69174738     0.026742724  
   3325000   0.053961736   -0.81332997     0.042700203   -0.68973938     0.0095381831 
   3326000   0.053273178   -0.81335968     0.040865422   -0.69263604     0.0098130686 
   3327000   0.05548755    -0.8106357      0.04211825    -0.68533982     0.033339726  
   3328000   0.052615632   -0.81262118     0.041212522   -0.69253613     0.017184353  
   3329000   0.054025724   -0.8137752      0.040207557   -0.69258134     0.01141277   
   3330000   0.054250321   -0.81158211     0.041723847   -0.68853529     0.020470853  
   3331000   0.05423127    -0.81327618     0.040409418   -0.69157234     0.016576767  
   3332000   0.053043804   -0.81073699     0.043198826   -0.68802379     0.0023984086 
   3333000   0.05483727    -0.81131531     0.042614805   -0.68649767     0.012601841  
   3334000   0.056301409   -0.81339426     0.040646349   -0.68835029     0.019857953  
   3335000   0.054709434   -0.81278953     0.03985323    -0.6909251      0.0056057332 
   3336000   0.052852421   -0.81146153     0.041289436   -0.69094461     0.024113919  
   3337000   0.053250933   -0.81323173     0.040329318   -0.69307754     0.01190691   
   3338000   0.052954259   -0.81298692     0.041963537   -0.69164324     0.016195683  
   3339000   0.05224633    -0.81111944     0.042963695   -0.68983682     0.022815334  
   3340000   0.055311359   -0.81333061     0.043440813   -0.68697629    -0.0012389426 
   3341000   0.054376978   -0.81366663     0.042218899   -0.68993489     0.036943987  
   3342000   0.054364548   -0.81219844     0.042437459   -0.68826677     0.022178676  
   3343000   0.056150794   -0.81168771     0.041088438   -0.68642742     0.017682206  
   3344000   0.053630678   -0.81248435     0.042428076   -0.68966216     0.030171116  
   3345000   0.054727839   -0.81518085     0.040702809   -0.69243925     0.031348489  
   3346000   0.054352963   -0.81425375     0.04362628    -0.68915062     0.003652127  
   3347000   0.05463414    -0.81429288     0.044554332   -0.6878402      0.026463904  
   3348000   0.05309001    -0.81516708     0.043324748   -0.6922587     -0.0092299926 
   3349000   0.051765201   -0.81410909     0.042043698   -0.69446768     0.0033373979 
   3350000   0.053822727   -0.81261149     0.043285173   -0.68864432     0.017053622  
   3351000   0.055424894   -0.81329991     0.043466501   -0.6867497      0.020872503  
   3352000   0.05348521    -0.81319698     0.041628046   -0.69139288     0.013553881  
   3353000   0.052023477   -0.81239264     0.043580836   -0.69082694     0.00037241421
   3354000   0.052457203   -0.81373265     0.042620366   -0.69247724     0.0090018167 
   3355000   0.054752151   -0.81356135     0.042065161   -0.68942095    -0.011512578  
   3356000   0.056293536   -0.81243038     0.042068249   -0.68597631     0.018474138  
   3357000   0.05319851    -0.81372096     0.043545896   -0.69042878     0.028600403  
   3358000   0.056079852   -0.81094613     0.040897756   -0.68598287     0.0019108238 
   3359000   0.056533926   -0.81281613     0.041141204   -0.68692875     0.03051097   
   3360000   0.052992068   -0.8128423      0.044216753   -0.68918873     0.0060581416 
   3361000   0.054300466   -0.81209328     0.041319899   -0.68937523     0.0017895292 
   3362000   0.053350906   -0.81298152     0.041510193   -0.6914966      0.012813532  
   3363000   0.054231646   -0.81356758     0.043246595   -0.68902599    -0.009958507  
   3364000   0.053346461   -0.81291412     0.043084205   -0.68986185     0.012926531  
   3365000   0.053286557   -0.81283327     0.042709562   -0.69024544     0.0155658    
   3366000   0.054768669   -0.81370118     0.041189027   -0.69041215     0.0073123558 
   3367000   0.052582906   -0.81390085     0.041806696   -0.69327068     0.002159722  
   3368000   0.054082809   -0.81451479     0.042928849   -0.69051407    -0.0063054423 
   3369000   0.054593967   -0.81434244     0.041544579   -0.69095974     0.0063100349 
   3370000   0.054749068   -0.81389195     0.041733546   -0.69008778     0.0066210272 
   3371000   0.054649553   -0.8136596      0.044302587   -0.68743557     0.018710579  
   3372000   0.055119894   -0.81340287     0.040199842   -0.69057653     0.02271934   
   3373000   0.055080806   -0.81189353     0.042702939   -0.68662269     0.010211319  
   3374000   0.052553939   -0.81233673     0.039593961   -0.69396272     0.041493897  
   3375000   0.054754138   -0.81398111     0.042689579   -0.68921332     0.011219124  
   3376000   0.054952856   -0.81600975     0.04137739    -0.69225625     0.0056112316 
   3377000   0.054917731   -0.8118297      0.041019323   -0.68848693     0.0018257801 
   3378000   0.052441612   -0.81331667     0.04037575    -0.69432925     0.0068728065 
   3379000   0.054401095   -0.81282585     0.044585382   -0.68669147     0.018106907  
   3380000   0.053137675   -0.81468208     0.0427711     -0.69225589     0.022037887  
   3381000   0.056717983   -0.81362534     0.041472167   -0.68713108     0.029219868  
   3382000   0.05350562    -0.81426252     0.043438867   -0.690617       0.025234749  
   3383000   0.057659299   -0.81172883     0.043644778   -0.68165091     0.011315722  
   3384000   0.057258618   -0.8135463      0.043861217   -0.68385257     0.0067248291 
   3385000   0.054825418   -0.81219107     0.042136872   -0.68786912     0.005838822  
   3386000   0.055313025   -0.81239635     0.042355531   -0.68712481     0.012484243  
   3387000   0.054251417   -0.81411617     0.041229693   -0.69156185     0.019026913  
   3388000   0.053412784   -0.81287379     0.040717856   -0.69208845     0.028503073  
   3389000   0.054532585   -0.81191216     0.043772619   -0.68639344     0.045057613  
   3390000   0.054541484   -0.81602633     0.042988116   -0.69127877     0.0055109036 
   3391000   0.054246708   -0.81236656     0.041151644   -0.68989735     0.027556065  
   3392000   0.054628608   -0.81184903     0.041576652   -0.68838233     0.036417372  
   3393000   0.057834852   -0.81215765     0.04225533    -0.68320601     0.007149322  
   3394000   0.056033392   -0.81214882     0.04156127    -0.68659168     0.018755337  
   3395000   0.054154367   -0.81308921     0.043936665   -0.6879734      0.0089783608 
   3396000   0.05310415    -0.81165579     0.04247227    -0.68957868     0.0055616644 
   3397000   0.054874064   -0.81309417     0.042113236   -0.68872295     0.025350163  
   3398000   0.056432806   -0.81104827     0.040098057   -0.68635561     0.02521505   
   3399000   0.054068793   -0.81350697     0.042980875   -0.68947523     0.02835391   
   3400000   0.052539005   -0.81303564     0.042706663   -0.69157132     0.0054434392 
   3401000   0.053297323   -0.81279353     0.041824203   -0.69107492     0.035743874  
   3402000   0.053745343   -0.81135632     0.041912223   -0.6888781      0.028597688  
   3403000   0.054852785   -0.81378496     0.043254661   -0.68830421     0.014394212  
   3404000   0.054012601   -0.81196351     0.043686276   -0.6873106      0.013373597  
   3405000   0.055626009   -0.81202235     0.04237318    -0.68626399    -0.0013766161 
   3406000   0.053266706   -0.81288888     0.043457757   -0.68958261    -0.0010985673 
   3407000   0.053567226   -0.8129739      0.042662266   -0.69001264    -0.0095796298 
   3408000   0.054294327   -0.81344932     0.043709393   -0.68835097     0.0076020552 
   3409000   0.055784288   -0.81399115     0.041621457   -0.68874724     0.0054243861 
   3410000   0.053670709   -0.81274995     0.04283181    -0.68946402     0.015444016  
   3411000   0.054823312   -0.81338045     0.044677667   -0.68652087     0.011918119  
   3412000   0.054504256   -0.81368002     0.044999685   -0.6869767      0.0028148566 
   3413000   0.052178606   -0.81244744     0.043051309   -0.69117872     0.016706336  
   3414000   0.055769329   -0.81229498     0.042104721   -0.68659024     0.015067096  
   3415000   0.055490743   -0.81384383     0.043463667   -0.68719775     0.027313441  
   3416000   0.053744769   -0.81105152     0.041814436   -0.68867195     0.031473129  
   3417000   0.056062977   -0.81224133     0.042473811   -0.6857273      0.01911648   
   3418000   0.052652509   -0.81308493     0.043894452   -0.69026267     0.0082355928 
   3419000   0.053728987   -0.81186061     0.041925411   -0.68939371     0.022424574  
   3420000   0.053988151   -0.81355651     0.040510755   -0.69211578     0.024137135  
   3421000   0.053731288   -0.81193903     0.042587573   -0.68880653     0.027513135  
   3422000   0.053560935   -0.81407978     0.043243054   -0.69054716     0.030065708  
   3423000   0.054448139   -0.81251282     0.04251377    -0.68837953     0.015821928  
   3424000   0.053759341   -0.81089        0.043358056   -0.68694495    -0.00056770023
   3425000   0.055624833   -0.81204118     0.041860143   -0.68679762     0.020820488  
   3426000   0.051843856   -0.81412861     0.04228416    -0.69412884    -0.0054234517 
   3427000   0.053987163   -0.81276244     0.041606681   -0.69022726     0.00014222983
   3428000   0.054257472   -0.81424149     0.039576907   -0.69333088     0.00035994395
   3429000   0.05419327    -0.81320802     0.042381042   -0.68958952     0.011521131  
   3430000   0.054802481   -0.81432257     0.041811131   -0.69036075     0.013076891  
   3431000   0.053147516   -0.812783       0.040710216   -0.69240295     0.0092593621 
   3432000   0.053914418   -0.8129278      0.043318626   -0.68878972    -0.0045396668 
   3433000   0.054039709   -0.81152512     0.042811546   -0.68770631     0.0097046876 
   3434000   0.052756608   -0.81466143     0.041695807   -0.69388177     0.001903254  
   3435000   0.054296002   -0.81424582     0.042636179   -0.69021818     0.011800073  
   3436000   0.054011657   -0.81239293     0.039572882   -0.69185483     0.0045790782 
   3437000   0.054644434   -0.81291821     0.04176397    -0.68924047     0.013149811  
   3438000   0.054645976   -0.81350927     0.042932466   -0.68866072     0.0035762346 
   3439000   0.053270654   -0.81183354     0.042900136   -0.68907898     0.031395867  
   3440000   0.054051591   -0.81317732     0.043379177   -0.68877307     0.0080624917 
   3441000   0.054240955   -0.81177949     0.040830977   -0.68963957     0.015085853  
   3442000   0.054917405   -0.81296242     0.040803832   -0.68983562     0.0022690587 
   3443000   0.053960105   -0.81369253     0.042767659   -0.69003694     0.016654326  
   3444000   0.054133137   -0.81327034     0.041696742   -0.69042627     0.0055959965 
   3445000   0.054050887   -0.81344661     0.041193378   -0.69122921     0.0094405132 
   3446000   0.053527037   -0.81220306     0.040698178   -0.69126613     0.0062799642 
   3447000   0.056170383   -0.81253756     0.040586318   -0.68775003     0.0017725527 
   3448000   0.053633958   -0.81323879     0.042085422   -0.69075434     0.0012582042 
   3449000   0.052437248   -0.81184989     0.040712789   -0.69253197     0.024087012  
   3450000   0.053745715   -0.8120216      0.041851395   -0.68960364     0.014128351  
   3451000   0.052505748   -0.81314179     0.041084559   -0.69334942     0.016604144  
   3452000   0.052608297   -0.81327767     0.037907131   -0.696509       0.005206574  
   3453000   0.051875102   -0.81408846     0.043108409   -0.6932176     -0.0088217647 
   3454000   0.052760036   -0.81466809     0.04476995    -0.69080915     0.014852299  
   3455000   0.055886126   -0.8118072      0.042767395   -0.6852647      0.028263235  
   3456000   0.053802914   -0.8139302      0.041697913   -0.69157999     0.019823053  
   3457000   0.053758221   -0.81241155     0.041902634   -0.68992361     0.019118373  
   3458000   0.055647045   -0.81423314     0.042797062   -0.68801937     0.02001929   
   3459000   0.054335021   -0.81306275     0.040253883   -0.69135892     0.025257484  
   3460000   0.05483962    -0.8127909      0.042649545   -0.68793499    -0.00037255593
   3461000   0.054847806   -0.81489108     0.04295903    -0.68971342     0.013424601  
   3462000   0.056201626   -0.81198266     0.041992775   -0.68574183     0.010661102  
   3463000   0.05551022    -0.81244699     0.041259943   -0.68797544     0.029111192  
   3464000   0.054752197   -0.81381782     0.041221543   -0.69052096     0.01328178   
   3465000   0.052676914   -0.80943754     0.044475434   -0.68599771     0.008141996  
   3466000   0.053972087   -0.81199376     0.044145629   -0.68694223     0.01217454   
   3467000   0.054455185   -0.81273397     0.043674459   -0.68742944     0.032450117  
   3468000   0.053906877   -0.81086452     0.042456036   -0.68760034     0.0013143619 
   3469000   0.054502194   -0.81365415     0.040386745   -0.69156686     0.023815581  
   3470000   0.053965538   -0.8105643      0.041782922   -0.6878853      0.028732091  
   3471000   0.055701651   -0.81326072     0.042954301   -0.68680784     0.018104126  
   3472000   0.053963595   -0.81340651     0.043153083   -0.68936026     0.0071947296 
   3473000   0.05423081    -0.81180186     0.043538473   -0.68696965     0.01209372   
   3474000   0.054834556   -0.8108094      0.040461139   -0.6881495      0.028485434  
   3475000   0.053235385   -0.81219343     0.042182081   -0.69020979     0.042954961  
   3476000   0.053894491   -0.81296614     0.041177288   -0.69099927     0.0094459041 
   3477000   0.05456922    -0.81322734     0.041398742   -0.69002757     0.026965108  
   3478000   0.055301539   -0.81322576     0.039507543   -0.69081943     0.018808159  
   3479000   0.053550521   -0.81206335     0.041956032   -0.68983336     0.020088089  
   3480000   0.054685844   -0.81362358     0.043795938   -0.6878518      0.0027366332 
   3481000   0.05332084    -0.81150739     0.043520563   -0.68805716     0.008676608  
   3482000   0.053770019   -0.81413921     0.044310673   -0.68922555     0.010112558  
   3483000   0.053046101   -0.81264472     0.041398935   -0.69172796    -0.0038048747 
   3484000   0.055780129   -0.81342014     0.042550165   -0.68725376     0.01641761   
   3485000   0.05488366    -0.81280074     0.042489361   -0.688039       0.024342423  
   3486000   0.053824364   -0.81216079     0.043594015   -0.68788231     0.018921531  
   3487000   0.053133001   -0.8135508      0.042599582   -0.69130314     0.0078189395 
   3488000   0.053872337   -0.81388705     0.041864435   -0.69126624     0.0089514379 
   3489000   0.054679883   -0.81397398     0.041645247   -0.69036182     0.0041988224 
   3490000   0.055137764   -0.81399414     0.042398816   -0.68894204    -0.00026640931
   3491000   0.053662051   -0.81420411     0.041219926   -0.69254304     0.014704791  
   3492000   0.052657456   -0.81317685     0.041138832   -0.69310279     0.010116405  
   3493000   0.053884836   -0.81280284     0.042748758   -0.68927897     0.01879276   
   3494000   0.054452505   -0.81350493     0.040502022   -0.69137684     0.0082137121 
   3495000   0.055378953   -0.8128425      0.042949666   -0.68687799     0.0091527382 
   3496000   0.053778388   -0.81265074     0.041949925   -0.69008528     0.020908102  
   3497000   0.055619418   -0.81346077     0.04271099    -0.68737448     0.029100649  
   3498000   0.055398886   -0.81398537     0.04181929    -0.68912137     0.018580064  
   3499000   0.054757078   -0.81364604     0.044929163   -0.68663425     0.013778756  
   3500000   0.054232872   -0.81327828     0.042949012   -0.68903244     0.014330845  
   3501000   0.056698435   -0.81333278     0.042985384   -0.68535461    -0.0057797636 
   3502000   0.054966876   -0.81419096     0.043469371   -0.68832446     0.026937136  
   3503000   0.055160119   -0.81289367     0.042396179   -0.6878107      0.01252426   
   3504000   0.055633543   -0.81337252     0.042033738   -0.68794231     0.013187306  
   3505000   0.053997229   -0.8119707      0.041774387   -0.68925272     0.013623328  
   3506000   0.055694381   -0.81406165     0.041938715   -0.68863526     0.024991035  
   3507000   0.05492996    -0.81334034     0.044346496   -0.68665207     0.017040946  
   3508000   0.056086292   -0.81161636     0.043547672   -0.68399353     0.04059227   
   3509000   0.054568769   -0.81128225     0.042170178   -0.68731172     0.035997693  
   3510000   0.054095564   -0.81276551     0.042965679   -0.68870883     0.028709585  
   3511000   0.054816229   -0.81253774     0.042648348   -0.6877181      0.0020472692 
   3512000   0.056010351   -0.8134246      0.043657253   -0.68580603     0.0035671457 
   3513000   0.054682394   -0.81066712     0.042762511   -0.68593394     0.022926436  
   3514000   0.053805096   -0.81144222     0.04192142    -0.68886523     0.032208676  
   3515000   0.054844731   -0.81389726     0.042613871   -0.68906937     0.036088606  
   3516000   0.053990395   -0.8126584      0.042777759   -0.6889473      0.020891056  
   3517000   0.055826444   -0.81313894     0.043272595   -0.6861807      0.016212562  
   3518000   0.053718673   -0.81418251     0.044433318   -0.68922317     0.019297836  
   3519000   0.053761066   -0.81363012     0.041293237   -0.69174732     0.031760119  
   3520000   0.053588794   -0.81492191     0.042934447   -0.69165613    -0.0021218181 
   3521000   0.053668861   -0.81291299     0.041752723   -0.69070891     0.020070425  
   3522000   0.05282439    -0.81341519     0.04139445    -0.69283528    -0.0021599767 
   3523000   0.053789767   -0.81349253     0.041212962   -0.69164697     0.0056219953 
   3524000   0.053173188   -0.81476566     0.04281549    -0.69224185     0.013070171  
   3525000   0.055087412   -0.81391216     0.043206972   -0.68812738     0.02265292   
   3526000   0.05488072    -0.81465373     0.043123974   -0.68926179    -0.0068910589 
   3527000   0.054337642   -0.81297888     0.042387705   -0.6891373      0.016487251  
   3528000   0.054465998   -0.81165381     0.043026535   -0.68698099     0.02484145   
   3529000   0.055656105   -0.8115214      0.042697535   -0.68539357     0.024092915  
   3530000   0.054920947   -0.81344154     0.041966535   -0.68914674     0.01227539   
   3531000   0.053370603   -0.81265617     0.043709675   -0.68894224     0.031147798  
   3532000   0.056094808   -0.81284393     0.040873194   -0.6878828      0.016798808  
   3533000   0.055854366   -0.8133687      0.042273596   -0.68736761     0.022100482  
   3534000   0.056071221   -0.81347299     0.044762117   -0.6846583      0.021317036  
   3535000   0.055841809   -0.81611031     0.043920897   -0.68848074     0.0062682059 
   3536000   0.054803134   -0.81177479     0.043025733   -0.68659739     0.0050751364 
   3537000   0.054118098   -0.81221016     0.042837492   -0.68824789     0.023959935  
   3538000   0.053779432   -0.81332499     0.042891185   -0.6898167      0.033900317  
   3539000   0.055048759   -0.81408452     0.043495438   -0.68806922     0.011989274  
   3540000   0.054247486   -0.81529769     0.041037992   -0.69294097    -0.0011017846 
   3541000   0.054382258   -0.81288517     0.043397908   -0.68796651     0.012023435  
   3542000   0.054123138   -0.81394541     0.043478751   -0.68933433     0.02054498   
   3543000   0.05448253    -0.81292141     0.04303975    -0.68821058     0.016285538  
   3544000   0.0547088     -0.81440955     0.043208148   -0.68919115     0.014900188  
   3545000   0.055574084   -0.81364275     0.042590296   -0.68774511     0.028592058  
   3546000   0.053355484   -0.8114712      0.041119287   -0.69037032     0.01900778   
   3547000   0.054608287   -0.81172381     0.043850952   -0.68601328     0.0036735058 
   3548000   0.055749845   -0.81190901     0.043846874   -0.68449132     0.0022054832 
   3549000   0.05296612    -0.8121361      0.039425742   -0.69331244    -0.0029458519 
   3550000   0.051927087   -0.81407443     0.04098022    -0.69525383     0.0039745432 
   3551000   0.052888098   -0.81089739     0.044580299   -0.68703613     0.011378759  
   3552000   0.052953449   -0.81186753     0.040767305   -0.6917213      0.011790821  
   3553000   0.054812279   -0.81249614     0.040126119   -0.69020465     0.0085450084 
   3554000   0.054363828   -0.81482473     0.041946271   -0.69138532     0.011046854  
   3555000   0.052825011   -0.81198719     0.04401273    -0.68878807    -0.0001889047 
   3556000   0.052651917   -0.81274962     0.041257943   -0.69256476     0.0096011622 
   3557000   0.05439936    -0.81309416     0.042458461   -0.6890893      0.016538829  
   3558000   0.054685522   -0.81308087     0.041926571   -0.68917894     0.0068966329 
   3559000   0.052887179   -0.81071472     0.042130268   -0.68930486     0.013445603  
   3560000   0.055737626   -0.81249075     0.041851207   -0.68708704     0.021679409  
   3561000   0.055395898   -0.81178735     0.041663552   -0.68708356     0.036688075  
   3562000   0.054670752   -0.81204552     0.042168862   -0.68792344     0.019361735  
   3563000   0.054888362   -0.81207069     0.040501404   -0.68928986     0.024295154  
   3564000   0.054795036   -0.81551828     0.042420214   -0.69095854     0.011190794  
   3565000   0.053100155   -0.81345315     0.042294783   -0.69155952     0.039694315  
   3566000   0.054069623   -0.81210179     0.042507339   -0.68854234     0.016538964  
   3567000   0.055368161   -0.81278251     0.041945481   -0.68783837     0.0086535802 
   3568000   0.053409681   -0.81022699     0.043149962   -0.68701419     0.011257476  
   3569000   0.054365855   -0.81275412     0.040636482   -0.69062146     0.0023308844 
   3570000   0.053090712   -0.81235844     0.043248367   -0.68952539     0.022556076  
   3571000   0.052623871   -0.81464413     0.043471009   -0.69228824     0.012792146  
   3572000   0.054368766   -0.81182191     0.043257844   -0.68706353     0.024432292  
   3573000   0.054651933   -0.8124557      0.041205466   -0.68932523     0.01681584   
   3574000   0.054044761   -0.81169912     0.041435318   -0.68924897     0.035056838  
   3575000   0.05226729    -0.81424944     0.042172005   -0.69372708     0.01884662   
   3576000   0.0537461     -0.81273574     0.041890126   -0.69027847     0.018115871  
   3577000   0.052630005   -0.81223966     0.041876818   -0.69146876     0.014161801  
   3578000   0.05529223    -0.81292965     0.041026433   -0.68901838     0.013950214  
   3579000   0.055158594   -0.81127657     0.044865758   -0.6837263      0.010012041  
   3580000   0.053536693   -0.81152372     0.041799898   -0.68947059     0.017628099  
   3581000   0.05230894    -0.81361191     0.042493746   -0.69270538     0.01847734   
   3582000   0.054473524   -0.81493423     0.04184438    -0.69143228    -5.0740364e-05
   3583000   0.055134758   -0.81223672     0.041615094   -0.68797284     0.0036290822 
   3584000   0.054046518   -0.8134966      0.042633634   -0.68984549    -0.0077886338 
   3585000   0.053450891   -0.81217028     0.042612193   -0.68943348    -0.0036720339 
   3586000   0.053932485   -0.81212138     0.041254485   -0.69002036    -0.0041498495 
   3587000   0.054114665   -0.81301976     0.041126176   -0.69077396     0.014849542  
   3588000   0.054450303   -0.81459979     0.041232606   -0.69174442     0.016506233  
   3589000   0.053454239   -0.8138324      0.044070793   -0.68963198     0.0080593369 
   3590000   0.053627904   -0.81069054     0.041053929   -0.68924665     0.00046495147
   3591000   0.054245388   -0.81254005     0.043953896   -0.68727057    -0.020850146  
   3592000   0.053797005   -0.81334672     0.043240497   -0.68946278    -0.0040888768 
   3593000   0.055837833   -0.81368532     0.041626264   -0.68835634     0.0040969364 
   3594000   0.055259038   -0.81228813     0.043381135   -0.68607191     0.0026202177 
   3595000   0.054984347   -0.81323345     0.043614362   -0.68719578     0.011491893  
   3596000   0.053733882   -0.81434436     0.043010934   -0.6907846      0.017562782  
   3597000   0.053448141   -0.81302709     0.042899674   -0.69000693     0.012718552  
   3598000   0.052924315   -0.81316463     0.042307835   -0.69152154     0.01532823   
   3599000   0.053186297   -0.81155561     0.041203406   -0.69062423     0.005803706  
   3600000   0.051999366   -0.81232072     0.04313638    -0.69123561    -0.01443832   
   3601000   0.052740715   -0.81281483     0.043599815   -0.69015498     0.004015036  
   3602000   0.053443294   -0.81414479     0.0443034     -0.68972817     0.004832285  
   3603000   0.053317812   -0.81210702     0.041160896   -0.69102101     0.014516064  
   3604000   0.053162031   -0.81357146     0.042984579   -0.69089528     0.0013045651 
   3605000   0.053046936   -0.81203119     0.042248255   -0.69026387     0.013906737  
   3606000   0.053708409   -0.81261506     0.041176281   -0.69092814     0.0007951507 
   3607000   0.054050094   -0.81198102     0.041767082   -0.6891911      0.0067309721 
   3608000   0.055694283   -0.81325837     0.042349118   -0.68742173    -0.0035085335 
   3609000   0.054284891   -0.8109225      0.042109123   -0.68743857     0.018508779  
   3610000   0.054667092   -0.81539859     0.043130063   -0.6903208      0.003427071  
   3611000   0.054116923   -0.81376388     0.043209942   -0.68943093     0.015369706  
   3612000   0.054526463   -0.81400243     0.042704669   -0.68956083     0.014409602  
   3613000   0.054928088   -0.81297721     0.044265341   -0.68637289    -0.0034884394 
   3614000   0.054687831   -0.81197605     0.044886233   -0.68511099    -0.0076120422 
   3615000   0.054279715   -0.81296056     0.043475725   -0.68811779    -0.010731919  
   3616000   0.054949459   -0.81168752     0.041207284   -0.68810922     0.023699036  
   3617000   0.054798879   -0.81311242     0.044261943   -0.68670519    -0.0094697273 
   3618000   0.05503476    -0.81111709     0.044984213   -0.683634       0.017366087  
   3619000   0.057005917   -0.81268639     0.041903329   -0.68532935     0.0075756655 
   3620000   0.054766129   -0.81331319     0.042723428   -0.68849357     0.013675175  
   3621000   0.056230166   -0.81232855     0.044152299   -0.68388542    -0.0016532597 
   3622000   0.056743301   -0.81301271     0.0426059     -0.68534677     0.018711969  
   3623000   0.05444098    -0.81397934     0.044277703   -0.68809285     0.0016959695 
   3624000   0.055331384   -0.81069991     0.041812012   -0.68594437    -0.0027800534 
   3625000   0.052985888   -0.81311041     0.041807985   -0.69187487     0.017333647  
   3626000   0.054383544   -0.81280795     0.043003792   -0.68828148     0.031243208  
   3627000   0.05716701    -0.81182192     0.042261954   -0.68386477     0.013334573  
   3628000   0.053884457   -0.8131757      0.043033079   -0.68936808    -0.010783772  
   3629000   0.053638707   -0.8151843      0.042997758   -0.69178039     0.0091443343 
   3630000   0.05358052    -0.81329948     0.042447879   -0.69053267     0.013743743  
   3631000   0.05396594    -0.81297786     0.042219684   -0.68986149    -0.00029554272
   3632000   0.055594307   -0.8130179      0.043983456   -0.68569678     0.0076282793 
   3633000   0.054409127   -0.81407996     0.043142513   -0.68937641     0.0091978287 
   3634000   0.054132661   -0.81321298     0.0424103     -0.68965608     0.020181816  
   3635000   0.053430456   -0.81212478     0.042988187   -0.68904261     0.011628545  
   3636000   0.055090834   -0.81263506     0.044992358   -0.68505977     0.017369039  
   3637000   0.056829283   -0.81223053     0.042389506   -0.6846521     -0.0079839012 
   3638000   0.052940133   -0.8124208      0.041669533   -0.6913923      0.014232832  
   3639000   0.053385563   -0.81516618     0.043534158   -0.69160535    -0.0019394216 
   3640000   0.05343206    -0.81350366     0.043011946   -0.69039533     0.0033701128 
   3641000   0.055190336   -0.8127203      0.042358301   -0.6876299      0.015566019  
   3642000   0.055318312   -0.81458349     0.042095772   -0.68956378    -0.0059892944 
   3643000   0.053371287   -0.81244016     0.042921755   -0.68951313     0.01560766   
   3644000   0.053117447   -0.81142306     0.041874302   -0.68992399     0.022699134  
   3645000   0.053971641   -0.81380029     0.043505548   -0.68938951     0.001476825  
   3646000   0.055731958   -0.81155403     0.04220336    -0.68580667     0.0079760201 
   3647000   0.054816774   -0.81260372     0.041621358   -0.68881025     0.015489536  
   3648000   0.053462612   -0.81418374     0.042197335   -0.69184422     0.00045931037
   3649000   0.052991959   -0.81144009     0.042491502   -0.68951193     0.0054070432 
   3650000   0.05380686    -0.81404009     0.043668569   -0.6897133      0.0080756785 
   3651000   0.055035341   -0.81273824     0.041580354   -0.68865813    -0.0027907547 
   3652000   0.052872482   -0.8130772      0.042464424   -0.69135522     0.0008685188 
   3653000   0.053873924   -0.81338488     0.041409412   -0.69121672     0.0031380794 
   3654000   0.055245579   -0.81271425     0.041853013   -0.68804633    -0.0039580761 
   3655000   0.052239724   -0.81172421     0.042364387   -0.69105079     0.016471006  
   3656000   0.053076819   -0.81441418     0.043094299   -0.69175602     0.00096719792
   3657000   0.053737125   -0.81325703     0.042108134   -0.69059521     0.015136259  
   3658000   0.054421424   -0.81300511     0.042637606   -0.68878804    -0.001447089  
   3659000   0.055876133   -0.81364059     0.04306379    -0.68681667     0.030967127  
   3660000   0.055753352   -0.81163666     0.042543982   -0.6855166      0.014366679  
   3661000   0.053174038   -0.81333013     0.043741883   -0.68987865     0.03448961   
   3662000   0.054114765   -0.81358304     0.044247334   -0.68821593    -0.0045875465 
   3663000   0.054801186   -0.81122155     0.043066397   -0.6860064      0.027229982  
   3664000   0.056942515   -0.81173504     0.043281885   -0.68309449     0.022165696  
   3665000   0.053319067   -0.81245309     0.043091355   -0.68943473     0.016176035  
   3666000   0.054537525   -0.8125867      0.041845912   -0.68898728     0.0082424385 
   3667000   0.056479218   -0.81232654     0.042886515   -0.68477585     0.0053151938 
   3668000   0.051713102   -0.81401969     0.043512718   -0.69298736     0.023341674  
   3669000   0.054884559   -0.81271607     0.042434464   -0.68800788     0.015375097  
   3670000   0.055105606   -0.8119         0.042261953   -0.68703296     0.017833295  
   3671000   0.053826236   -0.81345938     0.039624952   -0.69314717     0.00059431873
   3672000   0.055181818   -0.81298796     0.042202444   -0.68806619    -0.00035864384
   3673000   0.05154378    -0.81416857     0.042468986   -0.69443379     0.010324485  
   3674000   0.05498797    -0.8138551      0.042998453   -0.68842791     0.0088625201 
   3675000   0.053858785   -0.81346722     0.042949139   -0.68978202     0.019153582  
   3676000   0.055749722   -0.81426519     0.042022095   -0.68867246     0.0092283887 
   3677000   0.05397484    -0.81218275     0.042069413   -0.68920331     0.015890502  
   3678000   0.053007017   -0.81207387     0.04352271    -0.68909193     0.0059571178 
   3679000   0.05365117    -0.81284146     0.041319257   -0.69109736     0.017969632  
   3680000   0.054038173   -0.81474983     0.042796079   -0.69094879     0.013212894  
   3681000   0.056132456   -0.81266598     0.041518662   -0.68700296     0.034146929  
   3682000   0.052440582   -0.81217332     0.042379002   -0.6911842      0.025198665  
   3683000   0.052457425   -0.81210477     0.0397106     -0.6937588      0.004845536  
   3684000   0.053591859   -0.81431956     0.041917409   -0.69206622     0.011858843  
   3685000   0.054968855   -0.81233315     0.040678634   -0.68925443     0.017496943  
   3686000   0.053670058   -0.81348199     0.040755429   -0.69227342     0.049038408  
   3687000   0.054165504   -0.81051992     0.042142281   -0.6871818      8.5507495e-05
   3688000   0.055228686   -0.81293548     0.043847178   -0.68629872    -0.00058784504
   3689000   0.053115035   -0.81305742     0.045414083   -0.68802218    -0.0014700818 
   3690000   0.055453386   -0.81391612     0.045443727   -0.68534598     0.016727198  
   3691000   0.056815002   -0.81216011     0.043664647   -0.68332794     0.029517028  
   3692000   0.0552487     -0.81068339     0.041473044   -0.68639076     0.0082985827 
   3693000   0.054914962   -0.81202082     0.042030127   -0.6876714      0.006487992  
   3694000   0.05352245    -0.81412637     0.041837864   -0.69205663     0.016412098  
   3695000   0.054979315   -0.8109702      0.039410885   -0.68914354     0.013679165  
   3696000   0.054791791   -0.8134276      0.042471021   -0.68882191     0.025186384  
   3697000   0.056543515   -0.81272185     0.045286617   -0.68267468     0.016843649  
   3698000   0.054540099   -0.81050685     0.042128814   -0.68662066     0.0052538086 
   3699000   0.055008551   -0.81277029     0.042695568   -0.68761513     0.034168634  
   3700000   0.054312654   -0.81064295     0.042907316   -0.68631921     0.027365803  
   3701000   0.054384571   -0.81416453     0.040764436   -0.69187587     0.006337898  
   3702000   0.054626842   -0.81227349     0.040454936   -0.68993115     0.001730725  
   3703000   0.053148503   -0.81362953     0.041888833   -0.69206937     0.015713851  
   3704000   0.053894671   -0.81263115     0.040603703   -0.6912376      0.030790299  
   3705000   0.055478453   -0.81316605     0.03997446    -0.6900276      0.0064633637 
   3706000   0.053350714   -0.81423041     0.041224424   -0.69303154     0.0020822562 
   3707000   0.052828211   -0.81120507     0.044584677   -0.6874292      0.012476922  
   3708000   0.055274888   -0.81333078     0.042689304   -0.68778264     0.006751583  
   3709000   0.054765857   -0.81346494     0.043241998   -0.68812715     0.017655999  
   3710000   0.053895181   -0.81517251     0.042337883   -0.69204401    -0.0012555619 
   3711000   0.052883112   -0.81198087     0.043578493   -0.68912888     0.017496773  
   3712000   0.056856564   -0.81050421     0.044655593   -0.6806188      0.02720529   
   3713000   0.054484854   -0.81189254     0.043804842   -0.68641315     0.0075676025 
   3714000   0.052290702   -0.81047185     0.041380498   -0.6907059      0.01001307   
   3715000   0.054158112   -0.81440725     0.04227819    -0.6909443      0.009276641  
   3716000   0.055139903   -0.81416664     0.040518877   -0.69099126     0.0074380389 
   3717000   0.054699903   -0.81183495     0.040491974   -0.68934606     0.031175906  
   3718000   0.052979523   -0.8124081      0.042092227   -0.69089786     0.011930242  
   3719000   0.053950702   -0.81229162     0.039035128   -0.69238265     0.028537036  
   3720000   0.055079096   -0.81255842     0.042553778   -0.6874393      0.028291303  
   3721000   0.055703481   -0.81420844     0.041968311   -0.68873881     0.028534518  
   3722000   0.055492531   -0.81234075     0.04518081    -0.68397484     0.031766469  
   3723000   0.054590765   -0.81134984     0.043953845   -0.68556267     0.0085843082 
   3724000   0.054246072   -0.81349771     0.04053099    -0.69165011     0.0040202794 
   3725000   0.052889933   -0.81393293     0.043844423   -0.69080479     0.011729807  
   3726000   0.053677116   -0.81314734     0.041598408   -0.6910852      0.032435425  
   3727000   0.054287308   -0.81174536     0.043141415   -0.68722552     0.039035419  
   3728000   0.052883389   -0.81421291     0.041782589   -0.69315641     0.034019289  
   3729000   0.055369984   -0.8118119      0.040115289   -0.68869522     0.027519179  
   3730000   0.054452493   -0.81154776     0.044258169   -0.68566355     0.03787016   
   3731000   0.053913799   -0.81110345     0.044597543   -0.68568739     0.0025514527 
   3732000   0.055198297   -0.81246484     0.041575796   -0.68814502     0.01922607   
   3733000   0.05281311    -0.81182815     0.042190878   -0.69046872     0.029461862  
   3734000   0.053525381   -0.81195038     0.043672842   -0.68804127     0.031849938  
   3735000   0.053616948   -0.8129294      0.040585726   -0.69197014     0.027197998  
   3736000   0.056231796   -0.81537981     0.041540981   -0.68954555     0.015418476  
   3737000   0.054437994   -0.81384932     0.042901322   -0.68934369     0.0031165938 
   3738000   0.05378471    -0.81052016     0.041118595   -0.68877655     0.016248597  
   3739000   0.052804975   -0.81204014     0.044275835   -0.68860794     0.036150841  
   3740000   0.054241557   -0.814434       0.043388287   -0.68973587     0.014276166  
   3741000   0.056022296   -0.81362196     0.042042398   -0.68760034     0.025575283  
   3742000   0.053890761   -0.81412468     0.044270183   -0.68907051     0.021173583  
   3743000   0.055001385   -0.81529516     0.041916444   -0.69092986     0.029100879  
   3744000   0.055211915   -0.81316547     0.039986629   -0.6904144      0.013515817  
   3745000   0.055189391   -0.81332182     0.041037437   -0.68955371     0.0090406487 
   3746000   0.053993792   -0.81510199     0.041545982   -0.69261757     0.0047840664 
   3747000   0.051661261   -0.8137114      0.042710238   -0.69355926     0.010930308  
   3748000   0.051993925   -0.81443331     0.042331915   -0.69416082     0.01760935   
   3749000   0.05391655    -0.81552038     0.041341486   -0.69335624    -0.00013223963
   3750000   0.053044464   -0.81413073     0.042628261   -0.6919871      6.266988e-05 
   3751000   0.051437125   -0.813215       0.040325745   -0.69578334     0.0082086416 
   3752000   0.052967125   -0.81512665     0.040814972   -0.69491225     0.0045575775 
   3753000   0.052449656   -0.81605844     0.040091752   -0.69734296    -0.00021774371
   3754000   0.053603465   -0.81419295     0.042367402   -0.69147223     0.0091407784 
   3755000   0.054625137   -0.81495725     0.043004814   -0.69006759     0.0051852124 
   3756000   0.055758555   -0.81505371     0.042415538   -0.68905429     0.0014525425 
   3757000   0.055088588   -0.81343471     0.042448531   -0.68840661     0.012350166  
   3758000   0.054907533   -0.81243121     0.044380932   -0.68574211     0.0081871444 
   3759000   0.05585298    -0.81457166     0.041641877   -0.68920436     0.0084401601 
   3760000   0.054117345   -0.81496157     0.041560477   -0.69227745     0.017245299  
   3761000   0.054534946   -0.81581196     0.041075155   -0.69298717     0.011356899  
   3762000   0.054337658   -0.81044514     0.042498884   -0.68649236     0.0044501586 
   3763000   0.054437752   -0.81514517     0.042499124   -0.6910421      0.015111705  
   3764000   0.054385347   -0.81154423     0.038953988   -0.69106486     0.0175158    
   3765000   0.054776305   -0.81368965     0.040707295   -0.6908709      0.030410192  
   3766000   0.054041946   -0.81292982     0.043748163   -0.68817104     0.002105135  
   3767000   0.053904272   -0.81329506     0.042453585   -0.69003723     0.011768156  
   3768000   0.053550501   -0.81701079     0.041827513   -0.69490935     0.040932576  
   3769000   0.056842121   -0.81326346     0.042068657   -0.68598663     0.018484038  
   3770000   0.053110177   -0.8162146      0.044633386   -0.69196735    -0.010726341  
   3771000   0.054459578   -0.81356252     0.043028131   -0.68889772    -0.0038051855 
   3772000   0.053420684   -0.81378307     0.044594394   -0.68910935    -0.0029731351 
   3773000   0.056189781   -0.81556208     0.043054122   -0.68827767     0.022556284  
   3774000   0.056390084   -0.81554256     0.04485621    -0.6861558      0.0036485245 
   3775000   0.055727862   -0.81394834     0.041499482   -0.68891099     0.018405322  
   3776000   0.053029876   -0.81263754     0.041983668   -0.69116038     0.016451741  
   3777000   0.054024688   -0.81391039     0.042905752   -0.69001989     0.025796888  
   3778000   0.055262232   -0.81476313     0.042823189   -0.68910007     0.018166536  
   3779000   0.054522901   -0.81424153     0.042303608   -0.69020633     0.0081133932 
   3780000   0.053621331   -0.81317869     0.043066565   -0.68973202     0.00010669662
   3781000   0.052933717   -0.81536159     0.044642207   -0.69137003    -0.00755105   
   3782000   0.053310871   -0.81437421     0.044374721   -0.69008477    -0.0015115191 
   3783000   0.053005951   -0.81519435     0.042028782   -0.69370794     0.0010947211 
   3784000   0.054704035   -0.81424567     0.040709584   -0.69153298     0.0077727139 
   3785000   0.054740225   -0.81322603     0.04157161    -0.68959706     0.012256044  
   3786000   0.05402634    -0.81394806     0.04404683    -0.688914       0.021430606  
   3787000   0.054068822   -0.81277945     0.041604695   -0.69012385     0.010387017  
   3788000   0.053683221   -0.81654035     0.043199204   -0.69286827     0.016392157  
   3789000   0.052542738   -0.81468582     0.042229342   -0.69369322     0.011679337  
   3790000   0.053668668   -0.81392436     0.043368001   -0.6901053      0.019246126  
   3791000   0.054592458   -0.81562701     0.042242873   -0.69154828     0.0067279988 
   3792000   0.053670184   -0.81619762     0.040446111   -0.69529817     0.0010065828 
   3793000   0.055381739   -0.81406691     0.042215345   -0.68883255     0.0068605663 
   3794000   0.052086964   -0.81280387     0.042548813   -0.69217501     0.0010268724 
   3795000   0.05171123    -0.81429677     0.043025653   -0.69375432     0.0067815035 
   3796000   0.053111577   -0.81291592     0.043547539   -0.68975242     0.0003523011 
   3797000   0.054087835   -0.8167292      0.044131968   -0.69151782     0.029001181  
   3798000   0.053691031   -0.81375866     0.044061217   -0.68921286     0.011488492  
   3799000   0.055759131   -0.81424093     0.042760722   -0.68789547     0.017398029  
   3800000   0.054803454   -0.81099477     0.043121277   -0.68572135     0.018471319  
   3801000   0.054432011   -0.81462168     0.042271793   -0.69075455     0.0081312234 
   3802000   0.054304393   -0.81220349     0.043760727   -0.68703872     0.0048519511 
   3803000   0.055204517   -0.81245347     0.042568227   -0.6871319      0.012788533  
   3804000   0.054899995   -0.81469984     0.040914138   -0.69148884    -0.0071990067 
   3805000   0.05237276    -0.81487943     0.042489937   -0.69388103     0.024035706  
   3806000   0.05469673    -0.81467755     0.042755333   -0.68993005     0.010585662  
   3807000   0.054553351   -0.81611325     0.042752317   -0.6915837     -0.0023295583 
   3808000   0.05476338    -0.81538955     0.042675148   -0.69062233     0.012176737  
   3809000   0.05377445    -0.81268568     0.043509902   -0.68856614     0.025601587  
   3810000   0.05404787    -0.81272432     0.042072781   -0.68963203     0.024603965  
   3811000   0.055442707   -0.81612872     0.042441787   -0.69057653     0.0062361767 
   3812000   0.056828884   -0.81611566     0.04302146    -0.68790587     0.0040775158 
   3813000   0.054218579   -0.81502913     0.043642436   -0.69011129     0.0049194546 
   3814000   0.0548412     -0.81257548     0.043718703   -0.68664805     0.028126998  
   3815000   0.054279849   -0.81566921     0.04413421    -0.69016775     0.0084510356 
   3816000   0.055297525   -0.81399333     0.040075624   -0.69102494     0.019227195  
   3817000   0.05426773    -0.8127367      0.042325961   -0.68906166     0.0096792339 
   3818000   0.054298441   -0.81468379     0.043521585   -0.68976709     0.0098210327 
   3819000   0.053344928   -0.8167394      0.044128048   -0.69264558     0.0089025953 
   3820000   0.056199648   -0.81455487     0.043510494   -0.68679929     0.011337503  
   3821000   0.055057266   -0.81455434     0.043239476   -0.68878224     0.00099176805
   3822000   0.052419189   -0.81214243     0.042982643   -0.69058173     0.011174693  
   3823000   0.055717323   -0.81518142     0.041582005   -0.69007735     0.014135957  
   3824000   0.052452138   -0.81463327     0.04140215    -0.69460368     0.013839345  
   3825000   0.052834497   -0.81269347     0.042539173   -0.69095368     0.018732015  
   3826000   0.056042562   -0.81624605     0.043115256   -0.68912119    -0.007234224  
   3827000   0.053783741   -0.81465475     0.043421174   -0.69061001     0.024374061  
   3828000   0.053515475   -0.81554615     0.043429704   -0.69189502     0.0049221912 
   3829000   0.053428769   -0.81502692     0.042197276   -0.6927382      0.0073916061 
   3830000   0.053905814   -0.81453374     0.041482052   -0.69224514     0.012657605  
   3831000   0.055137459   -0.81667083     0.043500829   -0.69051717     0.011256034  
   3832000   0.054091173   -0.81469864     0.044237001   -0.68937722     0.012833609  
   3833000   0.053250386   -0.81534064     0.042874079   -0.69264252    -0.010755951  
   3834000   0.054472046   -0.81522963     0.041042262   -0.69253202     0.020929463  
   3835000   0.05518627    -0.8145414      0.042858846   -0.68895655    -0.011800122  
   3836000   0.055198968   -0.81304104     0.041538716   -0.68875729     0.0092532122 
   3837000   0.054157611   -0.81418816     0.041715056   -0.6912891      0.017959303  
   3838000   0.054950567   -0.81573235     0.044828513   -0.68853117     0.0023015502 
   3839000   0.053268622   -0.81405149     0.043123853   -0.69107625     0.0045696874 
   3840000   0.054465767   -0.81290231     0.041149636   -0.69010673     0.0066597997 
   3841000   0.055006089   -0.81479657     0.04119848    -0.69114218    -0.010013856  
   3842000   0.056802988   -0.81376554     0.042840218   -0.68577581     0.016696001  
   3843000   0.056394072   -0.81404058     0.044020978   -0.68548307     0.010652333  
   3844000   0.056972204   -0.81322423     0.043679491   -0.68414157    -0.013534096  
   3845000   0.055860439   -0.8121202      0.042242784   -0.68614082    -0.0057536347 
   3846000   0.05475455    -0.81350762     0.0421898     -0.68923898     0.010558772  
   3847000   0.05414847    -0.81455388     0.043377455   -0.69000612     0.010963322  
   3848000   0.052691259   -0.81346607     0.043972441   -0.69050773    -0.0082967456 
   3849000   0.054314402   -0.81412019     0.043979788   -0.68872136    -0.0071109278 
   3850000   0.052881525   -0.81436704     0.043132514   -0.69196342    -0.0087508524 
   3851000   0.050858885   -0.81198389     0.042309814   -0.69343496     0.0040476262 
   3852000   0.053559875   -0.81277077     0.04305761    -0.68942518     0.0083221457 
   3853000   0.054241642   -0.81422479     0.04221709    -0.69069773    -0.0035082371 
   3854000   0.053545986   -0.81407157     0.043771521   -0.69003289    -0.0041020134 
   3855000   0.05247456    -0.81490601     0.039460987   -0.69678396     6.881768e-05 
   3856000   0.053961742   -0.81493332     0.043204608   -0.69083832     0.0065237481 
   3857000   0.053834629   -0.81440381     0.044834521   -0.68886945    -0.0065158702 
   3858000   0.055584355   -0.81390005     0.040032349   -0.69054496     0.0045114715 
   3859000   0.056242464   -0.8154606      0.040856997   -0.69029433    -0.0031042903 
   3860000   0.055353373   -0.81574268     0.043397077   -0.68936911    -0.0055652896 
   3861000   0.054809638   -0.81190881     0.041517705   -0.68822969     0.012979236  
   3862000   0.053593036   -0.81342665     0.043781208   -0.68930775     0.0067147432 
   3863000   0.055769911   -0.81450217     0.046090321   -0.68481096     0.0085438481 
   3864000   0.055987154   -0.81302746     0.044131251   -0.68496966     0.014303679  
   3865000   0.056804287   -0.8130316      0.042310869   -0.68556927     0.009752667  
   3866000   0.054816826   -0.8146893      0.042038734   -0.69047838     0.020860302  
   3867000   0.055221018   -0.8149125      0.04106617    -0.69106824     0.0082955978 
   3868000   0.054445596   -0.81469632     0.043056903   -0.69002371    -0.0041812877 
   3869000   0.054105894   -0.81519782     0.04308515    -0.69100619    -0.0053316963 
   3870000   0.054813476   -0.8146617      0.043453191   -0.68904134     0.019781752  
   3871000   0.054047655   -0.81551965     0.042734405   -0.69176606     0.0050154377 
   3872000   0.05427121    -0.81160921     0.043970055   -0.68628486     0.0087007391 
   3873000   0.054204814   -0.81410958     0.043611569   -0.68924325     0.015494232  
   3874000   0.054018069   -0.8144578      0.043301784   -0.69018119     0.0052751118 
   3875000   0.053825213   -0.81425466     0.041906948   -0.69166198     0.014484636  
   3876000   0.054144941   -0.81450011     0.043225369   -0.69010973    -0.0017098349 
   3877000   0.05525724    -0.81597504     0.040126105   -0.69301655     0.0097194465 
   3878000   0.055205575   -0.81288146     0.040785786   -0.68934073    -0.0058818975 
   3879000   0.055366126   -0.81517478     0.040735349   -0.69144382     0.011590866  
   3880000   0.055352262   -0.81425593     0.042057445   -0.68922366     0.0004850216 
   3881000   0.053000608   -0.81595126     0.043030026   -0.69347162     0.0083829197 
   3882000   0.056222845   -0.81473838     0.040933701   -0.68952482     0.015183148  
   3883000   0.053697011   -0.81438442     0.042507195   -0.69138368     0.0057400254 
   3884000   0.05418767    -0.81404049     0.041268269   -0.69154315     0.0053071048 
   3885000   0.054320798   -0.81533634     0.042388358   -0.69151936    -0.0094325929 
   3886000   0.055000282   -0.81327648     0.041015747   -0.68981354     0.026350422  
   3887000   0.054679394   -0.81503226     0.042922151   -0.69014393    -0.0035251131 
   3888000   0.055592055   -0.81531356     0.044236776   -0.6877425     -0.0043489294 
   3889000   0.053794377   -0.81569278     0.043123611   -0.69192967     0.0043150902 
   3890000   0.055723605   -0.8140884      0.043006871   -0.68755004     0.0025914758 
   3891000   0.056085704   -0.81325601     0.044817392   -0.68436434     0.0048687323 
   3892000   0.055249445   -0.8137765      0.042371397   -0.6885844     -0.0065069899 
   3893000   0.054418981   -0.81449557     0.043888667   -0.68903109    -0.0033661283 
   3894000   0.054093024   -0.81574991     0.042423554   -0.69223917     0.0041101325 
   3895000   0.056340614   -0.81461966     0.04223797    -0.68792529     0.014884189  
   3896000   0.055156981   -0.81578389     0.04377546    -0.68932634    -9.0476528e-05
   3897000   0.054806595   -0.81262794     0.042814465   -0.68765662     0.0038820586 
   3898000   0.054552083   -0.81360162     0.042235071   -0.68959121     0.017946659  
   3899000   0.05398199    -0.81430816     0.044112604   -0.68927481    -0.0040922443 
   3900000   0.054340633   -0.81678381     0.042657497   -0.69266795    -0.013268996  
   3901000   0.055343521   -0.81446404     0.044213923   -0.6872884      0.0051515687 
   3902000   0.056668511   -0.81347221     0.042041653   -0.68648264    -0.00049474448
   3903000   0.053491665   -0.81347348     0.041835313   -0.69145243     0.0027480253 
   3904000   0.053610462   -0.81562182     0.042049424   -0.69320858    -0.0086907225 
   3905000   0.05428262    -0.81364748     0.043730122   -0.68854596    -0.0070813031 
   3906000   0.056206432   -0.81565179     0.044089301   -0.68730723    -0.00080245556
   3907000   0.054730343   -0.81458496     0.04496981    -0.6875726     -0.0076043246 
   3908000   0.054138896   -0.81217993     0.041369718   -0.68965426    -0.0035787393 
   3909000   0.056102111   -0.81384443     0.042048847   -0.68769671    -0.00063418463
   3910000   0.055539781   -0.8130714      0.043913947   -0.68590153     0.0035741813 
   3911000   0.055958792   -0.8134358      0.043009447   -0.68654232     0.0053179246 
   3912000   0.054567174   -0.81570143     0.044354227   -0.68954925    -0.0082930063 
   3913000   0.054904327   -0.81395198     0.04105606    -0.69059257     0.00677428   
   3914000   0.055522119   -0.81520659     0.043570328   -0.68840682    -0.0038697391 
   3915000   0.053982397   -0.81407982     0.042619783   -0.69053869     0.0043348    
   3916000   0.051834636   -0.81531744     0.041423022   -0.69619263     0.0013788994 
   3917000   0.053231591   -0.81354771     0.042310058   -0.69144178    -0.003190917  
   3918000   0.053136621   -0.81453717     0.039005521   -0.69587814     0.0051567218 
   3919000   0.053741321   -0.81462463     0.03854259    -0.69552207    -0.0054022118 
   3920000   0.054198843   -0.81533625     0.04399996    -0.69009048     0.0034266334 
   3921000   0.05516823    -0.81447967     0.043435238   -0.68834548    -0.0023493854 
   3922000   0.055315953   -0.8151452      0.043499524   -0.68872528    -0.016409025  
   3923000   0.053266142   -0.81463545     0.044238449   -0.69054934    -0.018787284  
   3924000   0.055239078   -0.81489729     0.042269696   -0.68982243    -0.0092788884 
   3925000   0.05514641    -0.81371939     0.042149287   -0.68890385     0.024474942  
   3926000   0.053951665   -0.81231201     0.045753369   -0.68568335     0.011942754  
   3927000   0.053352811   -0.81447508     0.042709441   -0.69178805    -0.0061768538 
   3928000   0.053722465   -0.81407951     0.043826847   -0.68972095    -0.0020483    
   3929000   0.054221086   -0.81535066     0.044374173   -0.68969734     0.015847495  
   3930000   0.053378867   -0.81217881     0.042839798   -0.68932236     0.0060189042 
   3931000   0.053632288   -0.81479902     0.04298424    -0.69141825    -0.0042915606 
   3932000   0.052810384   -0.81265924     0.04087557    -0.6926192      0.014108281  
   3933000   0.054186807   -0.81432546     0.042588065   -0.69050962     0.0036558289 
   3934000   0.054001347   -0.81344465     0.042275175   -0.69021971     0.0066577231 
   3935000   0.054857569   -0.81613258     0.043596916   -0.6903024      0.0060386029 
   3936000   0.055908369   -0.81405266     0.040883619   -0.68936059    -1.0774868e-05
   3937000   0.052658457   -0.81361677     0.042245683   -0.69243436     0.0045289393 
   3938000   0.052598044   -0.81653811     0.041803052   -0.69588889     0.0022254338 
   3939000   0.053566946   -0.8135068      0.042670788   -0.69053743    -0.004840197  
   3940000   0.055256388   -0.81365699     0.041676531   -0.68914935     0.0041759594 
   3941000   0.055254162   -0.81354761     0.043599235   -0.68712061    -0.015608672  
   3942000   0.05429436    -0.81308037     0.042145165   -0.68954621     0.0075606651 
   3943000   0.055840739   -0.8148048      0.042041818   -0.68905591     0.0079303954 
   3944000   0.054559474   -0.81558071     0.043108995   -0.69068531     0.0049947169 
   3945000   0.054096243   -0.81527513     0.044044616   -0.6901385     -0.0095555486 
   3946000   0.053494012   -0.81433818     0.043995107   -0.69015382     0.0036353309 
   3947000   0.055218685   -0.81491866     0.042412089   -0.68973198     0.0024459338 
   3948000   0.055810076   -0.81565209     0.043289529   -0.68870146     0.0051148519 
   3949000   0.055131055   -0.81481563     0.043228537   -0.68894386     0.0034280725 
   3950000   0.054187619   -0.81377967     0.041673665   -0.69087701     0.0058222634 
   3951000   0.056455094   -0.81164842     0.042813472   -0.68420694     0.0098577376 
   3952000   0.054718308   -0.81554868     0.042329937   -0.69119424     0.020795674  
   3953000   0.054002949   -0.81393497     0.043452417   -0.68953039     0.0084531248 
   3954000   0.055831172   -0.81555957     0.042295557   -0.68957129     0.0082526129 
   3955000   0.054132177   -0.81395527     0.043118752   -0.68969064     0.00039061791
   3956000   0.056050083   -0.81422652     0.043910091   -0.68629555     0.018465563  
   3957000   0.054576681   -0.81447778     0.042384448   -0.69028112     0.026131792  
   3958000   0.054169156   -0.81493332     0.043158347   -0.69057366     0.010234303  
   3959000   0.056912687   -0.81444872     0.041665751   -0.68746901     0.02045197   
   3960000   0.055184993   -0.81509171     0.043823165   -0.68854446     0.0060205984 
   3961000   0.05401905    -0.81547044     0.04272384    -0.6917703      0.013606492  
   3962000   0.055249542   -0.81535634     0.041025652   -0.69150984     0.022767246  
   3963000   0.052556464   -0.81565529     0.044322182   -0.69254928     0.0051485176 
   3964000   0.053035746   -0.81347529     0.043078558   -0.69089444     0.0046548893 
   3965000   0.053966714   -0.81378331     0.043580655   -0.68930481     0.00051834947
   3966000   0.05422607    -0.81619369     0.043621266   -0.6912858      0.0027819942 
   3967000   0.053210699   -0.81595246     0.043653445   -0.69253446     0.015952006  
   3968000   0.055077275   -0.81704474     0.042486905   -0.69199522     0.015268873  
   3969000   0.053944545   -0.81676855     0.044273701   -0.69163024     0.01975597   
   3970000   0.054946903   -0.8133371      0.045346572   -0.68562335     0.035462379  
   3971000   0.055304311   -0.81437819     0.044908353   -0.6865669     -0.00085261642
   3972000   0.05517712    -0.81649236     0.043825206   -0.68995487     0.0031660338 
   3973000   0.053675887   -0.81523483     0.043120113   -0.69165284     0.011242072  
   3974000   0.053076627   -0.81704521     0.043492544   -0.69398909     0.0014696782 
   3975000   0.053523007   -0.81588929     0.042808713   -0.69284786     0.018520395  
   3976000   0.054217879   -0.81480256     0.043216689   -0.69031152    -0.0017400002 
   3977000   0.053817178   -0.81391363     0.041689022   -0.69155092    -0.0067343605 
   3978000   0.055990615   -0.81483235     0.044809193   -0.68609141     0.012572218  
   3979000   0.054474467   -0.81468371     0.042127472   -0.69089726     0.0031508734 
   3980000   0.055512703   -0.81525215     0.042078266   -0.68995855     0.0049457658 
   3981000   0.055669302   -0.81442027     0.041812996   -0.68915719     0.021078863  
   3982000   0.054702872   -0.81499575     0.042081176   -0.6909132      0.017303694  
   3983000   0.054375922   -0.81591664     0.04522962    -0.68917575     0.0020762257 
   3984000   0.055866419   -0.81437892     0.041137048   -0.6894963     -0.0060915772 
   3985000   0.053903576   -0.81617244     0.042604834   -0.69276441    -0.0003506502 
   3986000   0.056283444   -0.81229706     0.040843402   -0.68708296     0.0051987285 
   3987000   0.055601954   -0.81603708     0.042717494   -0.68997046     0.007808099  
   3988000   0.055037774   -0.81376914     0.043690041   -0.6875757      0.00079260343
   3989000   0.054023036   -0.81520287     0.041542949   -0.69267765    -0.019251735  
   3990000   0.055309115   -0.81459101     0.04313239    -0.68854847     0.0051741163 
   3991000   0.053819869   -0.81514088     0.044376041   -0.69008712    -0.0062974781 
   3992000   0.055778421   -0.81528558     0.042157502   -0.68951442     0.018002628  
   3993000   0.053758598   -0.81663892     0.043207205   -0.69284584    -0.0015968236 
   3994000   0.055010334   -0.81513493     0.040381644   -0.69229102    -0.0028924937 
   3995000   0.055484061   -0.81514932     0.042288414   -0.68968851     0.015994412  
   3996000   0.055045035   -0.81076332     0.046712854   -0.68153618    -0.007608924  
   3997000   0.055344019   -0.81540474     0.042851186   -0.68959109     0.012862627  
   3998000   0.053664212   -0.8134327      0.042375373   -0.69061294     0.0072991718 
   3999000   0.055167343   -0.81695726     0.041807939   -0.69245169    -0.00034547022
   4000000   0.053428241   -0.81470588     0.043992027   -0.69062319     0.011270599  
   4001000   0.052319052   -0.81613097     0.043069603   -0.69463342    -0.012525808  
   4002000   0.055596202   -0.8155944      0.041850937   -0.69040296     0.034775068  
   4003000   0.055892668   -0.81569627     0.042266279   -0.68964508     0.01251984   
   4004000   0.054369507   -0.8130602      0.040817645   -0.69074091     0.017875129  
   4005000   0.056250852   -0.8148694      0.041877372   -0.68867019     0.014537029  
   4006000   0.057000289   -0.81531981     0.044647998   -0.68522654     0.0021208334 
   4007000   0.056421887   -0.81716057     0.044254372   -0.68832797    -0.012494865  
   4008000   0.055944362   -0.81509333     0.041144341   -0.69008659     0.01061398   
   4009000   0.053812885   -0.81379551     0.043229148   -0.68989911     0.014089519  
   4010000   0.055733993   -0.81411264     0.040528397   -0.69003719    -0.0024313901 
   4011000   0.053371644   -0.81508685     0.040985653   -0.69409538     0.023277099  
   4012000   0.053711843   -0.813541       0.043110711   -0.6899145      0.015839434  
   4013000   0.053604881   -0.81365256     0.043569281   -0.68972783    -0.01088115   
   4014000   0.052478679   -0.81680407     0.040125249   -0.69801159     0.0018501909 
   4015000   0.05395349    -0.8157297      0.040625229   -0.69422645     0.014835395  
   4016000   0.053888365   -0.81581395     0.040931585   -0.69410197     0.019452208  
   4017000   0.054215549   -0.81425858     0.039840262   -0.69314747     0.0057027982 
   4018000   0.053319623   -0.81680975     0.040930393   -0.69595153     0.0084910791 
   4019000   0.054214079   -0.81397398     0.043072504   -0.68963282     0.027985206  
   4020000   0.055697316   -0.81664104     0.044021284   -0.68912768     0.0032114665 
   4021000   0.054021325   -0.81537906     0.042447786   -0.69195156     0.001623022  
   4022000   0.054701187   -0.81641331     0.04431866    -0.6900958      0.0064266711 
   4023000   0.054944554   -0.8134486      0.040742647   -0.69034229     0.010933174  
   4024000   0.05554631    -0.81467623     0.039561977   -0.69184854    -0.0084972099 
   4025000   0.05482742    -0.81469516     0.041274193   -0.6912329      0.010230495  
   4026000   0.056627728   -0.81605475     0.043471853   -0.68769611    -0.0045916857 
   4027000   0.055253882   -0.81485126     0.043971176   -0.68805273     0.0064094891 
   4028000   0.055789726   -0.81413986     0.04508696    -0.6854223      0.0092924874 
   4029000   0.055724905   -0.81521287     0.043396511   -0.68828292    -0.00056869966
   4030000   0.053665284   -0.81603132     0.042429177   -0.69315615    -0.0060295816 
   4031000   0.05306059    -0.81463357     0.042652259   -0.69244178     0.0062386229 
   4032000   0.054205137   -0.81766152     0.04363134    -0.69277493    -0.0098690933 
   4033000   0.056115324   -0.81437881     0.042191402   -0.68806873     0.010597668  
   4034000   0.054557346   -0.8157403      0.044628659   -0.68932842     0.001430838  
   4035000   0.054262116   -0.81527189     0.044070905   -0.68986033     0.00441048   
   4036000   0.052955392   -0.81546813     0.041951309   -0.69413498     0.0021991577 
   4037000   0.054488145   -0.81383688     0.042084267   -0.69007312     0.0037131444 
   4038000   0.053087063   -0.81636466     0.043921281   -0.69286416     0.0023551592 
   4039000   0.05496354    -0.81616482     0.043440013   -0.69033269    -0.0057453793 
   4040000   0.054645043   -0.81522059     0.044896436   -0.68840948     0.014943006  
   4041000   0.054019463   -0.81497403     0.043293628   -0.69070348     0.011453392  
   4042000   0.053674621   -0.81582407     0.041993176   -0.69337091    -0.0015496968 
   4043000   0.052611274   -0.81695078     0.04264716    -0.69543762     0.0032347769 
   4044000   0.053486977   -0.81545099     0.043460944   -0.69181134     0.020413034  
   4045000   0.055434845   -0.81552422     0.041832058   -0.69059354     0.002751783  
   4046000   0.052785597   -0.81596131     0.043041866   -0.69379213     0.00018950734
   4047000   0.053115749   -0.81233576     0.042440688   -0.69027285     0.0091784464 
   4048000   0.054554107   -0.81478524     0.042389139   -0.69061774     0.017217836  
   4049000   0.052835942   -0.81571024     0.043133462   -0.693374       0.014748457  
   4050000   0.053784109   -0.8155846      0.040127303   -0.69483318     0.002622097  
   4051000   0.053390605   -0.81596521     0.044113864   -0.6918171      0.0075834631 
   4052000   0.052276442   -0.81456966     0.040832252   -0.69537333    -0.020244314  
   4053000   0.055988114   -0.81439828     0.042182538   -0.68828775    -0.0026056141 
   4054000   0.055072672   -0.81493441     0.04114061    -0.69123809     0.0065811858 
   4055000   0.055271802   -0.81509585     0.044406581   -0.68783505    -0.008524198  
   4056000   0.054186924   -0.81475924     0.044352131   -0.68917916     0.0065428439 
   4057000   0.056563041   -0.81449481     0.042466615   -0.68723837     0.015526979  
   4058000   0.055436171   -0.81397984     0.04284477    -0.68803446     0.0078851604 
   4059000   0.055818182   -0.81415404     0.043904651   -0.68657613     0.0079139358 
   4060000   0.055631463   -0.81343794     0.042214892   -0.68782969     0.0025072813 
   4061000   0.053505638   -0.8153321      0.043106555   -0.69201887    -0.0068800281 
   4062000   0.051944161   -0.81352397     0.042659364   -0.69299863    -0.00049720711
   4063000   0.053903705   -0.81314988     0.040626549   -0.69171994    -0.0057997848 
   4064000   0.054536706   -0.81602031     0.043255265   -0.69101276     0.0082989325 
   4065000   0.054428338   -0.81396135     0.042320831   -0.69005068    -0.0008631907 
   4066000   0.053486171   -0.81388316     0.041903436   -0.69180223     0.0080181476 
   4067000   0.053000361   -0.81789831     0.039787657   -0.6986614      0.0075760567 
   4068000   0.054028337   -0.81495337     0.043698468   -0.69026468     0.0138048    
   4069000   0.052692476   -0.8166096      0.042313058   -0.69530882    -0.0089133921 
   4070000   0.053747488   -0.81353537     0.042084473   -0.69088167     0.0051792457 
   4071000   0.054224685   -0.81590933     0.042389133   -0.69223564     0.0054015354 
   4072000   0.054805418   -0.81532189     0.043462621   -0.68970418     0.015818185  
   4073000   0.055194425   -0.81549458     0.043151021   -0.68960533     0.008392762  
   4074000   0.054577796   -0.8145655      0.040779226   -0.6919724      0.011006358  
   4075000   0.053150907   -0.81326464     0.04453126    -0.68905845    -0.0045006648 
   4076000   0.055486007   -0.81424145     0.04139144    -0.68967469     0.01018149   
   4077000   0.053325956   -0.81502321     0.044996259   -0.69008962     0.0096409751 
   4078000   0.053908779   -0.81316536     0.042951713   -0.68940265     0.013914344  
   4079000   0.054554149   -0.81412963     0.041431756   -0.69091944     0.023262263  
   4080000   0.054153584   -0.81386402     0.042568037   -0.69011801     0.031894393  
   4081000   0.054744345   -0.81398861     0.04348955    -0.68843552     0.0265604    
   4082000   0.053729752   -0.81382087     0.04257965    -0.69069859     0.032083452  
   4083000   0.053576261   -0.81679534     0.043936913   -0.69254589     0.01170639   
   4084000   0.052955509   -0.81528708     0.043339601   -0.69256547     0.030615429  
   4085000   0.05345378    -0.81505225     0.041199707   -0.6937236      0.023959421  
   4086000   0.053250201   -0.81450133     0.04361695    -0.69106061     0.0088725086 
   4087000   0.054569682   -0.8157345      0.043214808   -0.69071798     0.010634159  
   4088000   0.056179097   -0.81593965     0.044110177   -0.6876152     -0.0042553929 
   4089000   0.054893836   -0.81562389     0.043692715   -0.68964354    -0.011449644  
   4090000   0.054670471   -0.81341683     0.042443323   -0.68902071     0.0038190163 
   4091000   0.053386515   -0.81666908     0.042562446   -0.69407852     0.014832344  
   4092000   0.055115271   -0.81554185     0.042187552   -0.69073473    -0.0080496427 
   4093000   0.056312216   -0.81519705     0.041326189   -0.68945704     0.00672423   
   4094000   0.057545018   -0.81562937     0.042382823   -0.68698471     0.0056697151 
   4095000   0.055318926   -0.81577322     0.042494689   -0.69035367     0.0040252128 
   4096000   0.054316313   -0.81308881     0.044193      -0.6874739      0.01662045   
   4097000   0.056000626   -0.8122061      0.042669523   -0.68558983     0.022165478  
   4098000   0.055695064   -0.81419831     0.042762323   -0.68794729     0.021288837  
   4099000   0.055068411   -0.81448599     0.042549446   -0.68938722     0.015681106  
   4100000   0.055127585   -0.81538698     0.040986178   -0.69176278     0.00026165237
   4101000   0.056898862   -0.81539001     0.042876846   -0.68721993     0.018437334  
   4102000   0.053518119   -0.81411722     0.040017292   -0.69387454     0.013751042  
   4103000   0.053510619   -0.81764599     0.04250429    -0.69492755     0.00054770624
   4104000   0.05406413    -0.81595755     0.040145384   -0.69476829     0.023312036  
   4105000   0.054577837   -0.81461447     0.041223238   -0.6915773      0.022975032  
   4106000   0.052844454   -0.81361371     0.043466101   -0.69093207     0.026140666  
   4107000   0.053531975   -0.81628277     0.039962508   -0.69607411     0.0077361171 
   4108000   0.053922692   -0.81609821     0.042797608   -0.69246874     0.016710946  
   4109000   0.05287077    -0.8154495      0.041987184   -0.69420732     0.022328968  
   4110000   0.052347406   -0.8149311      0.041786898   -0.69467375     0.017905151  
   4111000   0.053706533   -0.81393982     0.04321061    -0.69022138     0.015735333  
   4112000   0.055215697   -0.81510294     0.042041047   -0.69029178     0.0098399626 
   4113000   0.056892596   -0.81581311     0.04371019    -0.68681908     0.012931884  
   4114000   0.055464587   -0.81542169     0.042033368   -0.69024512     0.01297175   
   4115000   0.054611074   -0.81600047     0.041884704   -0.69225201     0.0087410807 
   4116000   0.053276727   -0.81506212     0.04125564    -0.69394295     0.01824901   
   4117000   0.054442531   -0.81628801     0.041806653   -0.69287024     0.015418759  
   4118000   0.054972476   -0.81363645     0.043026645   -0.68820429     0.02174232   
   4119000   0.054613139   -0.81673902     0.041151475   -0.69372068     0.02724531   
   4120000   0.053530226   -0.81498298     0.040887773   -0.69385167     0.02432431   
   4121000   0.053920459   -0.81324279     0.042356168   -0.69005812     0.014468193  
   4122000   0.056118318   -0.8155311      0.039697598   -0.69171033     0.014733888  
   4123000   0.052955225   -0.81493511     0.043961782   -0.69159174     0.011783431  
   4124000   0.054311644   -0.81458248     0.040943374   -0.6922242      0.0043319834 
   4125000   0.056147085   -0.81378389     0.043199507   -0.68641809    -0.0059320241 
   4126000   0.056021705   -0.81652916     0.043407448   -0.68914337    -0.0054368709 
   4127000   0.054454145   -0.81511763     0.04306533    -0.69042378     5.6590674e-06
   4128000   0.054470872   -0.81525114     0.043064197   -0.69053335     0.030337651  
   4129000   0.053771339   -0.81508081     0.044382586   -0.69009325     0.0079939001 
   4130000   0.055092206   -0.81667365     0.042165527   -0.69192313     0.0067939201 
   4131000   0.05483173    -0.8136483      0.042277566   -0.68917621     0.0092816031 
   4132000   0.05511798    -0.81776026     0.041765424   -0.69337121    -0.0031896705 
   4133000   0.056020591   -0.81557561     0.041242076   -0.69035686     0.0078340514 
   4134000   0.053950718   -0.81612527     0.043643611   -0.69160779     0.018474247  
   4135000   0.056498776   -0.81620641     0.042002081   -0.68951084     0.010686766  
   4136000   0.057827198   -0.81523845     0.044134964   -0.68441865     0.020576078  
   4137000   0.055757419   -0.81438751     0.043473373   -0.68733196     0.036379768  
   4138000   0.054927615   -0.81582609     0.043970924   -0.6895169      0.0024217291 
   4139000   0.055367021   -0.81340872     0.044049205   -0.68636256     0.02365817   
   4140000   0.055177481   -0.81428997     0.044897839   -0.68667931     0.00867278   
   4141000   0.057520909   -0.81356429     0.042532644   -0.68480595     0.023899837  
   4142000   0.054106001   -0.81506875     0.044091013   -0.68987109    -0.0041862989 
   4143000   0.056863716   -0.81447921     0.041335413   -0.68790325     0.031302779  
   4144000   0.054821246   -0.81564741     0.042758657   -0.69070993     0.01385006   
   4145000   0.055455592   -0.81426872     0.040172526   -0.69096647     0.0075957095 
   4146000   0.05436802    -0.81448825     0.04162496    -0.69136387     0.032866143  
   4147000   0.054167219   -0.8158209      0.042855259   -0.69176723     0.026433177  
   4148000   0.053559464   -0.81323038     0.042918052   -0.69002497     0.025060434  
   4149000   0.057152783   -0.81753931     0.041434183   -0.69043126     0.012661636  
   4150000   0.055610003   -0.81666701     0.042491884   -0.69081394     0.026859406  
   4151000   0.05415348    -0.81385145     0.043099767   -0.68957387     0.0087973889 
   4152000   0.054572538   -0.81425122     0.042732881   -0.68971234     0.013445469  
   4153000   0.054871966   -0.81458538     0.044746214   -0.68758432     0.011651788  
   4154000   0.05715897    -0.81445894     0.044434966   -0.68434083     0.02630704   
   4155000   0.056941696   -0.81300283     0.045853995   -0.68179139     0.046798249  
   4156000   0.054559917   -0.81529306     0.045886261   -0.68761972     0.0032538222 
   4157000   0.055443883   -0.8152213      0.04277058    -0.68933855     0.01513936   
   4158000   0.057131242   -0.81457528     0.040327548   -0.68860616     0.010494172  
   4159000   0.056245262   -0.81529352     0.042644869   -0.68833518     0.0058558159 
   4160000   0.055335183   -0.81739146     0.043594649   -0.69084759    -4.1235923e-05
   4161000   0.054671557   -0.81739443     0.042850959   -0.69258904     0.0016825469 
   4162000   0.055031056   -0.81384385     0.03930009    -0.69205043    -0.0026331014 
   4163000   0.052797055   -0.81564258     0.041151202   -0.69534689     0.012723122  
   4164000   0.052024912   -0.81465806     0.042963612   -0.69370743     0.032178035  
   4165000   0.053568337   -0.81655949     0.041736709   -0.69452211     0.0053263641 
   4166000   0.052874545   -0.8133223      0.043823553   -0.6902381      0.024809779  
   4167000   0.053970292   -0.81635132     0.042864522   -0.69258359     0.014051532  
   4168000   0.055371764   -0.8149806      0.043419921   -0.68855662     0.013074597  
   4169000   0.0545511     -0.81425021     0.045303059   -0.6871733      0.0081598946 
   4170000   0.055075864   -0.8166042      0.044186589   -0.68985711     0.025981891  
   4171000   0.053962225   -0.81429684     0.04342961    -0.68997611     0.010394807  
   4172000   0.052220511   -0.81580851     0.042883339   -0.69464494     0.0045068321 
   4173000   0.052769724   -0.81479429     0.04375042    -0.69194035     0.035255748  
   4174000   0.053915555   -0.81672582     0.045099951   -0.69080471     0.0052254954 
   4175000   0.057678296   -0.81574928     0.041959939   -0.68732771     0.010691758  
   4176000   0.054699138   -0.8144234      0.041073922   -0.6913537      0.0069443097 
   4177000   0.051785343   -0.81451132     0.040961587   -0.69592183     0.0045961356 
   4178000   0.053612351   -0.81437834     0.044083555   -0.68992814     0.016050721  
   4179000   0.053034246   -0.81529684     0.041550776   -0.69424602     0.0086968592 
   4180000   0.054050572   -0.8155419      0.043061537   -0.69145681     0.020971198  
   4181000   0.055357561   -0.81425911     0.042796349   -0.68847999     0.023906795  
   4182000   0.054765002   -0.8172106      0.042882898   -0.69223319     0.016212091  
   4183000   0.055198898   -0.81490911     0.044313442   -0.68785074     0.0067077212 
   4184000   0.056329408   -0.8151507      0.042098619   -0.68861248     0.032526592  
   4185000   0.054941115   -0.81389768     0.042120861   -0.68941832     0.01272734   
   4186000   0.055544208   -0.8146794      0.042918983   -0.68849786     0.017677905  
   4187000   0.056189749   -0.81418645     0.041159394   -0.68879681     0.025994743  
   4188000   0.05255492    -0.81394192     0.04275791    -0.69240249     0.015501316  
   4189000   0.054814574   -0.81404256     0.043221611   -0.68865213     0.013970215  
   4190000   0.054759467   -0.81681206     0.042062238   -0.69266362    -0.0068906361 
   4191000   0.054631359   -0.81600214     0.042729246   -0.69137873     0.0049612797 
   4192000   0.055345698   -0.81237524     0.043777369   -0.68563289     0.0023784057 
   4193000   0.053934806   -0.8142337      0.04297434    -0.69040934     0.017144116  
   4194000   0.054665778   -0.81618209     0.043501057   -0.69073527     0.010888881  
   4195000   0.055553308   -0.81512015     0.043449184   -0.68839476     0.021879986  
   4196000   0.056291742   -0.81366612     0.045068512   -0.68421448     0.023989236  
   4197000   0.055726006   -0.81426168     0.044653367   -0.68607323    -0.013294133  
   4198000   0.052821028   -0.81276698     0.04221577    -0.69137078     0.029770404  
   4199000   0.055253191   -0.81468796     0.042137712   -0.68972393     0.00067643758
   4200000   0.054627629   -0.81596674     0.041928833   -0.69214933     0.0021623928 
   4201000   0.055936888   -0.81713244     0.043710215   -0.68957103     0.0013436383 
   4202000   0.055792719   -0.81539843     0.043117899   -0.68864544     0.00093375501
   4203000   0.054459117   -0.81461966     0.043643337   -0.68934035     0.017728628  
   4204000   0.054427713   -0.81401946     0.04230065    -0.69012991     0.0057298563 
   4205000   0.053409053   -0.81632211     0.041955765   -0.69430446     0.016221965  
   4206000   0.053411384   -0.81621666     0.041824356   -0.69432692     0.0093471217 
   4207000   0.054144874   -0.81498169     0.044630299   -0.68918648     0.016617392  
   4208000   0.055209614   -0.81657873     0.043452609   -0.69036512     0.014539635  
   4209000   0.054322658   -0.81357559     0.041660833   -0.69048334     0.0017198767 
   4210000   0.053742328   -0.81774645     0.040417133   -0.69676784     0.0020951675 
   4211000   0.053082182   -0.81636567     0.042867739   -0.69392603     0.012733219  
   4212000   0.052701803   -0.81341975     0.042767597   -0.69165045    -0.0022016297 
   4213000   0.055672213   -0.81526307     0.042988328   -0.6888203      0.0025043354 
   4214000   0.05593383    -0.81715509     0.042539124   -0.69076935     0.0030125782 
   4215000   0.05493877    -0.81395752     0.03985085    -0.69175169     0.010826021  
   4216000   0.056216044   -0.81620246     0.04346157    -0.68847123     0.0078045049 
   4217000   0.054965886   -0.81648534     0.04298562    -0.69110409     0.0098899876 
   4218000   0.053876597   -0.81580649     0.041521458   -0.69352227     0.013104479  
   4219000   0.054087639   -0.81529058     0.042602012   -0.69160945    -0.0026949098 
   4220000   0.052512503   -0.81484301     0.041155177   -0.6949699      0.020912264  
   4221000   0.052127281   -0.81430989     0.041233715   -0.69493569     0.020333608  
   4222000   0.054383146   -0.8166169      0.041621074   -0.69347373     0.013285107  
   4223000   0.052165593   -0.81430809     0.043702679   -0.69240751     0.007188932  
   4224000   0.05158725    -0.81545019     0.039810784   -0.69830845     0.026237766  
   4225000   0.055867588   -0.81330736     0.041927579   -0.68763246     0.017262479  
   4226000   0.052960485   -0.81350294     0.041695031   -0.69241843     0.031264957  
   4227000   0.054440602   -0.81552574     0.041920402   -0.69199712     0.0091910611 
   4228000   0.05569883    -0.81701035     0.043156762   -0.69035925    -0.0017708932 
   4229000   0.055186429   -0.81638639     0.042819051   -0.69084111     0.011998705  
   4230000   0.054627238   -0.81817534     0.045488531   -0.69079881     0.0030512102 
   4231000   0.054586896   -0.81764918     0.043447738   -0.69237392    -0.0038112344 
   4232000   0.054714048   -0.81460612     0.044523423   -0.68806457     0.0050550239 
   4233000   0.052846856   -0.81677749     0.043377485   -0.69418086    -0.0073120044 
   4234000   0.053769577   -0.81644152     0.043495025   -0.69234417     0.0099237228 
   4235000   0.053207902   -0.81529247     0.043876923   -0.69165519     0.020288985  
   4236000   0.055455752   -0.81792416     0.044886556   -0.68990764     0.014103673  
   4237000   0.054964189   -0.8132535      0.045522045   -0.68533837     0.013976611  
   4238000   0.055722749   -0.81438104     0.042489505   -0.68836133     0.011618867  
   4239000   0.053899134   -0.81565889     0.043246763   -0.69161558     0.0077440389 
   4240000   0.0551581     -0.81694281     0.041086222   -0.69317282     0.0025740843 
   4241000   0.054317558   -0.81397919     0.040812332   -0.69174308     0.0041180694 
   4242000   0.053904354   -0.81613817     0.043673269   -0.69166053     0.011459742  
   4243000   0.054284144   -0.8126769      0.041331203   -0.68997202     0.011833     
   4244000   0.055411242   -0.81600409     0.042011189   -0.69092967     0.008732048  
   4245000   0.056800916   -0.81232913     0.043992315   -0.68319041     0.023323925  
   4246000   0.055360714   -0.81566639     0.044141783   -0.68853711     0.0042625963 
   4247000   0.055207904   -0.81358463     0.041671614   -0.68915459     0.0082511655 
   4248000   0.054145011   -0.81599566     0.041263434   -0.6935671      0.018494264  
   4249000   0.052453092   -0.81608464     0.043831977   -0.69362378     0.019782153  
   4250000   0.054693352   -0.81400295     0.042662691   -0.68935316     0.021258122  
   4251000   0.052359844   -0.81624672     0.042713798   -0.69504383     0.0015279678 
   4252000   0.054685966   -0.8150761      0.042385616   -0.69071446     0.034412231  
   4253000   0.052149246   -0.81627296     0.042208029   -0.69589153     0.021373827  
   4254000   0.053671052   -0.81631654     0.040674543   -0.69518736     0.0079863728 
   4255000   0.05438498    -0.81345527     0.044651977   -0.68727845     0.012366485  
   4256000   0.054279316   -0.81530962     0.044795021   -0.68914815     0.0080389855 
   4257000   0.056495902   -0.81571057     0.04248604    -0.68853535     0.011491656  
   4258000   0.054067288   -0.81550847     0.043359706   -0.69110016    -0.005723899  
   4259000   0.053415619   -0.81487036     0.044825655   -0.68997297     0.00015148111
   4260000   0.053427419   -0.81504176     0.041894736   -0.6930576     -0.0028642613 
   4261000   0.053004627   -0.81606469     0.040066844   -0.6965422      0.012614776  
   4262000   0.053937188   -0.81415499     0.045025065   -0.68827634     0.013897036  
   4263000   0.053882258   -0.81496131     0.043606292   -0.69058378    -0.00043960614
   4264000   0.056383298   -0.81710914     0.040326088   -0.69226267     0.015651118  
   4265000   0.053981533   -0.81631995     0.045137516   -0.69026238     0.0087159252 
   4266000   0.054536206   -0.8163024      0.041998408   -0.69255246    -0.0007986946 
   4267000   0.051789991   -0.81603791     0.042739092   -0.69566395    -0.0045288142 
   4268000   0.05435147    -0.8144666      0.042050935   -0.69094106     0.023643098  
   4269000   0.053904484   -0.81605595     0.041496507   -0.69375489     0.0072333291 
   4270000   0.054715928   -0.8160569      0.042492676   -0.69154328     0.034561586  
   4271000   0.054749652   -0.81728977     0.043671395   -0.69154688     0.033071244  
   4272000   0.055893355   -0.81586089     0.041132165   -0.69094278     0.028538627  
   4273000   0.05476801    -0.81588299     0.043814069   -0.6899699      0.0059182058 
   4274000   0.054174243   -0.81508606     0.043792079   -0.69008504     0.0008586897 
   4275000   0.055450799   -0.81600322     0.039557542   -0.69332314     0.016445959  
   4276000   0.05429974    -0.81478627     0.041685297   -0.69170391    -0.0024599504 
   4277000   0.054079092   -0.81628305     0.042388719   -0.69282803    -0.0014681743 
   4278000   0.05625056    -0.81428316     0.044707702   -0.68525405     0.020818804  
   4279000   0.055929709   -0.81287672     0.042462665   -0.68657361     0.013089127  
   4280000   0.05628685    -0.81628241     0.043232683   -0.68867392     0.0021799837 
   4281000   0.053752919   -0.81493275     0.043722737   -0.69063265     0.016530899  
   4282000   0.054741912   -0.81568897     0.043495698   -0.69013338     0.024786622  
   4283000   0.054977838   -0.81430374     0.043128521   -0.68876167     0.028958169  
   4284000   0.055194464   -0.8133487      0.041785628   -0.68882479     0.015849792  
   4285000   0.053970198   -0.81414473     0.044119666   -0.68912199    -0.0082726574 
   4286000   0.053663426   -0.81443217     0.041207025   -0.69278194    -0.003957508  
   4287000   0.053620354   -0.81448795     0.040870528   -0.69323878    -0.0024522281 
   4288000   0.052659292   -0.81587199     0.042321535   -0.69461248     0.0023504732 
   4289000   0.053532426   -0.81558398     0.042848956   -0.69248819     0.011372076  
   4290000   0.054460754   -0.81314129     0.040551212   -0.69095165     0.0081139737 
   4291000   0.054919409   -0.81460091     0.041493192   -0.69078175     0.0032566916 
   4292000   0.054465496   -0.81453107     0.044028067   -0.68885746     0.015725569  
   4293000   0.055164922   -0.81518246     0.042481104   -0.69000736    -0.00141715   
   4294000   0.055125006   -0.81463591     0.042900642   -0.68910111    -0.002049625  
   4295000   0.054476033   -0.81644008     0.040776709   -0.69400204     0.027234519  
   4296000   0.055364862   -0.81541756     0.043210264   -0.68921358     0.023885994  
   4297000   0.054983078   -0.81197546     0.041821043   -0.687733       0.020713499  
   4298000   0.055567266   -0.81769909     0.042783172   -0.69161879    -0.0066939358 
   4299000   0.053547882   -0.8143933      0.042709859   -0.69141344     0.032984338  
   4300000   0.05422874    -0.8150667      0.039807141   -0.69396893     0.0072178033 
   4301000   0.056242868   -0.81429471     0.043575432   -0.6864094      0.017852523  
   4302000   0.052542945   -0.81401626     0.041749859   -0.69350283     0.010491841  
   4303000   0.054232577   -0.81701301     0.044156926   -0.6915597      0.0055727844 
   4304000   0.054160184   -0.81567072     0.044146459   -0.69033639     0.0072354169 
   4305000   0.055500183   -0.81593977     0.042420204   -0.690323       0.010400448  
   4306000   0.053625804   -0.81381815     0.044979288   -0.68845205     0.00030598313
   4307000   0.054671861   -0.81424106     0.042944914   -0.68934126     0.013542285  
   4308000   0.05432846    -0.81593819     0.044047003   -0.69045107     0.0084356826 
   4309000   0.0544376     -0.81497296     0.044246119   -0.68912313     0.0054359788 
   4310000   0.055611385   -0.81495921     0.04257149    -0.68902446     0.017764015  
   4311000   0.055601953   -0.81475159     0.042283745   -0.68911872     0.0128454    
   4312000   0.0549086     -0.81462787     0.042568873   -0.68974923     0.016231058  
   4313000   0.056295427   -0.81363589     0.043840184   -0.68540704     0.011347619  
   4314000   0.054850942   -0.81379158     0.044939391   -0.68662885     0.010293914  
   4315000   0.055472712   -0.81684857     0.042578068   -0.69111512     0.0039241193 
   4316000   0.055444002   -0.81573754     0.042586      -0.69003919     0.0063625163 
   4317000   0.052379667   -0.81524521     0.043794435   -0.69293196     0.037188178  
   4318000   0.055912756   -0.81540966     0.042166989   -0.68942765     0.019739196  
   4319000   0.055467029   -0.81554928     0.043232379   -0.68917004     0.009736861  
   4320000   0.052216316   -0.81522628     0.042699263   -0.69425307     0.035672093  
   4321000   0.052938248   -0.81546078     0.040759946   -0.69534469     0.018421372  
   4322000   0.053209001   -0.81635355     0.042916525   -0.69367501     0.022723724  
   4323000   0.055038279   -0.81503086     0.043078637   -0.68944807     0.031867519  
   4324000   0.056928202   -0.81391273     0.043394022   -0.68518149     0.0081860098 
   4325000   0.057156354   -0.81429967     0.041446215   -0.68717424     0.020658372  
   4326000   0.055789133   -0.81437999     0.042926707   -0.68782357     0.012930526  
   4327000   0.054857974   -0.81851        0.042610863   -0.69366527     0.0056079455 
   4328000   0.053266596   -0.81671159     0.043193082   -0.69367016     0.0034086939 
   4329000   0.052360158   -0.81307667     0.043024379   -0.69156273     0.016686623  
   4330000   0.055222523   -0.81358128     0.04099173    -0.6898092      0.015971464  
   4331000   0.055100334   -0.81526558     0.044856432   -0.68781197    -0.0019420453 
   4332000   0.053764183   -0.81607337     0.042436568   -0.69304255     0.012724069  
   4333000   0.053643883   -0.81392773     0.043704006   -0.68980981     0.02597612   
   4334000   0.054552172   -0.81248737     0.043199504   -0.6875124      0.027954373  
   4335000   0.053289082   -0.8141862      0.044477419   -0.68982673     0.010416155  
   4336000   0.053835211   -0.81511961     0.045921632   -0.68849726     0.012189327  
   4337000   0.054770017   -0.81552352     0.043748086   -0.68967341     0.013830902  
   4338000   0.05509725    -0.81582377     0.043721417   -0.6895098      0.014941914  
   4339000   0.054118361   -0.81463697     0.042498555   -0.69101324     0.029500519  
   4340000   0.053790837   -0.81620295     0.04328208    -0.69228667     0.0045606348 
   4341000   0.054327736   -0.81345589     0.044570893   -0.68744597     0.014974091  
   4342000   0.054011499   -0.81406159     0.041611255   -0.69148536     0.025364161  
   4343000   0.054951641   -0.81516301     0.040909741   -0.69187899     0.029018044  
   4344000   0.054579653   -0.8151474      0.043524758   -0.68980598     0.01249426   
   4345000   0.054167192   -0.81561847     0.042081996   -0.69233811     0.022202673  
   4346000   0.052464408   -0.81600443     0.042219988   -0.6951386      0.023099469  
   4347000   0.053593353   -0.81518219     0.041842352   -0.69300167     0.032212836  
   4348000   0.055433089   -0.81405999     0.041247126   -0.68971687     0.027694866  
   4349000   0.053532128   -0.81658988     0.043177987   -0.69316551     0.001776306  
   4350000   0.05133595    -0.81531997     0.04522435    -0.69314138     0.011573829  
   4351000   0.053328525   -0.81318325     0.042653646   -0.69058843     0.025214547  
   4352000   0.051287742   -0.81440878     0.043206084   -0.69432072     0.028407644  
   4353000   0.054958068   -0.81786476     0.042767754   -0.69271309     0.014073029  
   4354000   0.053453424   -0.81368108     0.042456603   -0.69109607     0.0018443378 
   4355000   0.053828706   -0.8148334      0.043920684   -0.69022175     0.019327882  
   4356000   0.054803628   -0.81529781     0.044226742   -0.68891866     0.016873674  
   4357000   0.054141025   -0.81272463     0.041038976   -0.69052651     0.012468102  
   4358000   0.053841564   -0.81327611     0.041579583   -0.69098628     0.020175723  
   4359000   0.052607308   -0.81496929     0.045322668   -0.69078657     0.030468843  
   4360000   0.053457288   -0.8137878      0.042363715   -0.69128989     0.026155659  
   4361000   0.054642062   -0.81515691     0.043305981   -0.68994072     0.01962106   
   4362000   0.054457139   -0.8162693      0.042541816   -0.69209448     0.022042222  
   4363000   0.057659369   -0.81715246     0.041924013   -0.6887952      0.014976685  
   4364000   0.056088256   -0.81401213     0.041369887   -0.68856414     0.01342727   
   4365000   0.054692548   -0.8153939      0.041821629   -0.69158637     0.027261424  
   4366000   0.053854289   -0.8163618      0.043348749   -0.69228374     0.012900828  
   4367000   0.054354037   -0.81391016     0.041535873   -0.69089583     0.022903643  
   4368000   0.054632904   -0.81222516     0.043008319   -0.68732035     0.007225459  
   4369000   0.054227376   -0.81600745     0.041094041   -0.69362483     0.0028768361 
   4370000   0.055058018   -0.81604996     0.042353791   -0.69116243     0.001325032  
   4371000   0.056802203   -0.81626287     0.044251482   -0.68686305     0.012600067  
   4372000   0.054895451   -0.81620942     0.041648944   -0.69227042     0.021738629  
   4373000   0.053176309   -0.81544663     0.043194573   -0.69253906     0.0012698341 
   4374000   0.053540216   -0.81533662     0.042242064   -0.69283605    -0.0043311811 
   4375000   0.05444434    -0.81630831     0.04187343    -0.69282106     0.0081512948 
   4376000   0.054059684   -0.81455138     0.044162533   -0.68935163     0.0030718112 
   4377000   0.054267296   -0.81355018     0.042641843   -0.68955991     0.0021902502 
   4378000   0.054357394   -0.81611045     0.043629394   -0.69099756     0.002772405  
   4379000   0.054779203   -0.81702864     0.042724814   -0.69218803    -0.011119657  
   4380000   0.054942576   -0.815141       0.042342115   -0.6904382     -0.0022902108 
   4381000   0.054120959   -0.81389855     0.042994944   -0.68977455     0.00094848806
   4382000   0.054587494   -0.81136349     0.040783827   -0.68875125     0.011584867  
   4383000   0.055715174   -0.81257592     0.042414344   -0.68664274     0.017268753  
   4384000   0.054716014   -0.81360204     0.042710309   -0.68887066     0.0063084071 
   4385000   0.054958215   -0.81537572     0.044883366   -0.68810821     0.0047208206 
   4386000   0.05414644    -0.81323257     0.044255983   -0.68780933     0.0070508976 
   4387000   0.053194026   -0.81538369     0.040733936   -0.69491019     0.032346717  
   4388000   0.056602741   -0.8146893      0.041158389   -0.68868157     0.011099484  
   4389000   0.055253175   -0.81546457     0.043434618   -0.68920366     0.012238505  
   4390000   0.055320195   -0.81203831     0.043582717   -0.68552884     0.013680324  
   4391000   0.054350343   -0.81560997     0.044225021   -0.68991203     0.01574367   
   4392000   0.052527686   -0.81489175     0.042063714   -0.69408734     0.02635666   
   4393000   0.053592009   -0.81637816     0.042823646   -0.69321836     0.008484472  
   4394000   0.053723743   -0.81634358     0.042279643   -0.69353031     0.029197957  
   4395000   0.054316556   -0.81524204     0.041997321   -0.69182245     0.035430383  
   4396000   0.054907567   -0.81427968     0.042771445   -0.68920002     0.016421375  
   4397000   0.053623442   -0.81674395     0.041155762   -0.69520492     0.033253391  
   4398000   0.052774792   -0.81541971     0.042940789   -0.6933678      0.021771112  
   4399000   0.055761382   -0.81461718     0.043277813   -0.68775126     0.010367452  
   4400000   0.056447875   -0.8149781      0.042109611   -0.6882513      0.0099368643 
   4401000   0.05633253    -0.81330107     0.042505437   -0.68635136     0.0025936208 
   4402000   0.055354997   -0.8155729      0.042463894   -0.69013008     0.007206714  
   4403000   0.055852467   -0.81506657     0.042252434   -0.68908948     0.016754287  
   4404000   0.05641985    -0.81232016     0.041635431   -0.68610955     0.018278304  
   4405000   0.057222974   -0.814639       0.04463158    -0.68422833     0.015248312  
   4406000   0.056232488   -0.81575834     0.043160695   -0.68830334     0.017973029  
   4407000   0.054601633   -0.81421759     0.042725623   -0.68964236     0.015168686  
   4408000   0.053013229   -0.81533191     0.041475746   -0.69438763     0.0069115182 
   4409000   0.055879808   -0.81547084     0.0417521     -0.6899531     -0.003060518  
   4410000   0.055731024   -0.81254818     0.04077806    -0.68822752     0.010213794  
   4411000   0.054445241   -0.81450091     0.041109144   -0.69177659     0.0033706186 
   4412000   0.054326955   -0.81516954     0.043074094   -0.69065759    -0.0014803975 
   4413000   0.054162093   -0.81593711     0.044021961   -0.69072443     0.0031692766 
   4414000   0.055652666   -0.81627444     0.0431481     -0.6897012     -0.0062441418 
   4415000   0.054017268   -0.81210512     0.04484457    -0.68628692    -0.0033301018 
   4416000   0.054258504   -0.81622994     0.041957355   -0.69293734     0.0021981853 
   4417000   0.053349632   -0.81413934     0.043569728   -0.69059679     0.02031603   
   4418000   0.05295017    -0.8162117      0.044144469   -0.69269322     0.012585383  
   4419000   0.053949859   -0.81545122     0.042460159   -0.69211848     0.02076056   
   4420000   0.053998611   -0.81546965     0.041152213   -0.69337178    -0.0033246837 
   4421000   0.053295749   -0.8147101      0.041695387   -0.69312266     0.026246386  
   4422000   0.053837267   -0.81622602     0.041292605   -0.69422961     0.026292617  
   4423000   0.054728861   -0.81438984     0.042365297   -0.68998421     0.021191537  
   4424000   0.054029502   -0.81583811     0.04056991    -0.69427623     0.020537317  
   4425000   0.051822064   -0.81493341     0.043247489   -0.69400297     0.0072748033 
   4426000   0.054440287   -0.81528425     0.043466055   -0.69021045     0.025032644  
   4427000   0.053347038   -0.81508207     0.044370664   -0.69074248     0.016374823  
   4428000   0.052681593   -0.81560859     0.043798579   -0.6928386      0.0017146744 
   4429000   0.05386776    -0.81609686     0.043681303   -0.69166605     0.029440738  
   4430000   0.052940671   -0.81463428     0.041789088   -0.69348542    -0.0017340855 
   4431000   0.05326699    -0.81448219     0.04321695    -0.6914163      0.013649278  
   4432000   0.054589273   -0.81301853     0.042514532   -0.68867292     0.015725819  
   4433000   0.055582168   -0.81342977     0.042616028   -0.68749428     0.024424458  
   4434000   0.054320583   -0.81348094     0.04233177    -0.68972086     0.012267835  
   4435000   0.054724264   -0.81450647     0.041600751   -0.69087229     0.0075368557 
   4436000   0.054810717   -0.81411618     0.044515397   -0.68743775     0.0014246595 
   4437000   0.052754002   -0.81631093     0.041991818   -0.69523916     0.013718716  
   4438000   0.054682559   -0.81354072     0.044775746   -0.68679405     0.014047185  
   4439000   0.05306838    -0.81575562     0.041436089   -0.69476832     0.0048995185 
   4440000   0.052762854   -0.81821977     0.043283782   -0.69584276    -0.0023512672 
   4441000   0.054930184   -0.81669712     0.044332828   -0.69002217    -0.0026740388 
   4442000   0.055751242   -0.81519325     0.04216337    -0.68945697     0.0080421995 
   4443000   0.054376256   -0.81521909     0.041947223   -0.6917601     -0.0035861051 
   4444000   0.054138615   -0.81386612     0.042422445   -0.69028815     0.012600963  
   4445000   0.054559226   -0.8137872      0.043920869   -0.68808029     0.010447675  
   4446000   0.054380697   -0.81615557     0.042776859   -0.69186029     0.0057642541 
   4447000   0.053725209   -0.81543985     0.042927934   -0.69197609     0.021697421  
   4448000   0.054350132   -0.81788831     0.043344155   -0.69307155     0.0102454    
   4449000   0.054924971   -0.81713095     0.039373298   -0.69542335     0.020553962  
   4450000   0.053643816   -0.81730696     0.042276836   -0.69461632     0.009266291  
   4451000   0.052319534   -0.81640408     0.042817679   -0.69515773     0.014288516  
   4452000   0.052690231   -0.8142964      0.041518786   -0.69379325     0.0022117378 
   4453000   0.05463536    -0.81718203     0.041778144   -0.69350372     0.0011386718 
   4454000   0.054230573   -0.81529723     0.044105429   -0.68989842    -0.0028632092 
   4455000   0.052411607   -0.8145511      0.041151694   -0.69483272     0.0083467155 
   4456000   0.054193676   -0.81626148     0.042665534   -0.69235788     0.0019761275 
   4457000   0.055701478   -0.81531323     0.043471156   -0.68834376     0.013428381  
   4458000   0.05495596    -0.81455114     0.042518962   -0.68965142     0.00029860465
   4459000   0.055250588   -0.81460442     0.041953857   -0.68982814     0.013424978  
   4460000   0.053924509   -0.81352719     0.042202292   -0.69049032     0.015383128  
   4461000   0.053724906   -0.81570308     0.042170419   -0.69299729     0.010984033  
   4462000   0.055183272   -0.81480334     0.041583382   -0.69049846     0.019715866  
   4463000   0.054057568   -0.81433302     0.044107934   -0.68919104    -0.0074549834 
   4464000   0.052736829   -0.81596125     0.043879768   -0.69302727     0.0095626632 
   4465000   0.051789809   -0.8157353      0.042903361   -0.69519734     0.024925881  
   4466000   0.056817966   -0.81624963     0.041072374   -0.69000529     0.0042466988 
   4467000   0.055171086   -0.81476815     0.042414163   -0.68965074     0.016523193  
   4468000   0.054337971   -0.81555551     0.04221391    -0.69188723     0.0087918939 
   4469000   0.051904729   -0.81507538     0.041072899   -0.69619562     0.026371436  
   4470000   0.052778583   -0.81367693     0.042841961   -0.69171817    -0.0057856737 
   4471000   0.054270126   -0.81415249     0.043237732   -0.68956209     0.014335717  
   4472000   0.054291249   -0.81473013     0.044600184   -0.68874561     0.018760995  
   4473000   0.053642223   -0.81495659     0.042349438   -0.69219573     0.0030389964 
   4474000   0.052618398   -0.81403284     0.042592359   -0.6925638      0.020085539  
   4475000   0.053692238   -0.81613663     0.042530739   -0.69311949     0.01026617   
   4476000   0.053911865   -0.81438229     0.042207907   -0.69135875     0.006450465  
   4477000   0.054548264   -0.81491789     0.043439609   -0.68970868     0.012369188  
   4478000   0.056140407   -0.8170797      0.044065614   -0.68885781     0.020170398  
   4479000   0.056194441   -0.81405753     0.042137818   -0.68768243     0.015116818  
   4480000   0.055159078   -0.81641395     0.043392974   -0.69033574    -0.0059140428 
   4481000   0.05316232    -0.81593904     0.042972546   -0.69327446     0.0016794693 
   4482000   0.054310991   -0.81400801     0.044429841   -0.68816424     0.020395692  
   4483000   0.05467993    -0.81574197     0.043029908   -0.69074508     0.011348385  
   4484000   0.053976302   -0.81485156     0.04383778    -0.69010156     0.0065409162 
   4485000   0.055395304   -0.81512112     0.042225757   -0.68985602     0.0023652243 
   4486000   0.053042374   -0.81374319     0.041265831   -0.69296513     0.0045345736 
   4487000   0.0555854     -0.8143517      0.041532683   -0.68949471     0.031835347  
   4488000   0.053952538   -0.81439627     0.043297897   -0.69022177     0.0059773258 
   4489000   0.053279081   -0.81349475     0.043049427   -0.69057826     0.018462878  
   4490000   0.053698366   -0.81396325     0.039896572   -0.6935711      0.01191908   
   4491000   0.05451216    -0.81540542     0.042703338   -0.69098659     0.028922406  
   4492000   0.054946018   -0.81422055     0.040668596   -0.69118611     0.030376864  
   4493000   0.055003177   -0.81594769     0.041677981   -0.69181817     0.0079878955 
   4494000   0.053101796   -0.81492701     0.041175419   -0.69415028     0.02268701   
   4495000   0.053998756   -0.815701       0.043239575   -0.69151555     0.022547105  
   4496000   0.05446321    -0.81644874     0.041240487   -0.69356615     0.022011062  
   4497000   0.054742093   -0.81672487     0.043597931   -0.69106678     0.0087899102 
   4498000   0.054357672   -0.81568085     0.042417579   -0.69177937     0.035487111  
   4499000   0.054322044   -0.81493226     0.041234053   -0.69226771     0.013660125  
   4500000   0.053912954   -0.81577693     0.041186017   -0.69377366     0.023482211  
   4501000   0.055099311   -0.81527438     0.042672268   -0.69000647     0.014005536  
   4502000   0.053307974   -0.81494251     0.042871128   -0.692161       0.010077719  
   4503000   0.055341037   -0.81517013     0.043207123   -0.689005       0.0060424898 
   4504000   0.054209476   -0.81366121     0.044664455   -0.68773501     0.015217419  
   4505000   0.054946855   -0.81522145     0.043978044   -0.6888763      0.0088086076 
   4506000   0.054202086   -0.81613074     0.044115806   -0.69076426     0.0070123058 
   4507000   0.056499735   -0.81667284     0.042864317   -0.6891136      0.0043535919 
   4508000   0.054143092   -0.81591967     0.043660636   -0.69109679     0.00067735214
   4509000   0.051578226   -0.8141837      0.041705288   -0.69516098     0.01525187   
   4510000   0.05285269    -0.81202487     0.042139793   -0.69065719     0.045313248  
   4511000   0.053168823   -0.8131101      0.042708583   -0.69069974     0.0093883002 
   4512000   0.055458716   -0.81354345     0.0447885     -0.68562054     0.014320616  
   4513000   0.0535715     -0.81370398     0.043326344   -0.69007222     0.014839276  
   4514000   0.053405011   -0.81655445     0.04222085    -0.69427776    -0.0095047192 
   4515000   0.054653104   -0.81300085     0.043275113   -0.68779897    -0.0090937136 
   4516000   0.054876067   -0.81487329     0.04346598    -0.68914632    -0.0021018981 
   4517000   0.055879944   -0.81281187     0.041219302   -0.68782673    -0.0026205496 
   4518000   0.055240451   -0.81466425     0.042316911   -0.68954012     0.0056249856 
   4519000   0.053205467   -0.81672663     0.042149393   -0.69482052     0.0048617808 
   4520000   0.05519165    -0.81540611     0.043512845   -0.6891592      0.014108554  
   4521000   0.055064411   -0.81434099     0.041953749   -0.68984391     0.0073009619 
   4522000   0.05590535    -0.8157598      0.044476085   -0.68747979     0.016272288  
   4523000   0.054594822   -0.81396662     0.043018643   -0.68910858     0.025947879  
   4524000   0.053732691   -0.81563923     0.042053101   -0.69303909     0.0086447457 
   4525000   0.053866998   -0.8145402      0.044575341   -0.68921649     0.0094371568 
   4526000   0.056558995   -0.81613707     0.044653971   -0.68669934     0.028815648  
   4527000   0.057805832   -0.81270831     0.043023481   -0.68303202     0.028512215  
   4528000   0.0544653     -0.81470064     0.043095862   -0.68995953     0.008767773  
   4529000   0.053448045   -0.81462503     0.043127713   -0.69137697     0.0075938529 
   4530000   0.054459521   -0.8161667      0.042695394   -0.69183473     0.016463876  
   4531000   0.056564137   -0.81456039     0.045039671   -0.68472926     0.013981648  
   4532000   0.057014429   -0.81690208     0.042765867   -0.68866975     0.0077450995 
   4533000   0.05541731    -0.8123512      0.043306454   -0.6859724      0.022780674  
   4534000   0.054576914   -0.81482679     0.044900139   -0.6881141      0.0013374023 
   4535000   0.054589571   -0.81515782     0.0436693     -0.68965699     0.011526489  
   4536000   0.054555176   -0.81480417     0.041471151   -0.69155305     0.0088688144 
   4537000   0.053979261   -0.81396832     0.043961995   -0.68908967     0.01435194   
   4538000   0.05606327    -0.81556654     0.043772296   -0.6877536      0.021517259  
   4539000   0.055497429   -0.81519604     0.044124635   -0.68787897     0.036122609  
   4540000   0.0545191     -0.8121671      0.043979037   -0.68646217     0.013457827  
   4541000   0.055747688   -0.81026913     0.041642474   -0.68505907     0.017455715  
   4542000   0.055263361   -0.81249283     0.044250125   -0.68540114    -0.008712581  
   4543000   0.056619987   -0.81398655     0.044728841   -0.68438252     0.020394263  
   4544000   0.055014972   -0.81460744     0.043491292   -0.68864693     0.013033515  
   4545000   0.056387583   -0.8134935      0.042276202   -0.6866905      0.016936934  
   4546000   0.055762928   -0.81390502     0.042304648   -0.68800994     0.046567077  
   4547000   0.05529521    -0.81303152     0.042190934   -0.68795128     0.038698022  
   4548000   0.054343928   -0.81391937     0.044634164   -0.6878219      0.021167017  
   4549000   0.055810154   -0.81322699     0.043025905   -0.68653986     0.020164887  
   4550000   0.055943103   -0.81376928     0.043645207   -0.68626356     0.0188916    
   4551000   0.055799628   -0.81458386     0.041197533   -0.68974088     0.013295898  
   4552000   0.055435132   -0.81358493     0.041835144   -0.68865074     0.010970405  
   4553000   0.054481844   -0.81315682     0.042253024   -0.68923375     0.011214001  
   4554000   0.053587473   -0.81341091     0.042677671   -0.69040388     0.018951823  
   4555000   0.05526032    -0.81447566     0.043990511   -0.68764815     0.0035061389 
   4556000   0.056185898   -0.8143755      0.043479698   -0.68667133     0.025339291  
   4557000   0.056089529   -0.81176655     0.042010571   -0.68567597     0.050066433  
   4558000   0.0531625     -0.81209728     0.041098909   -0.69130607     0.032630279  
   4559000   0.053619738   -0.81298488     0.042532446   -0.69007472     0.018814352  
   4560000   0.056879878   -0.81399485     0.042588678   -0.68614139     0.0015140099 
   4561000   0.054677755   -0.8140472      0.043467993   -0.68861549     0.01604194   
   4562000   0.054328134   -0.81298451     0.041062948   -0.69048194     0.015782458  
   4563000   0.052734922   -0.81433209     0.042377375   -0.69290337     0.010615638  
   4564000   0.055684464   -0.81582417     0.042647422   -0.68970394     0.0047634506 
   4565000   0.053502159   -0.81371605     0.043533692   -0.68998089     0.018613323  
   4566000   0.052295908   -0.81369754     0.043863602   -0.69144069     0.012863595  
   4567000   0.052901427   -0.81423678     0.041980933   -0.6929549     -0.0019816571 
   4568000   0.0551406     -0.81291106     0.043441404   -0.68681212     0.022330468  
   4569000   0.054936147   -0.81460915     0.043753103   -0.68850499     0.027226405  
   4570000   0.055176499   -0.81428419     0.043587419   -0.68798542     0.010194612  
   4571000   0.055555992   -0.81204743     0.04105402    -0.68771319     0.012413926  
   4572000   0.052644573   -0.81295756     0.043659929   -0.69038172     0.01088807   
   4573000   0.055542069   -0.81298951     0.041216546   -0.68851361     0.0093539283 
   4574000   0.054773784   -0.81369346     0.041365574   -0.69022022     0.019596367  
   4575000   0.053809444   -0.81441679     0.042368397   -0.6913863      0.018284749  
   4576000   0.053718696   -0.81480678     0.042602296   -0.69167843     0.0072320327 
   4577000   0.054509627   -0.81472809     0.042316921   -0.69069948     0.01181934   
   4578000   0.053956804   -0.81273492     0.042987476   -0.68886446     0.022740232  
   4579000   0.054742371   -0.81300254     0.043823059   -0.6871189      0.032422153  
   4580000   0.054393217   -0.81110896     0.045633209   -0.68393856     0.011343609  
   4581000   0.053231782   -0.81485883     0.043927295   -0.69113538     0.0057490661 
   4582000   0.054044932   -0.81274446     0.039964637   -0.69176473     0.010880612  
   4583000   0.054828686   -0.81456601     0.04254989    -0.68982615     0.019938233  
   4584000   0.054337297   -0.81222866     0.043961367   -0.68681393     0.0016224462 
   4585000   0.052752983   -0.81205145     0.041537387   -0.69143564     0.030135657  
   4586000   0.053604791   -0.81108239     0.043216766   -0.68751031     0.025218106  
   4587000   0.054344475   -0.81317942     0.04257827    -0.68913703    -0.0016719314 
   4588000   0.054670648   -0.81368115     0.042713065   -0.68901503     0.022352479  
   4589000   0.05451179    -0.81309583     0.042470882   -0.68891002     0.01978886   
   4590000   0.053493852   -0.81313376     0.043368666   -0.68957609     0.019925219  
   4591000   0.05540017    -0.81096054     0.043349994   -0.68456391    -0.0032486246 
   4592000   0.054491983   -0.81435201     0.043257058   -0.68940971     0.011356461  
   4593000   0.052621363   -0.8137221      0.041713267   -0.69312771     0.0064244508 
   4594000   0.054045998   -0.81407904     0.042135553   -0.69092679     0.017590597  
   4595000   0.054052005   -0.8147817      0.040817086   -0.69293891     0.0061349225 
   4596000   0.053927952   -0.8148398      0.042114424   -0.69188564    -0.012971389  
   4597000   0.053433132   -0.81471393     0.043231047   -0.6913849     -0.0016842051 
   4598000   0.053083646   -0.81439078     0.045391189   -0.68942549     0.010254302  
   4599000   0.053775749   -0.81490149     0.043908653   -0.69038126     0.013798162  
   4600000   0.054956353   -0.81322895     0.04069628    -0.69015132     0.012839334  
   4601000   0.054349976   -0.81231147     0.039100698   -0.6917384      0.0058666803 
   4602000   0.057075104   -0.81372156     0.043328528   -0.6848356      0.0030330845 
   4603000   0.057010403   -0.81207598     0.044054395   -0.68256115     0.023050971  
   4604000   0.0557654     -0.81424546     0.04511026    -0.68554107     0.019789378  
   4605000   0.056574537   -0.81600193     0.044831813   -0.68636306     0.022083928  
   4606000   0.053995563   -0.81429947     0.043978359   -0.68938003     0.0018012673 
   4607000   0.051998012   -0.81478926     0.04182784    -0.69501472     0.0045835551 
   4608000   0.054439548   -0.81375012     0.043670821   -0.68847266    -0.0042220158 
   4609000   0.053664398   -0.81307518     0.043859425   -0.68877109     0.0048223721 
   4610000   0.05539882    -0.81596876     0.041791502   -0.69113264    -0.004108822  
   4611000   0.055752951   -0.81509011     0.040571153   -0.69094348     0.00026038298
   4612000   0.051944245   -0.81381051     0.044016703   -0.6919277     -0.0055178676 
   4613000   0.053369846   -0.8138092      0.042472021   -0.69133405    -0.0026303115 
   4614000   0.053526899   -0.81448976     0.043163816   -0.6910874      0.016121164  
   4615000   0.054819608   -0.81416129     0.041764849   -0.69022008     0.0055293584 
   4616000   0.053011668   -0.81351992     0.043641194   -0.69041253     0.0019586438 
   4617000   0.05571998    -0.81312335     0.042357105   -0.6872402      0.01282659   
   4618000   0.054095476   -0.81314927     0.043534415   -0.68852399    -0.0020219964 
   4619000   0.055482414   -0.81389891     0.042312294   -0.68841669    -0.01095928   
   4620000   0.053242057   -0.81353647     0.045014284   -0.68871063     0.0040367612 
   4621000   0.054950711   -0.8128905      0.042984965   -0.68753265     0.009377328  
   4622000   0.055881213   -0.81306008     0.042654998   -0.68663734     0.0015010129 
   4623000   0.054571057   -0.81301322     0.043334337   -0.68787511    -0.0025707927 
   4624000   0.053401078   -0.81279924     0.04296438    -0.68978492    -0.0099707524 
   4625000   0.053333658   -0.81447098     0.042197955   -0.69232415     0.00082496506
   4626000   0.054360579   -0.81453692     0.041879179   -0.69116948     0.011405711  
   4627000   0.054108933   -0.81162723     0.042583301   -0.68793289     0.013475425  
   4628000   0.054356174   -0.8130772      0.043252162   -0.68834338    -0.0075206138 
   4629000   0.05307349    -0.81292302     0.044959266   -0.68840488     0.0028261454 
   4630000   0.05505673    -0.81520846     0.042714147   -0.6899625     -0.0023845419 
   4631000   0.054101136   -0.81318271     0.043083269   -0.68900009    -0.0067592256 
   4632000   0.054062037   -0.81343225     0.045327265   -0.68706425     0.0074486242 
   4633000   0.055032186   -0.8121431      0.042805001   -0.68684308     0.0011366005 
   4634000   0.054565901   -0.81302089     0.043439576   -0.68778527     0.0016687524 
   4635000   0.052704143   -0.81475494     0.040517133   -0.69523259    -0.0078482303 
   4636000   0.053149286   -0.8132904      0.042541965   -0.69107594     0.002950798  
   4637000   0.05367734    -0.81401892     0.042205337   -0.69134952    -0.0020962782 
   4638000   0.054098749   -0.81467825     0.040665942   -0.69291654     0.01034189   
   4639000   0.052591975   -0.81259599     0.042073638   -0.69168528     0.00033341328
   4640000   0.055570052   -0.81257011     0.041433545   -0.68783527    -0.0090669896 
   4641000   0.052494016   -0.81442427     0.042210137   -0.69352391    -0.00092460307
   4642000   0.054747706   -0.81413358     0.043771739   -0.68829326    -0.0018198654 
   4643000   0.052742828   -0.81453767     0.041725585   -0.69374889     0.015521723  
   4644000   0.053321975   -0.81455334     0.041591113   -0.69303087     0.014863307  
   4645000   0.052230992   -0.81370659     0.043103529   -0.69230712    -0.0020487346 
   4646000   0.052797151   -0.81327498     0.042039082   -0.69209127    -0.0057836225 
   4647000   0.053849155   -0.81101766     0.043096677   -0.68719936     0.0025570534 
   4648000   0.054425715   -0.81407138     0.043561283   -0.68892419     0.0017049892 
   4649000   0.056167746   -0.81352872     0.043645026   -0.68568643     0.00030827009
   4650000   0.05339437    -0.81392251     0.043207898   -0.69067473     0.018705969  
   4651000   0.055237689   -0.81392992     0.0417345     -0.68939234    -0.0018037539 
   4652000   0.056227297   -0.81531543     0.042863752   -0.68816514    -0.012170869  
   4653000   0.055277137   -0.81381314     0.043427754   -0.68752317    -0.011861319  
   4654000   0.052296136   -0.81075119     0.042110716   -0.69024688     4.0451469e-05
   4655000   0.054413217   -0.81411576     0.042423352   -0.69012524    -0.0085081969 
   4656000   0.053369562   -0.81340768     0.04133954    -0.69206544    -0.0040712112 
   4657000   0.051994954   -0.81365762     0.041916893   -0.69379861    -0.004208641  
   4658000   0.054615694   -0.81329383     0.04479141    -0.68663173     0.0025598187 
   4659000   0.056210064   -0.81276933     0.043905849   -0.68460278     0.0042116551 
   4660000   0.05545753    -0.81438468     0.042911914   -0.68834014    -0.0082259093 
   4661000   0.054342754   -0.81314207     0.041978868   -0.68970166    -0.011402271  
   4662000   0.05563924    -0.81149711     0.044352827   -0.68373927     0.0071464592 
   4663000   0.055505294   -0.81284305     0.044548677   -0.68509015    -0.0036146736 
   4664000   0.054803684   -0.81588698     0.043598874   -0.69013561    -0.0018790394 
   4665000   0.055595214   -0.81344751     0.042577097   -0.68753139     0.013301986  
   4666000   0.055817924   -0.81497853     0.041998299   -0.68930736    -0.010518743  
   4667000   0.053514017   -0.81349783     0.042200502   -0.69107809     0.022802477  
   4668000   0.053734693   -0.81295918     0.042940318   -0.68946882     0.0023750253 
   4669000   0.055728044   -0.81585554     0.043845264   -0.68847214    -0.013534473  
   4670000   0.054458707   -0.81481691     0.04250876    -0.69067279     0.018472053  
   4671000   0.054541568   -0.81345738     0.042906685   -0.68879112     0.0064348281 
   4672000   0.054990796   -0.80999543     0.044760502   -0.68280195     0.0061778409 
   4673000   0.055348964   -0.81314356     0.041421265   -0.68875242     0.018553349  
   4674000   0.054064868   -0.8116046      0.04107896    -0.68948065     0.0083777067 
   4675000   0.054964055   -0.81516948     0.039721394   -0.6930552      0.0048009449 
   4676000   0.055807029   -0.81524036     0.043665065   -0.68791876    -0.0072356238 
   4677000   0.054426936   -0.81392597     0.040984875   -0.69135336    -0.0058578215 
   4678000   0.054542546   -0.81347539     0.041173511   -0.69054085    -0.013613324  
   4679000   0.054600989   -0.81194773     0.040842871   -0.68925622     0.0081862332 
   4680000   0.052960479   -0.81563682     0.042291969   -0.69395538     0.00063551795
   4681000   0.052750015   -0.81472974     0.044028589   -0.69162718     0.0037023328 
   4682000   0.055128735   -0.81215441     0.040913049   -0.68860161     0.0025866972 
   4683000   0.052778544   -0.81276639     0.042414075   -0.69123557     0.015540533  
   4684000   0.053642187   -0.8152226      0.042191238   -0.69261999     0.0059422385 
   4685000   0.055058739   -0.81359697     0.041156909   -0.68990523     0.0076517845 
   4686000   0.054819333   -0.81304617     0.04187432    -0.6889959      0.020160023  
   4687000   0.054153734   -0.81264628     0.042701758   -0.68876633     0.01119616   
   4688000   0.055259007   -0.8147616      0.043223778   -0.68870279     0.0095772648 
   4689000   0.054885455   -0.81329431     0.042300912   -0.68871833     0.018017021  
   4690000   0.055014143   -0.81042641     0.043125767   -0.68483266     0.015278753  
   4691000   0.055946807   -0.81325964     0.041925746   -0.68746782     0.031056862  
   4692000   0.053883222   -0.81149762     0.041751098   -0.68897384     0.0031591931 
   4693000   0.056380414   -0.81324446     0.044888552   -0.68383984     0.0078957334 
   4694000   0.057375281   -0.81260738     0.04222846    -0.68437152     0.012535079  
   4695000   0.056243556   -0.8151304      0.042172188   -0.68864731     0.0041076384 
   4696000   0.054057856   -0.81313411     0.041344288   -0.69075535     0.0035864865 
   4697000   0.053850609   -0.815408       0.041186064   -0.69349813    -0.025737495  
   4698000   0.053692491   -0.8119924      0.041598752   -0.68990688    -0.0026089763 
   4699000   0.054924772   -0.81248277     0.042098219   -0.68805055     0.010294928  
   4700000   0.054383215   -0.81246445     0.043161327   -0.68778093     0.00065297176
   4701000   0.054582598   -0.81419967     0.044149631   -0.68822896     0.0063620039 
   4702000   0.053321747   -0.81394986     0.042145231   -0.69187361     0.008478643  
   4703000   0.055275475   -0.81313872     0.042323861   -0.68795514    -0.003174315  
   4704000   0.056331699   -0.81023612     0.042850951   -0.68294213     0.0060877033 
   4705000   0.055591271   -0.81332732     0.042578509   -0.6874157     -0.003524132  
   4706000   0.055116064   -0.81186027     0.043100203   -0.68613931     0.0059137299 
   4707000   0.055127319   -0.8159448      0.043208921   -0.69009825    -0.00042221122
   4708000   0.054960497   -0.81290953     0.043458218   -0.68706376     0.011010116  
   4709000   0.056060455   -0.81248603     0.044223073   -0.68422653     0.0075794007 
   4710000   0.053705149   -0.81429159     0.043047655   -0.69073819     0.0018443856 
   4711000   0.054798482   -0.81516801     0.041515203   -0.69150811     0.0079641308 
   4712000   0.051896978   -0.8134047      0.041504485   -0.69410498     0.012719649  
   4713000   0.05307212    -0.81424691     0.042818272   -0.69187182    -0.0084798713 
   4714000   0.051564253   -0.81521617     0.043382862   -0.69453683    -0.00063045621
   4715000   0.053615477   -0.81494561     0.04216832    -0.69240596     0.0041394412 
   4716000   0.053723187   -0.81395108     0.04166519    -0.6917531     -0.00071197304
   4717000   0.052581776   -0.81333434     0.042524296   -0.69198826     0.015335668  
   4718000   0.054000872   -0.81456316     0.041984515   -0.6916296     -0.0050005943 
   4719000   0.055196051   -0.81359855     0.042050439   -0.68880745     0.012950934  
   4720000   0.05540261    -0.81121245     0.040559666   -0.68760248     0.0040315268 
   4721000   0.052133473   -0.81510525     0.044585199   -0.69237029    -0.010859032  
   4722000   0.05489484    -0.81521572     0.043607836   -0.68931875     0.0023621985 
   4723000   0.056894904   -0.814609       0.042970844   -0.68635086     0.010563037  
   4724000   0.054561445   -0.81042309     0.04222844    -0.68640528     0.0049976447 
   4725000   0.055035408   -0.81294071     0.042496508   -0.68794435     0.01390894   
   4726000   0.052744675   -0.81292356     0.041697247   -0.69216035    -0.0036623361 
   4727000   0.053428374   -0.81392217     0.042013929   -0.69181739    -0.0080726907 
   4728000   0.055501477   -0.81548115     0.044250441   -0.6880322      0.0016854257 
   4729000   0.055438375   -0.81421384     0.041029694   -0.69008023    -0.0001293885 
   4730000   0.052823658   -0.81333733     0.042347864   -0.6918051     -0.0021001135 
   4731000   0.05191123    -0.81312651     0.041692211   -0.69361769     0.022168275  
   4732000   0.054713503   -0.81375777     0.041091682   -0.69064878     0.016601884  
   4733000   0.053835606   -0.81370623     0.044616      -0.68838892    -0.0054434947 
   4734000   0.053022168   -0.81255365     0.041676058   -0.69139565     0.0087363651 
   4735000   0.054198191   -0.81488634     0.040549719   -0.69309179     0.0024577895 
   4736000   0.054429133   -0.81401791     0.044441319   -0.68798556     0.0047340874 
   4737000   0.053969321   -0.81371187     0.041927919   -0.6908822      0.012197925  
   4738000   0.054108751   -0.81454669     0.043427598   -0.69000833     0.0074883409 
   4739000   0.052429357   -0.81309691     0.041916075   -0.69258754     0.0035652917 
   4740000   0.054940803   -0.81265021     0.039752936   -0.69053924     0.022738377  
   4741000   0.055807431   -0.81252149     0.041610839   -0.68725351     0.0088810052 
   4742000   0.056324198   -0.81551729     0.042812422   -0.68827308     0.0055798965 
   4743000   0.054134665   -0.81094461     0.042428369   -0.68736663     0.029193585  
   4744000   0.055258444   -0.81571854     0.04381512    -0.68906922     0.0037162979 
   4745000   0.054726418   -0.81473841     0.042935563   -0.68976618     0.0039404775 
   4746000   0.053236781   -0.81202106     0.042715085   -0.68950232     0.024694325  
   4747000   0.054234897   -0.81268915     0.042302634   -0.68908665     0.010675426  
   4748000   0.055499219   -0.81451779     0.042000345   -0.68932233     0.012206007  
   4749000   0.05490659    -0.81409368     0.041604629   -0.6901823     -0.011516923  
   4750000   0.054725653   -0.81543431     0.042217763   -0.69118103     0.010804377  
   4751000   0.054757179   -0.81357063     0.042840171   -0.68864768     0.0016172391 
   4752000   0.053214371   -0.81355249     0.0433809     -0.69040153     0.0062708839 
   4753000   0.055189447   -0.81197012     0.042778308   -0.68646105     0.012402285  
   4754000   0.053877158   -0.81223416     0.042311652   -0.68915891     0.0025451187 
   4755000   0.054516565   -0.81349924     0.043262783   -0.68851437     0.0042706903 
   4756000   0.05577282    -0.81301291     0.042859752   -0.6865479      0.014389366  
   4757000   0.055773676   -0.81432717     0.045333231   -0.6853874     -0.012299431  
   4758000   0.053880813   -0.81407995     0.043901824   -0.68940905     0.00099807567
   4759000   0.053817767   -0.81533956     0.041231311   -0.69343368     0.0078905533 
   4760000   0.054305884   -0.81346144     0.040512374   -0.69154279     0.0044665066 
   4761000   0.055532356   -0.81572693     0.044816704   -0.68766544     0.014431307  
   4762000   0.054285336   -0.81111031     0.043755979   -0.68597886     0.00066350281
   4763000   0.054855806   -0.81248354     0.044776226   -0.68547669    -0.0062241566 
   4764000   0.055318378   -0.81327499     0.043476821   -0.68687414     0.0044644025 
   4765000   0.055839498   -0.81331555     0.041545382   -0.68806496     0.0070360262 
   4766000   0.054278555   -0.8141651      0.044064012   -0.68873578     0.0029390713 
   4767000   0.054712571   -0.8138361      0.04266393    -0.68915626     0.0032267899 
   4768000   0.053483398   -0.81140968     0.043313798   -0.68792254     0.0072386773 
   4769000   0.053063229   -0.81138599     0.040399565   -0.69144294     0.01157113   
   4770000   0.053081903   -0.8142678      0.043610647   -0.69108567     0.02032285   
   4771000   0.056450501   -0.81363582     0.043027304   -0.68598739     0.010274172  
   4772000   0.054656566   -0.81404465     0.043199967   -0.68891272     0.0097081188 
   4773000   0.055739475   -0.81174477     0.040550075   -0.68763942     0.01229513   
   4774000   0.055882156   -0.8142567      0.040411912   -0.69007563     0.0036765331 
   4775000   0.053732663   -0.81381861     0.041263925   -0.69200769     0.0042160494 
   4776000   0.053982729   -0.81603416     0.040857314   -0.694255       0.0097423549 
   4777000   0.055965232   -0.81351574     0.042991157   -0.68663089     0.01906885   
   4778000   0.056183066   -0.81258704     0.044047932   -0.68431888    -0.0032475702 
   4779000   0.05342467    -0.81580919     0.042286126   -0.69343776     0.013820209  
   4780000   0.052709952   -0.81110574     0.040197727   -0.6918941      0.0040956383 
   4781000   0.054756055   -0.81495144     0.042183736   -0.69068661     0.0022759376 
   4782000   0.052402467   -0.81446053     0.042662974   -0.69324457     0.013944485  
   4783000   0.05313649    -0.81444578     0.042298147   -0.69249432    -0.00089599002
   4784000   0.055604422   -0.81308827     0.040642914   -0.68909254     0.020144637  
   4785000   0.053656567   -0.81438652     0.04421093    -0.68974267     0.0018095333 
   4786000   0.056685172   -0.81410673     0.042315413   -0.68681841     0.0017712778 
   4787000   0.055828285   -0.81500176     0.044058627   -0.68725473    -0.0089908561 
   4788000   0.054164777   -0.81431198     0.042601203   -0.69051603    -0.0041201417 
   4789000   0.055947385   -0.81631374     0.04275159    -0.68969522     0.012316668  
   4790000   0.053687121   -0.81450208     0.042170664   -0.69185269     0.010340928  
   4791000   0.054033527   -0.81423012     0.041342296   -0.69188982     0.001321273  
   4792000   0.054244739   -0.81339278     0.041904031   -0.69017414     0.01022924   
   4793000   0.055903261   -0.81210873     0.043307055   -0.68500088     0.022085314  
   4794000   0.052096273   -0.81412103     0.04614915    -0.68987788     0.017401404  
   4795000   0.052360332   -0.81439776     0.040004885   -0.69590305     0.018915453  
   4796000   0.054699641   -0.81577007     0.042416547   -0.691357       0.0065074076 
   4797000   0.055535214   -0.81132036     0.041043811   -0.68702747     0.0063646121 
   4798000   0.054521559   -0.81479531     0.042591307   -0.69047442     0.0072824357 
   4799000   0.054379163   -0.81373388     0.041122602   -0.69109516    -0.0043901454 
   4800000   0.055074532   -0.81438242     0.041211316   -0.6906126      0.017117523  
   4801000   0.053579064   -0.81144821     0.040419789   -0.69071168     0.020773102  
   4802000   0.053381134   -0.81588989     0.04355586    -0.69231399    -0.0012292618 
   4803000   0.052921225   -0.81465666     0.041049245   -0.69427679     0.0012649973 
   4804000   0.054282413   -0.81344152     0.044408931   -0.6876615      0.012012939  
   4805000   0.055589748   -0.81288617     0.042240323   -0.68731502     0.010607963  
   4806000   0.055239491   -0.81407641     0.044412236   -0.6868584      0.00016842516
   4807000   0.056520791   -0.81396894     0.044402679   -0.68483977    -0.0015957602 
   4808000   0.053973714   -0.81342556     0.044657532   -0.68785969     0.013059157  
   4809000   0.054228241   -0.81507982     0.04474196    -0.68904797     0.011059547  
   4810000   0.05619856    -0.81431165     0.043055976   -0.68701222     0.0047682334 
   4811000   0.05458481    -0.81432286     0.044991812   -0.68750666     0.0051193401 
   4812000   0.053599568   -0.81499605     0.043237887   -0.69141069    -0.010437457  
   4813000   0.055184478   -0.81440391     0.042390174   -0.68929043     0.0056208207 
   4814000   0.054037702   -0.81459094     0.04307152    -0.69051516    -0.001982147  
   4815000   0.053548683   -0.81441833     0.040071001   -0.69407612     0.00021075796
   4816000   0.05517505    -0.81519568     0.043432103   -0.6890544     -0.0017530595 
   4817000   0.05500909    -0.81474886     0.044614828   -0.68767363     0.008442278  
   4818000   0.053830445   -0.81300228     0.041690603   -0.69061811     0.013273971  
   4819000   0.055198392   -0.81629953     0.042898975   -0.69065638     0.0012266904 
   4820000   0.054448743   -0.81601314     0.042669815   -0.69172291    -0.014675983  
   4821000   0.052786777   -0.81481852     0.04291057    -0.69277887     0.006361758  
   4822000   0.054614436   -0.8144293      0.043137655   -0.68942284     0.00043868265
   4823000   0.054599576   -0.81353623     0.042870017   -0.68881968     0.0089084034 
   4824000   0.0535194     -0.81384465     0.041674424   -0.69194292     0.001521557  
   4825000   0.055275841   -0.81592631     0.043696481   -0.68936956    -0.0012901613 
   4826000   0.054265391   -0.81306056     0.042786834   -0.68892815    -0.0036122716 
   4827000   0.054118095   -0.81496269     0.042433049   -0.69140487    -0.0070997157 
   4828000   0.054880565   -0.81497965     0.042785511   -0.6899264      0.020599131  
   4829000   0.052482792   -0.81357383     0.0427889     -0.69211153     0.0079165101 
   4830000   0.053294485   -0.81241082     0.041722465   -0.6907982      0.0069696133 
   4831000   0.054098676   -0.81530786     0.039716692   -0.69449551    -0.004109768  
   4832000   0.054145286   -0.81336113     0.043093832   -0.68910177     0.0094028215 
   4833000   0.052239844   -0.81324196     0.041716534   -0.69321622     0.019594579  
   4834000   0.055525351   -0.81376399     0.042771068   -0.68775863    -0.0011342888 
   4835000   0.054493126   -0.81374251     0.041869469   -0.69018609     0.0023868823 
   4836000   0.054170903   -0.81361836     0.042421055   -0.68999337     0.0090735429 
   4837000   0.053546626   -0.81534119     0.042352298   -0.69272077     0.011375613  
   4838000   0.054093663   -0.81384617     0.041362418   -0.6913956      0.013002739  
   4839000   0.055137574   -0.81451772     0.04063954    -0.69122517     0.0053436064 
   4840000   0.05322722    -0.81198233     0.04193183    -0.69026118     0.0072374973 
   4841000   0.055456469   -0.81307649     0.04195194    -0.68799351     0.011781613  
   4842000   0.055225507   -0.81625421     0.04427571    -0.68919368    -0.0022935529 
   4843000   0.05297763    -0.81423626     0.0436216     -0.69119948     0.0093055506 
   4844000   0.054556078   -0.81123761     0.041657196   -0.6877991      0.0048789776 
   4845000   0.053929095   -0.81576718     0.041191263   -0.69373446     5.4000768e-05
   4846000   0.052910329   -0.81579407     0.042282108   -0.69419767     0.0020672941 
   4847000   0.053338584   -0.81303825     0.042034284   -0.6910477      0.012206773  
   4848000   0.053923027   -0.81403035     0.040019185   -0.69317881     0.0053287777 
   4849000   0.053385131   -0.81597465     0.043610286   -0.69233833    -0.00323415   
   4850000   0.055293986   -0.81321105     0.041753688   -0.68856989     0.0074449436 
   4851000   0.053852077   -0.81411754     0.04223766    -0.69115388     0.015314191  
   4852000   0.053363475   -0.81477955     0.0432047     -0.69158128     0.0061314715 
   4853000   0.053615657   -0.81504163     0.041969037   -0.69270099     0.0043974177 
   4854000   0.0543221     -0.81229716     0.039645689   -0.69122089     0.021975191  
   4855000   0.053693504   -0.81394534     0.043094776   -0.69036227     0.0096512631 
   4856000   0.053193994   -0.81354478     0.041793484   -0.69201178     0.0055940273 
   4857000   0.05545765    -0.81249366     0.041056721   -0.68830413     0.015458706  
   4858000   0.055330238   -0.81551054     0.040949307   -0.69161943     0.017853078  
   4859000   0.052497929   -0.81410281     0.040562171   -0.69484455     0.022966918  
   4860000   0.052363127   -0.81557513     0.039445525   -0.69763559     0.0073476291 
   4861000   0.053841938   -0.81328498     0.041484983   -0.69108919     0.027713241  
   4862000   0.052920431   -0.81420828     0.044245613   -0.69063324     0.010359751  
   4863000   0.05391967    -0.81404698     0.040657604   -0.69256205     0.005194649  
   4864000   0.054672218   -0.81185202     0.042849942   -0.68704666     0.0043467547 
   4865000   0.055129483   -0.81586429     0.044644535   -0.68857889    -0.005811439  
   4866000   0.054694291   -0.8125628      0.042120458   -0.68845384     0.015826219  
   4867000   0.054296754   -0.81334155     0.042470699   -0.68947827     0.003544208  
   4868000   0.055844165   -0.81278606     0.041596478   -0.68747737     0.0064621167 
   4869000   0.054643915   -0.81486328     0.040650862   -0.69229943     0.028286519  
   4870000   0.053925924   -0.81547679     0.043481023   -0.69115907     0.015015717  
   4871000   0.055868047   -0.81237957     0.043896601   -0.68473496     0.0093650274 
   4872000   0.054095015   -0.81540518     0.044424062   -0.68989095    -0.0087765559 
   4873000   0.053605312   -0.81475918     0.043441676   -0.69096141    -0.0084555599 
   4874000   0.054910302   -0.81429444     0.039731917   -0.69225021     0.012175827  
   4875000   0.05604459    -0.81426096     0.042282419   -0.68796589    -0.0072963027 
   4876000   0.054742395   -0.81519193     0.044098481   -0.68903284    -0.0078148809 
   4877000   0.053417884   -0.81375124     0.043832987   -0.68984312     0.001687559  
   4878000   0.052372701   -0.81355735     0.041905788   -0.69314319    -0.011004098  
   4879000   0.054503047   -0.8148545      0.042448728   -0.69070395    -0.0018227041 
   4880000   0.054297726   -0.81353071     0.0427748     -0.68936187     0.0091245159 
   4881000   0.052613515   -0.81385054     0.041995813   -0.69298537     0.020795356  
   4882000   0.053175753   -0.81348348     0.043243273   -0.69052804     0.033565185  
   4883000   0.055483751   -0.81438639     0.041711518   -0.68950294     0.025570368  
   4884000   0.05384309    -0.81213316     0.043349812   -0.68807082     0.03297895   
   4885000   0.052255568   -0.81494101     0.04005758    -0.69655065     0.011598905  
   4886000   0.055254215   -0.81536616     0.04120146    -0.69133685     0.053897626  
   4887000   0.054755504   -0.81304201     0.043428656   -0.68753308     0.019457524  
   4888000   0.052239348   -0.81378524     0.042890661   -0.69258611    -0.0039737363 
   4889000   0.054608727   -0.81339938     0.041054603   -0.69048453     0.016636381  
   4890000   0.051580457   -0.81281877     0.0422014     -0.69329661     0.01965998   
   4891000   0.053277376   -0.81522665     0.041999425   -0.69336272     0.0031814341 
   4892000   0.054447819   -0.81272341     0.040135066   -0.69096931     0.025043342  
   4893000   0.054147198   -0.81300513     0.040835904   -0.69100083     0.028510983  
   4894000   0.053806393   -0.81439151     0.043348032   -0.69038596     0.015393908  
   4895000   0.053952461   -0.81317279     0.042012682   -0.69028363     0.007200734  
   4896000   0.054954972   -0.81460181     0.040550213   -0.69167232     0.0097717108 
   4897000   0.052875239   -0.81359684     0.042004272   -0.69233088     0.0086635176 
   4898000   0.052800217   -0.81274279     0.043164577   -0.69042898     0.013652223  
   4899000   0.053728514   -0.81450901     0.041583364   -0.69238487     0.010618581  
   4900000   0.054675382   -0.81298659     0.041265161   -0.68976127     0.030239024  
   4901000   0.054558249   -0.81442524     0.042559494   -0.69008117     0.023834264  
   4902000   0.053954615   -0.81282284     0.041196157   -0.69074697     0.028441857  
   4903000   0.054892745   -0.81417177     0.042132017   -0.68975376     0.0050037569 
   4904000   0.052968603   -0.81526737     0.043127772   -0.69273795     0.0054743563 
   4905000   0.054379129   -0.81181643     0.044956886   -0.68534348     0.035544501  
   4906000   0.05552272    -0.81590706     0.041871928   -0.69080478     0.026282983  
   4907000   0.055263854   -0.8148801      0.041639642   -0.69039815     0.025408635  
   4908000   0.054547265   -0.8128697      0.04225828    -0.68884331     0.033058662  
   4909000   0.054109099   -0.81424251     0.042816653   -0.69031457     0.0074953502 
   4910000   0.053902313   -0.81378165     0.042811747   -0.69016859    -0.00096098923
   4911000   0.05492374    -0.81455906     0.041318714   -0.69090789     0.028499584  
   4912000   0.056612555   -0.81500135     0.040061517   -0.69007579     0.031586618  
   4913000   0.053901529   -0.81359947     0.042879643   -0.6899197      0.011784947  
   4914000   0.053213527   -0.81406176     0.041766517   -0.69252645     0.0099714025 
   4915000   0.052865532   -0.81432408     0.040827122   -0.69424982     0.019185161  
   4916000   0.052314094   -0.81472794     0.040540674   -0.69576675     0.018961086  
   4917000   0.055312296   -0.81348614     0.042712005   -0.68785922     0.014177385  
   4918000   0.055167065   -0.81210979     0.042338895   -0.68707369     0.0075106809 
   4919000   0.055573867   -0.81425818     0.041485325   -0.68946583     0.0083605804 
   4920000   0.053508864   -0.81424242     0.044121866   -0.68990904     0.024685019  
   4921000   0.05402969    -0.81391239     0.043087743   -0.6898324      0.030369988  
   4922000   0.051529216   -0.81351571     0.04078059    -0.69549117     0.020978351  
   4923000   0.05135076    -0.81340732     0.042736637   -0.69369423     0.013532799  
   4924000   0.054027952   -0.81496973     0.044520316   -0.68945977     0.00027782273
   4925000   0.052843008   -0.81375803     0.04311086    -0.6914338     -0.0047456837 
   4926000   0.052333613   -0.81084083     0.042149044   -0.69024201     0.0095131577 
   4927000   0.0542382     -0.81533112     0.043022174   -0.69100414     0.0014396046 
   4928000   0.05260106    -0.81315357     0.044039983   -0.6902629     -0.00028446178
   4929000   0.055266357   -0.81022039     0.043216731   -0.68415761     0.02023175   
   4930000   0.054704789   -0.8122268      0.042884157   -0.6873384      0.020174362  
   4931000   0.056044115   -0.813123       0.042234655   -0.68687641     0.021398675  
   4932000   0.055673704   -0.81314048     0.044872136   -0.68481167     0.022342839  
   4933000   0.053134125   -0.81312799     0.044517231   -0.68896099     0.025373933  
   4934000   0.053983545   -0.81439275     0.042716373   -0.6907533     -0.0046337876 
   4935000   0.053247163   -0.81364829     0.044106789   -0.68972228     0.012637179  
   4936000   0.056626945   -0.81505895     0.041841335   -0.688332       0.020775744  
   4937000   0.055299731   -0.81364593     0.041715189   -0.68903466     0.012425156  
   4938000   0.056338066   -0.81506579     0.043326968   -0.68728624     0.020130453  
   4939000   0.054019678   -0.81381139     0.040130772   -0.69270338     0.011794352  
   4940000   0.054633897   -0.81448979     0.042241616   -0.6903502     -0.0060528259 
   4941000   0.053710754   -0.81383131     0.0421316     -0.69118556     0.0034162822 
   4942000   0.053219155   -0.81307694     0.044176557   -0.68912315     0.00038823058
   4943000   0.055058385   -0.81418716     0.042953213   -0.68869965     0.013555084  
   4944000   0.056638586   -0.81192958     0.042373754   -0.68465276     0.035308877  
   4945000   0.052670057   -0.81176135     0.041474565   -0.69133267     0.0076144295 
   4946000   0.053119013   -0.81396356     0.043864985   -0.69047146     0.031556978  
   4947000   0.053698265   -0.81501342     0.041623756   -0.69289423     0.018478573  
   4948000   0.056143482   -0.81450784     0.042855699   -0.68749125     0.0085906537 
   4949000   0.05537513    -0.81387882     0.043899075   -0.68697064     0.01199755   
   4950000   0.054723658   -0.81214097     0.042096307   -0.68801214     0.0039672697 
   4951000   0.055070485   -0.8140073      0.042318703   -0.68913616     0.018171294  
   4952000   0.05544059    -0.81409935     0.042076785   -0.68891534     0.024258841  
   4953000   0.056084096   -0.8141401      0.043064525   -0.6870037      0.0061176105 
   4954000   0.053765963   -0.8150079      0.043254686   -0.6911563      0.023462036  
   4955000   0.055052416   -0.81217042     0.042771848   -0.68687322     0.026806838  
   4956000   0.055031429   -0.8134831      0.044610776   -0.68637844     0.028029673  
   4957000   0.055343837   -0.81484782     0.042090296   -0.68979533     0.0070534446 
   4958000   0.055050052   -0.81324017     0.04275339    -0.68796497     0.024847322  
   4959000   0.053052313   -0.81364926     0.04102087    -0.69310126     0.023593241  
   4960000   0.052973246   -0.81596671     0.041406652   -0.69515145     0.020028987  
   4961000   0.052769738   -0.81443771     0.041816458   -0.69351771     0.038722641  
   4962000   0.053491748   -0.81390133     0.042521799   -0.69119368     0.018641587  
   4963000   0.054812734   -0.81658224     0.041500102   -0.69291608     0.030147532  
   4964000   0.052715309   -0.81363939     0.04192094    -0.6926965      0.025003065  
   4965000   0.053806912   -0.81506645     0.03969747    -0.69471069     0.010630296  
   4966000   0.054487264   -0.81456281     0.040227153   -0.69265749     0.030206854  
   4967000   0.053773751   -0.81502121     0.041376307   -0.69303631     0.01885107   
   4968000   0.054892418   -0.81406307     0.041312437   -0.69046513     0.030746592  
   4969000   0.053362826   -0.81422254     0.041836638   -0.69239331     0.021801947  
   4970000   0.053217659   -0.81251993     0.040610502   -0.69213444     0.045097537  
   4971000   0.054980461   -0.81413815     0.041341524   -0.69037914     0.024240809  
   4972000   0.055004507   -0.81294406     0.041081295   -0.68940923     0.036537211  
   4973000   0.05374476    -0.81268059     0.042182276   -0.68993318     0.0094555873 
   4974000   0.054973282   -0.81391377     0.043066147   -0.6884409      0.028770711  
   4975000   0.055155407   -0.8143631      0.04372499    -0.68795837     0.027576957  
   4976000   0.053591878   -0.81372176     0.041244577   -0.69214123     0.026381047  
   4977000   0.053850062   -0.81188519     0.040804556   -0.69035766     0.026314979  
   4978000   0.053217724   -0.8119345      0.042868717   -0.68929069     0.022622928  
   4979000   0.053350489   -0.81429553     0.041874733   -0.69244669     0.028089817  
   4980000   0.051984054   -0.81563149     0.043084827   -0.69462089     0.018972413  
   4981000   0.054559415   -0.81074837     0.042734738   -0.68622731     0.015007207  
   4982000   0.054539597   -0.81427916     0.043977135   -0.68854541     0.01176245   
   4983000   0.055212579   -0.81225769     0.041117108   -0.68837514     0.03373475   
   4984000   0.055919592   -0.81254616     0.042821308   -0.68589958     0.01404522   
   4985000   0.056408126   -0.81345148     0.04314845    -0.68574543     0.027983696  
   4986000   0.056104482   -0.81354736     0.04296586    -0.68647907     0.010880464  
   4987000   0.05326029    -0.813101       0.042930647   -0.69033146     0.021695001  
   4988000   0.05637298    -0.81386129     0.042690684   -0.68666569     0.033785971  
   4989000   0.052916677   -0.81415489     0.042212524   -0.69261856     0.018952398  
   4990000   0.05433765    -0.81362358     0.042661203   -0.68950849     0.02733149   
   4991000   0.054851704   -0.81522915     0.040934659   -0.69207002     0.0032909324 
   4992000   0.053853018   -0.81537131     0.043237229   -0.69140667     0.034572982  
   4993000   0.054870628   -0.81484106     0.044666652   -0.68792157     0.012265861  
   4994000   0.055429608   -0.81202362     0.043555701   -0.68537714     0.038239931  
   4995000   0.05491084    -0.8132882      0.041520384   -0.6894547      0.022811908  
   4996000   0.053419535   -0.81514071     0.044309722   -0.69075338     0.013557312  
   4997000   0.053150344   -0.81412912     0.042143157   -0.69231188     0.017343011  
   4998000   0.055042733   -0.81186359     0.042818328   -0.68653443     0.012810895  
   4999000   0.055411517   -0.81236695     0.041931651   -0.68737165     0.037752857  
   5000000   0.054864672   -0.81435248     0.041473251   -0.69063531     0.018947921  
   5001000   0.055050868   -0.81318509     0.041040916   -0.68962114     0.027098143  
   5002000   0.055405932   -0.81292478     0.041957222   -0.68791227     0.020173811  
   5003000   0.055654238   -0.81303331     0.045450877   -0.68415494     0.016275525  
   5004000   0.057003522   -0.81578789     0.042639722   -0.68769805     0.012065037  
   5005000   0.054434965   -0.81218553     0.041257938   -0.68932782     0.024552971  
   5006000   0.056331862   -0.81422665     0.04257098    -0.68721239     0.0019092633 
   5007000   0.054169723   -0.81550707     0.04227643    -0.69202848     0.016770199  
   5008000   0.052658261   -0.8137962      0.04168703    -0.69317273     0.025797206  
   5009000   0.053280013   -0.81399786     0.04108326    -0.69304614     0.013676065  
   5010000   0.05165541    -0.81398171     0.045236081   -0.6913125      0.02104462   
   5011000   0.054637022   -0.81423006     0.042644232   -0.68968317     0.018089748  
   5012000   0.053502556   -0.8139608      0.043344783   -0.69041396     0.01184436   
   5013000   0.053573019   -0.81437824     0.043642524   -0.69042803     0.0056967461 
   5014000   0.056268128   -0.81327731     0.040456398   -0.68847317     0.011205356  
   5015000   0.053414681   -0.81292531     0.04160507    -0.69124991     0.016214691  
   5016000   0.05514109    -0.81427368     0.04413078    -0.68748463     0.0010568755 
   5017000   0.05307371    -0.81332371     0.044158047   -0.68960646     0.013050246  
   5018000   0.055724664   -0.81523714     0.045253896   -0.68645017     0.022335705  
   5019000   0.052757632   -0.8154353      0.043241883   -0.69310803     0.015447178  
   5020000   0.054570342   -0.81394696     0.043418476   -0.68872578     0.0030981836 
   5021000   0.054386396   -0.8140993      0.043997451   -0.68857489     0.0076671079 
   5022000   0.054736349   -0.81483178     0.042245825   -0.6905344     -7.4220519e-06
   5023000   0.05477198    -0.81344704     0.042611691   -0.68873039     0.0023456503 
   5024000   0.054756064   -0.81187126     0.041763895   -0.68802626     0.0042568476 
   5025000   0.054252564   -0.81299688     0.042747977   -0.68892256     0.0019212642 
   5026000   0.053670928   -0.81447003     0.044386266   -0.68962931    -0.0059754727 
   5027000   0.053782744   -0.81321622     0.043147364   -0.68944679     0.025031879  
   5028000   0.054411545   -0.81511574     0.044514552   -0.68903652     0.029283962  
   5029000   0.052799592   -0.81423251     0.04074567    -0.69433855     0.017717496  
   5030000   0.054504736   -0.81378589     0.043556189   -0.68852535     0.015485527  
   5031000   0.05359287    -0.81306636     0.044657814   -0.6880711      0.012550945  
   5032000   0.05609765    -0.81385574     0.043700936   -0.68606261     0.013218896  
   5033000   0.055813984   -0.81563505     0.042465834   -0.68950225    -0.0045405924 
   5034000   0.054671609   -0.81299352     0.041948733   -0.68909028     0.026072234  
   5035000   0.052365116   -0.81254251     0.041810462   -0.69223505     0.016931957  
   5036000   0.053035895   -0.81339977     0.044429414   -0.68946784     0.027365402  
   5037000   0.052419843   -0.81421405     0.042655058   -0.69297996     0.016141277  
   5038000   0.053728484   -0.81310077     0.044327817   -0.68823222     0.022563013  
   5039000   0.053346272   -0.81277244     0.042074656   -0.69073        0.014805907  
   5040000   0.054794943   -0.81313888     0.042016894   -0.6889826     -0.010829651  
   5041000   0.055648769   -0.81430784     0.043184501   -0.68770404     0.015278279  
   5042000   0.056439334   -0.81310334     0.042147582   -0.68635138     0.0027730713 
   5043000   0.055116187   -0.81398596     0.043107892   -0.68825713     0.0059186108 
   5044000   0.053280102   -0.81286634     0.041342171   -0.69165558     0.0083041155 
   5045000   0.052450566   -0.81140498     0.04182724    -0.69095265     0.013352783  
   5046000   0.054190297   -0.8150628      0.041639549   -0.69219025     0.02783718   
   5047000   0.053117794   -0.81478204     0.044020369   -0.69113639     0.015612383  
   5048000   0.056004133   -0.81457463     0.040605821   -0.69001681     0.018302558  
   5049000   0.053393473   -0.81326472     0.040878467   -0.69234771     0.027618949  
   5050000   0.054276341   -0.81386945     0.042342365   -0.6901651      0.021675962  
   5051000   0.053696869   -0.81478945     0.039281159   -0.69501496     0.017668107  
   5052000   0.052892193   -0.81434694     0.043368434   -0.6916914     -0.00039372439
   5053000   0.053200342   -0.81253282     0.042437496   -0.69034629     0.00546827   
   5054000   0.055153974   -0.81450697     0.041612381   -0.690217       0.0016268361 
   5055000   0.055349645   -0.81249805     0.041990666   -0.68753648     0.00595365   
   5056000   0.055595982   -0.81325582     0.04259401    -0.68732164     0.0154995    
   5057000   0.05426307    -0.81443467     0.044989126   -0.68810345    -0.0034572293 
   5058000   0.055104816   -0.81471007     0.043990095   -0.68811608     0.0072393538 
   5059000   0.057273476   -0.81440948     0.042687213   -0.68586748     0.014457397  
   5060000   0.055847139   -0.81242344     0.041059848   -0.68764693     0.011118114  
   5061000   0.054476117   -0.81477591     0.041323621   -0.69179083    -0.0024922602 
   5062000   0.05354787    -0.8155169      0.041508815   -0.6937381      0.0080628808 
   5063000   0.05503544    -0.8132491      0.041686938   -0.68906226     0.043518603  
   5064000   0.055392648   -0.81363032     0.04416564    -0.68642932     0.00060963272
   5065000   0.05526669    -0.81397085     0.041047568   -0.69007673     0.012164887  
   5066000   0.053948557   -0.81260992     0.042546261   -0.68919303     0.020851417  
   5067000   0.054869239   -0.81476266     0.043912791   -0.68859911    -0.0071978227 
   5068000   0.052773661   -0.81205611     0.041108244   -0.69183845     0.014346422  
   5069000   0.052847164   -0.81499122     0.041980955   -0.69379066     0.022200913  
   5070000   0.05290649    -0.81490967     0.042430309   -0.69317083     0.0085670147 
   5071000   0.051736566   -0.81359295     0.041208169   -0.69483        0.027232304  
   5072000   0.053548612   -0.81499939     0.041911327   -0.69281697     0.0045068114 
   5073000   0.052882695   -0.81539702     0.04374693    -0.69237723     0.014334632  
   5074000   0.053475186   -0.8143715      0.042198099   -0.69201237     0.012543457  
   5075000   0.052644857   -0.81523986     0.039935397   -0.69638812     0.033926974  
   5076000   0.050861162   -0.81467147     0.043449202   -0.69497974     0.028455232  
   5077000   0.052252146   -0.81349908     0.041760242   -0.69341119     0.010105253  
   5078000   0.05545472    -0.81301659     0.04159346    -0.68829471     0.036257625  
   5079000   0.054901457   -0.8137346      0.041011526   -0.69042401     0.014656755  
   5080000   0.053762358   -0.8137611      0.044627879   -0.68854171     0.025796603  
   5081000   0.053645329   -0.8128227      0.04065769    -0.69174893     0.046731297  
   5082000   0.055833519   -0.81127861     0.043271808   -0.68431056     0.0068134591 
   5083000   0.056313587   -0.8145196      0.043701561   -0.68640216     0.017044832  
   5084000   0.055153237   -0.81162263     0.044809002   -0.68413715     0.0035712563 
   5085000   0.055138632   -0.81457743     0.040539627   -0.69138321     0.0071599945 
   5086000   0.054502865   -0.81410973     0.042840349   -0.68956782    -0.013651639  
   5087000   0.055431725   -0.81399226     0.043650137   -0.68724818    -0.0014290673 
   5088000   0.054139282   -0.81348044     0.042864348   -0.68945957     0.0020763474 
   5089000   0.052019954   -0.81299413     0.043577257   -0.69143728     0.014402853  
   5090000   0.054347408   -0.81328176     0.041757071   -0.69005617     0.022503509  
   5091000   0.053797364   -0.81535468     0.042687329   -0.69202336     0.024631392  
   5092000   0.054086329   -0.81522549     0.042153787   -0.69199455     0.024986767  
   5093000   0.053745084   -0.81343922     0.04234975    -0.69052386     0.028311619  
   5094000   0.054061485   -0.81433307     0.042051743   -0.69124142     0.039377098  
   5095000   0.051849847   -0.81297058     0.039780917   -0.69546507     0.0027418356 
   5096000   0.05378095    -0.81347841     0.040737557   -0.69212148     0.011405714  
   5097000   0.053325446   -0.81497531     0.042545493   -0.69249325     0.0093271214 
   5098000   0.053794764   -0.81331452     0.03969694    -0.69297749     0.012466939  
   5099000   0.053539025   -0.81369344     0.043481846   -0.68995486     0.020550779  
   5100000   0.054609195   -0.81408119     0.042864378   -0.68935587     0.016816665  
   5101000   0.051291908   -0.81202024     0.043757441   -0.69137458     0.01787944   
   5102000   0.053641666   -0.81408831     0.041633381   -0.69204434     0.0053391192 
   5103000   0.05382307    -0.81446439     0.042497      -0.69128487     0.022519222  
   5104000   0.054469878   -0.81254547     0.041058587   -0.68983478     0.019137118  
   5105000   0.056635748   -0.81201905     0.04120665    -0.68591359     0.067475523  
   5106000   0.05313863    -0.81424158     0.043759486   -0.69082557     0.042934126  
   5107000   0.053144799   -0.81167804     0.042822129   -0.68919014     0.01402579   
   5108000   0.05396175    -0.81372862     0.042309474   -0.69052874     0.021862206  
   5109000   0.053257617   -0.81240622     0.04126975    -0.69130159     0.013022388  
   5110000   0.054934005   -0.81468996     0.041995408   -0.6903467      0.015120643  
   5111000   0.055534985   -0.81253365     0.042180746   -0.68710417     0.010772478  
   5112000   0.054307915   -0.81399949     0.041143629   -0.69144654     0.0066878466 
   5113000   0.054011416   -0.81353468     0.042354423   -0.69021541     0.020213514  
   5114000   0.053440139   -0.81555879     0.042911979   -0.69253832     0.0038598355 
   5115000   0.05747343    -0.81260345     0.041483407   -0.68496552    -0.0064584935 
   5116000   0.055457305   -0.81221953     0.040947576   -0.68813967     0.01204239   
   5117000   0.05460263    -0.81411066     0.042507445   -0.68975211     0.0050559631 
   5118000   0.05820018    -0.81162394     0.042685715   -0.68169428     0.014014097  
   5119000   0.055084333   -0.81489471     0.045223121   -0.6870984     -0.0022575199 
   5120000   0.054772854   -0.81141701     0.044337138   -0.6849736      0.0097023739 
   5121000   0.053825825   -0.81326657     0.041592925   -0.690987       0.019138993  
   5122000   0.05470423    -0.81360457     0.041300899   -0.69030026     0.0056635835 
   5123000   0.053975421   -0.81493708     0.041885133   -0.69214105     0.011134446  
   5124000   0.05323629    -0.81209974     0.042710383   -0.68958645     0.0015785012 
   5125000   0.056229957   -0.81269751     0.042461392   -0.6859456      0.018636921  
   5126000   0.05567374    -0.81522302     0.044750553   -0.68701574    -0.010563295  
   5127000   0.055706893   -0.81505892     0.044404741   -0.68714775     0.010160707  
   5128000   0.055144467   -0.81509159     0.041118047   -0.69131021     0.0012278009 
   5129000   0.053908113   -0.81433656     0.043537983   -0.68998858     0.019066367  
   5130000   0.054836761   -0.81330825     0.042026706   -0.68907947     0.018480871  
   5131000   0.055907283   -0.81321632     0.044517289   -0.68489221     0.021107465  
   5132000   0.054931514   -0.81261028     0.043584049   -0.68668212    -0.00088198806
   5133000   0.057605961   -0.81665219     0.04233374    -0.68796525     0.019194189  
   5134000   0.055981744   -0.81303092     0.042420409   -0.68669207     0.03095939   
   5135000   0.055670922   -0.81549333     0.04278359    -0.68925723     0.020435981  
   5136000   0.053835891   -0.81424318     0.043685816   -0.68985563     0.005962951  
   5137000   0.053479577   -0.81117143     0.042356343   -0.68864748     0.012108767  
   5138000   0.054087056   -0.81365136     0.041484689   -0.69108843     0.013731433  
   5139000   0.053680208   -0.81471557     0.042143965   -0.69210324     0.00059874397
   5140000   0.05395111    -0.81035367     0.04151056    -0.68796866     0.028607376  
   5141000   0.053289579   -0.81311629     0.041834113   -0.69139938    -0.0013397062 
   5142000   0.054192948   -0.81435504     0.041692666   -0.6914254     -0.0009163569 
   5143000   0.054232697   -0.81338762     0.041067296   -0.69102376     0.039937807  
   5144000   0.05116265    -0.81320883     0.04486997    -0.69164439     0.015084663  
   5145000   0.055985735   -0.81227731     0.040437168   -0.68791572     0.022120057  
   5146000   0.054733922   -0.81222222     0.041842371   -0.68833194     0.011022073  
   5147000   0.054916006   -0.81297093     0.043148054   -0.68750202     0.026427281  
   5148000   0.053235214   -0.81341289     0.039502483   -0.69410911     0.020393286  
   5149000   0.054747933   -0.81315844     0.041975926   -0.6891136      0.0071937259 
   5150000   0.053540553   -0.81292726     0.041529813   -0.69113843     0.012833414  
   5151000   0.053995345   -0.81427147     0.042364566   -0.69096614     0.020922109  
   5152000   0.054053783   -0.81268387     0.043036168   -0.68861934     0.0021260835 
   5153000   0.0551569     -0.81266835     0.043287102   -0.68669928     0.019574397  
   5154000   0.054651183   -0.81222472     0.043181999   -0.68711883     0.016537926  
   5155000   0.054595161   -0.81186634     0.042038396   -0.68798804     0.0025129382 
   5156000   0.053128394   -0.81471219     0.044465824   -0.69060519     0.0023933565 
   5157000   0.055211693   -0.81370636     0.042100746   -0.68884151     0.0010512569 
   5158000   0.052657169   -0.81535858     0.042536534   -0.69388725     0.007198445  
   5159000   0.053677789   -0.81419406     0.042719385   -0.69100994     0.0067534359 
   5160000   0.054014427   -0.81349529     0.043810298   -0.68871563    -0.0045936895 
   5161000   0.055667608   -0.81614966     0.0425929     -0.69010922    -0.00094066739
   5162000   0.052158981   -0.81275606     0.041821878   -0.69274619     0.014730491  
   5163000   0.053996376   -0.81462701     0.043780446   -0.68990425    -0.0033145591 
   5164000   0.056300181   -0.81481799     0.042392679   -0.68802952    -0.014652656  
   5165000   0.054909242   -0.81462327     0.044586947   -0.6877256      0.027748994  
   5166000   0.05587574    -0.81639249     0.040025782   -0.69260717     0.027482119  
   5167000   0.053450879   -0.81388399     0.042089912   -0.69166949    -0.0054383315 
   5168000   0.055174722   -0.81076972     0.041784154   -0.68627688     0.0036486972 
   5169000   0.053636138   -0.81682927     0.041754921   -0.69467204    -0.0054802919 
   5170000   0.055524367   -0.8135133      0.042537367   -0.68774311     0.006772045  
   5171000   0.055368344   -0.81305716     0.04393298    -0.68612524     0.013137761  
   5172000   0.05531154    -0.81337433     0.043722568   -0.68673797     0.014305304  
   5173000   0.054761676   -0.8128246      0.044406904   -0.68632818     0.0025100356 
   5174000   0.054772409   -0.81239294     0.043258357   -0.68702897    -0.015756467  
   5175000   0.05428061    -0.81181638     0.041570922   -0.68887707     0.0085440022 
   5176000   0.054368728   -0.81275596     0.042099606   -0.68915588     0.025183365  
   5177000   0.05384354    -0.81447536     0.041431694   -0.69233046     0.0030368308 
   5178000   0.054092552   -0.81220002     0.040664802   -0.69044874     0.017140316  
   5179000   0.053622807   -0.81471466     0.042840438   -0.6914919      0.010185078  
   5180000   0.053025827   -0.81342828     0.042320359   -0.69162049     0.011513039  
   5181000   0.053796403   -0.81320616     0.041439235   -0.69112438     0.023487684  
   5182000   0.053247302   -0.81274874     0.043911469   -0.68901785     0.03473213   
   5183000   0.055245525   -0.81378564     0.042282253   -0.68868856     0.012888927  
   5184000   0.052200149   -0.81452579     0.044475226   -0.69180086     0.035083761  
   5185000   0.054526619   -0.81399324     0.041221063   -0.69103502     0.010058213  
   5186000   0.053397788   -0.81425668     0.044130022   -0.69008165     0.018494988  
   5187000   0.055084827   -0.81342004     0.042984084   -0.68786202     0.00667786   
   5188000   0.055212093   -0.81138365     0.041294429   -0.68732451     0.029761174  
   5189000   0.052769988   -0.81503316     0.041558645   -0.6943706      0.0047356288 
   5190000   0.056514566   -0.8152426      0.041828395   -0.68869705     0.016761476  
   5191000   0.055588394   -0.8157607      0.041730427   -0.69070148     0.021692185  
   5192000   0.052927152   -0.81113485     0.04778096    -0.68401438     0.00097135366
   5193000   0.054701767   -0.81478811     0.042070286   -0.69071811     0.024677662  
   5194000   0.056022043   -0.81317404     0.041086924   -0.68810827     0.01610053   
   5195000   0.053805849   -0.81387609     0.042741863   -0.69047752     0.028010633  
   5196000   0.054119368   -0.81619428     0.041209393   -0.69385821    -0.0062954581 
   5197000   0.054877754   -0.8141848      0.043663078   -0.68825819     0.013609839  
   5198000   0.055535935   -0.81580493     0.041928708   -0.69062607     0.018829849  
   5199000   0.054550719   -0.81551659     0.042118632   -0.69162467     8.9960877e-05
   5200000   0.053522722   -0.81467876     0.043449598   -0.69099688     0.025645884  
   5201000   0.054911428   -0.81324838     0.041039301   -0.68989508     0.021883679  
   5202000   0.053390404   -0.8149386      0.046262178   -0.68864248     0.01547441   
   5203000   0.05414529    -0.81350097     0.042984654   -0.68935078     0.024029415  
   5204000   0.056392284   -0.81543266     0.045535157   -0.68536365     0.021650143  
   5205000   0.055512257   -0.81411848     0.044472979   -0.68643084     0.018928826  
   5206000   0.05366314    -0.81514937     0.045285129   -0.68942146     0.013169141  
   5207000   0.055761386   -0.81467716     0.042989332   -0.68809971     0.021239554  
   5208000   0.05394884    -0.81166982     0.041031109   -0.68976766     0.019686217  
   5209000   0.054209405   -0.813731       0.042988924   -0.68948043     0.042149991  
   5210000   0.054102953   -0.81397007     0.042573779   -0.69029422     0.034063412  
   5211000   0.052938898   -0.81333698     0.043351129   -0.69062873     0.024386964  
   5212000   0.056107553   -0.81376622     0.043322238   -0.68633695     0.02239316   
   5213000   0.05554268    -0.81300722     0.043872801   -0.68587415     0.021247774  
   5214000   0.0542717     -0.81495484     0.042066208   -0.6915336      0.056777974  
   5215000   0.055557097   -0.8147324      0.042391987   -0.68905853     0.011408044  
   5216000   0.054555944   -0.81562429     0.041640101   -0.69220307     0.016320622  
   5217000   0.056324232   -0.81557714     0.044232574   -0.68691273    -0.00033164698
   5218000   0.056556339   -0.81375146     0.042159921   -0.68681176     0.017130833  
   5219000   0.053849198   -0.81337002     0.042641028   -0.69000731     0.013556654  
   5220000   0.054590998   -0.8135612      0.039497994   -0.69222954     0.035174387  
   5221000   0.05344022    -0.81493126     0.042774068   -0.69204858     0.0099465471 
   5222000   0.051598646   -0.81368029     0.042570236   -0.69376202     0.011927059  
   5223000   0.055108847   -0.81271413     0.041578909   -0.68852528     0.055160452  
   5224000   0.052887865   -0.81449032     0.040033497   -0.6951762      0.017358984  
   5225000   0.053053922   -0.81434526     0.041940116   -0.69287561     0.028785484  
   5226000   0.053917571   -0.81602215     0.041068359   -0.69412961     0.015941701  
   5227000   0.052832072   -0.81215657     0.044280876   -0.68867871     0.016287478  
   5228000   0.053960496   -0.81200604     0.043467503   -0.68765002     0.027865396  
   5229000   0.054146497   -0.80955399     0.043560586   -0.68482606     0.026583471  
   5230000   0.05531805    -0.81341611     0.044056689   -0.68643587    -0.0026103106 
   5231000   0.056434209   -0.814489       0.042636965   -0.68725533     0.0024426247 
   5232000   0.053335668   -0.81476007     0.043940125   -0.69086806     0.013454587  
   5233000   0.053178525   -0.81631806     0.042718737   -0.693883       0.01908344   
   5234000   0.053991988   -0.81601491     0.039657276   -0.6954219      0.025718271  
   5235000   0.053592575   -0.81313467     0.04212369    -0.69067398     0.012492392  
   5236000   0.054896299   -0.81510334     0.041348587   -0.69146343     0.0050343075 
   5237000   0.05414709    -0.81483865     0.043036925   -0.69063349     0.0039053711 
   5238000   0.054278869   -0.81389675     0.044725513   -0.68780546    -0.013895749  
   5239000   0.05457108    -0.81534937     0.043223215   -0.69032234     0.034676824  
   5240000   0.054756188   -0.81461187     0.042121068   -0.69040951     0.023991059  
   5241000   0.054856408   -0.8141146      0.044557529   -0.68732555    -0.0020646371 
   5242000   0.05436897    -0.81435943     0.042290622   -0.69056797     0.033703681  
   5243000   0.054862562   -0.81267413     0.042734542   -0.68769883     0.025130817  
   5244000   0.054319028   -0.81552966     0.043014936   -0.69108875     0.030007594  
   5245000   0.052812051   -0.81181024     0.041705902   -0.69093737     0.0083339939 
   5246000   0.053954233   -0.81062385     0.041409681   -0.68833504     0.015673272  
   5247000   0.052273783   -0.81499389     0.043438576   -0.69319522     0.019890646  
   5248000   0.053672819   -0.81346435     0.04137792    -0.69162915     0.00603359   
   5249000   0.05616498    -0.81346471     0.043562524   -0.68570906    -0.0054679215 
   5250000   0.053018169   -0.81265308     0.042023419   -0.69115371     0.0074707743 
   5251000   0.053172544   -0.81342572     0.04330746    -0.6904109      0.012615228  
   5252000   0.054664096   -0.81476269     0.043093149   -0.68972629     0.012759745  
   5253000   0.053250223   -0.81472525     0.044374122   -0.69052732     0.020241547  
   5254000   0.054102827   -0.8145486      0.041278543   -0.69216818     0.022019114  
   5255000   0.053649203   -0.81351115     0.041376204   -0.69171306     0.026264569  
   5256000   0.054304561   -0.81164943     0.042783904   -0.68746124     0.040032329  
   5257000   0.055753759   -0.81435916     0.04204537    -0.6887371      0.033141474  
   5258000   0.053075017   -0.81616091     0.043131997   -0.69346775     0.0058686506 
   5259000   0.054297588   -0.81218503     0.042471226   -0.68831997     0.020320199  
   5260000   0.051828609   -0.81191984     0.043940736   -0.69028634     0.0047703862 
   5261000   0.053784113   -0.81328354     0.043078319   -0.6895811      0.016210224  
   5262000   0.052613652   -0.81363195     0.042696993   -0.69206539     0.010292977  
   5263000   0.05398608    -0.81520298     0.042603108   -0.691673       0.01695312   
   5264000   0.05316859    -0.81388158     0.043668874   -0.69051127     0.015432054  
   5265000   0.053497085   -0.81469995     0.04355005    -0.69095605     0.027510832  
   5266000   0.052800452   -0.81321713     0.043981036   -0.69008651     0.026520679  
   5267000   0.05487895    -0.81495472     0.042679198   -0.6900102      0.019490416  
   5268000   0.056098797   -0.81552917     0.040792619   -0.69064265     0.0086731041 
   5269000   0.055631187   -0.81211514     0.042554911   -0.68616729     0.023412497  
   5270000   0.05498375    -0.81358817     0.042604111   -0.68856165     0.022849318  
   5271000   0.052493077   -0.81308122     0.043018049   -0.69137435     0.0098265917 
   5272000   0.053719273   -0.8160059      0.041725412   -0.69375357     0.012732375  
   5273000   0.053011682   -0.81333587     0.041736973   -0.69213267     0.020304478  
   5274000   0.054187121   -0.81205313     0.04482591    -0.68599897     0.041545938  
   5275000   0.055401409   -0.81445897     0.04155595    -0.68985452     0.012120023  
   5276000   0.056666551   -0.81304543     0.04145827    -0.68664217     0.010438128  
   5277000   0.056652201   -0.81359082     0.043865705   -0.68480164     0.020928331  
   5278000   0.055109749   -0.81265232     0.046529229   -0.6835118      0.026186206  
   5279000   0.055405699   -0.81566799     0.043887882   -0.68872518     0.018530652  
   5280000   0.056282968   -0.81215651     0.04431917    -0.68346735     0.011076952  
   5281000   0.054089039   -0.81344662     0.043219543   -0.68914586     0.024239961  
   5282000   0.053955498   -0.81010926     0.046742185   -0.68248604     0.0054284471 
   5283000   0.054011377   -0.81103493     0.043922487   -0.68614764     0.0088323903 
   5284000   0.054594294   -0.81074031     0.044512268   -0.68438944     0.030324821  
   5285000   0.055343994   -0.81189296     0.044228457   -0.68470208     0.0060158682 
   5286000   0.054774391   -0.81340341     0.040987893   -0.69030694     0.008599211  
   5287000   0.054709076   -0.81283902     0.046023374   -0.68480497     0.011614475  
   5288000   0.053095591   -0.81241987     0.043964653   -0.68886321     0.0026807742 
   5289000   0.05462553    -0.81157741     0.043045912   -0.68664607     0.02492641   
   5290000   0.054204794   -0.81376006     0.043943215   -0.68856211     0.0059409041 
   5291000   0.054745044   -0.81277863     0.040239211   -0.69047483     0.028160478  
   5292000   0.054028934   -0.81135741     0.045156328   -0.68520997     0.021356366  
   5293000   0.054206003   -0.81212346     0.043649071   -0.68721785     0.009542401  
   5294000   0.055246195   -0.81305985     0.043645992   -0.68659803     0.0041381372 
   5295000   0.055381741   -0.81317581     0.04217468    -0.68798211     0.014623377  
   5296000   0.054812023   -0.80942347     0.041003028   -0.68625545     0.017827076  
   5297000   0.053273996   -0.81250373     0.043123138   -0.68952115     0.022743896  
   5298000   0.053659053   -0.81316259     0.042435179   -0.69029076     0.013007489  
   5299000   0.0523314     -0.81004766     0.04036905    -0.69123215     0.005191132  
   5300000   0.052183539   -0.81123158     0.042081371   -0.6909254     -0.0052001147 
   5301000   0.054224062   -0.81138349     0.043804232   -0.68629564     0.015888088  
   5302000   0.05421711    -0.81144797     0.042688359   -0.68748641     0.011198231  
   5303000   0.055182019   -0.81074716     0.043118676   -0.68490885     0.013899596  
   5304000   0.055461225   -0.81273333     0.042659098   -0.68693607     0.00089220964
   5305000   0.054579868   -0.80994839     0.04387819    -0.68425322     0.019464926  
   5306000   0.054605978   -0.81357991     0.044712154   -0.68701163     0.015661851  
   5307000   0.054584403   -0.81213751     0.042700984   -0.68761275     0.0055680557 
   5308000   0.054023541   -0.81443664     0.042216036   -0.69123757     0.016999789  
   5309000   0.052925773   -0.81174641     0.040763553   -0.69164542     0.025489022  
   5310000   0.053629919   -0.81451032     0.04180689    -0.69231045     0.0048879262 
   5311000   0.05167904    -0.81102004     0.043720294   -0.6898312      0.010470014  
   5312000   0.053974594   -0.80909728     0.040339548   -0.68784807     0.027737568  
   5313000   0.053590463   -0.81117918     0.041556388   -0.68928896     0.018398785  
   5314000   0.05418481    -0.81152276     0.04168884    -0.68860914     0.049819504  
   5315000   0.05570987    -0.81162734     0.042474102   -0.68564234     0.022797282  
   5316000   0.05517745    -0.81361373     0.042653537   -0.68824742     0.01917151   
   5317000   0.053570684   -0.81354651     0.041727314   -0.69151501     0.02956604   
   5318000   0.053360408   -0.81065571     0.041968645   -0.68869809     0.032580299  
   5319000   0.054251818   -0.81149252     0.040757317   -0.68940998     0.049666268  
   5320000   0.054325121   -0.81210607     0.041860387   -0.68881057     0.032059522  
   5321000   0.055544283   -0.81292586     0.044199769   -0.68546342     0.0010852082 
   5322000   0.052312229   -0.81177329     0.044172607   -0.68918296     0.010947379  
   5323000   0.052598015   -0.81059874     0.042304744   -0.68944788     0.017296865  
   5324000   0.054702155   -0.8115556      0.041194542   -0.68836076     0.023135598  
   5325000   0.056623171   -0.81289828     0.042244714   -0.68577361     0.0069740277 
   5326000   0.055088507   -0.8117617      0.043448208   -0.68573404     0.022218583  
   5327000   0.054408007   -0.81240588     0.042781119   -0.68806541     0.0072715137 
   5328000   0.054509419   -0.81176733     0.043157982   -0.68689797     0.02141512   
   5329000   0.054655692   -0.81209984     0.041711864   -0.68845733    -0.0077819502 
   5330000   0.054077928   -0.81115453     0.043855252   -0.68623472     0.015677946  
   5331000   0.056017834   -0.81329035     0.043842821   -0.68547499     0.042022552  
   5332000   0.055996057   -0.81193384     0.043640108   -0.68435384     0.019411205  
   5333000   0.055786682   -0.81016395     0.042305653   -0.68423226     0.0022535221 
   5334000   0.053516461   -0.81109567     0.042932329   -0.68794044     0.005922835  
   5335000   0.052789948   -0.81077737     0.043300637   -0.6883429      0.028106953  
   5336000   0.055350224   -0.81120975     0.042177376   -0.68606061     0.0088934529 
   5337000   0.052890428   -0.81189184     0.042690167   -0.68991721     0.015227419  
   5338000   0.053913781   -0.81248439     0.043439299   -0.68822659     0.014348377  
   5339000   0.053109625   -0.81323613     0.044028089   -0.689595       0.036002969  
   5340000   0.053687466   -0.81366978     0.041618165   -0.69157237     0.029744112  
   5341000   0.054116093   -0.81194775     0.042677717   -0.68814826     0.023002772  
   5342000   0.054129411   -0.81415332     0.042602676   -0.69040891     0.018928966  
   5343000   0.054148137   -0.81336323     0.042094585   -0.69009884     0.024630968  
   5344000   0.054486041   -0.81462838     0.043689421   -0.68926262     0.02398776   
   5345000   0.053968858   -0.81180407     0.043285577   -0.68761744     0.012736653  
   5346000   0.055253404   -0.81123936     0.042361732   -0.68605099     0.0048943285 
   5347000   0.054966167   -0.81093493     0.04464735    -0.68389152     0.0070277896 
   5348000   0.055491376   -0.8132885      0.044074441   -0.68603069     0.029452207  
   5349000   0.053690045   -0.81291928     0.041512229   -0.69092394     0.036571821  
   5350000   0.054405536   -0.8123599      0.040415626   -0.69038862     0.028020194  
   5351000   0.055593714   -0.81012084     0.043079016   -0.68370506     0.020080418  
   5352000   0.054336813   -0.81152553     0.042453814   -0.68761908     0.021971614  
   5353000   0.055537375   -0.81203411     0.041662319   -0.68711948     0.022632867  
   5354000   0.056550303   -0.8102311      0.042464079   -0.68299629     0.024651655  
   5355000   0.054406261   -0.81150337     0.042935811   -0.68701082     0.0012690583 
   5356000   0.053781943   -0.81070878     0.043742542   -0.68634537     0.035025507  
   5357000   0.056125944   -0.81271022     0.042806779   -0.68576884     0.0061335845 
   5358000   0.056012485   -0.8133359      0.043585068   -0.68578631     0.021146501  
   5359000   0.054167402   -0.81054989     0.042842135   -0.68650907     0.041871215  
   5360000   0.053850126   -0.81219256     0.043934268   -0.68753521     0.031962141  
   5361000   0.053343611   -0.81012516     0.043641725   -0.68651964     0.01935019   
   5362000   0.053896202   -0.81323784     0.043173842   -0.68927185     0.040742501  
   5363000   0.05623368    -0.8103095      0.040930354   -0.68508305     0.021327434  
   5364000   0.054132442   -0.81155149     0.042104024   -0.68830119     0.016535881  
   5365000   0.054060735   -0.81260785     0.042434917   -0.68913415     0.014445618  
   5366000   0.052079141   -0.81191074     0.042092584   -0.69174984     0.01114638   
   5367000   0.054215227   -0.81246033     0.041562372   -0.68962758     0.012965738  
   5368000   0.054922361   -0.81208018     0.042305754   -0.68744403     0.0075349643 
   5369000   0.054444632   -0.812295       0.045043882   -0.68563686     0.019061139  
   5370000   0.052562177   -0.81214171     0.046237035   -0.68711227     0.014003972  
   5371000   0.055516783   -0.80971213     0.043365187   -0.68312549     0.021549588  
   5372000   0.054237894   -0.81399716     0.042472812   -0.69022        0.0071531633 
   5373000   0.053239475   -0.81326385     0.044131479   -0.68932468     0.021414123  
   5374000   0.052431757   -0.81170218     0.041318973   -0.69178631     0.017770462  
   5375000   0.054416967   -0.81129039     0.043787504   -0.6859301      0.017138085  
   5376000   0.054902942   -0.8138773      0.043145601   -0.68843042     0.0054764889 
   5377000   0.053297489   -0.81281101     0.042248207   -0.69066815     0.020610109  
   5378000   0.0553773     -0.81583608     0.041819398   -0.69100432     0.019175726  
   5379000   0.05271634    -0.81199675     0.041957529   -0.69101572     0.016085701  
   5380000   0.054138919   -0.81297277     0.042240445   -0.68957634     0.018156144  
   5381000   0.052050905   -0.81366035     0.043242507   -0.69239185     0.027291112  
   5382000   0.054978888   -0.81388731     0.042752657   -0.68871952     0.01091142   
   5383000   0.056129673   -0.81154752     0.041564809   -0.68584252     0.029087357  
   5384000   0.056588763   -0.81285683     0.043661114   -0.68436733     0.022280702  
   5385000   0.054928327   -0.81142191     0.044061438   -0.68502114     0.033605629  
   5386000   0.053501832   -0.8120029      0.04212698    -0.68967495     0.017821406  
   5387000   0.053862789   -0.81250231     0.040970196   -0.69079006     0.014696942  
   5388000   0.054702814   -0.80990414     0.040721539   -0.68718132     0.033695532  
   5389000   0.05291952    -0.81317635     0.044764436   -0.68908385     0.0094861534 
   5390000   0.053498173   -0.81098214     0.043304133   -0.68748252     0.024634535  
   5391000   0.054603958   -0.81275054     0.042779641   -0.6881178      0.0054332657 
   5392000   0.056269212   -0.81322469     0.043718958   -0.68515637     0.0077771099 
   5393000   0.054743191   -0.81265504     0.043742082   -0.68685115    -0.00082545036
   5394000   0.054978162   -0.8136605      0.043053526   -0.68819294     0.016197804  
   5395000   0.052987931   -0.81304046     0.045355172   -0.68825467     0.0050108653 
   5396000   0.053602156   -0.81310422     0.044181027   -0.68857183    -0.01364688   
   5397000   0.055254235   -0.81196839     0.043350078   -0.68579044     0.007491797  
   5398000   0.055265495   -0.81018957     0.041218253   -0.68612656     0.012651741  
   5399000   0.055878944   -0.81178063     0.043971574   -0.68404471     0.0015361995 
   5400000   0.054021479   -0.80999839     0.040976934   -0.68804152     0.020878415  
   5401000   0.056845975   -0.81179877     0.042876564   -0.68370826     0.011195471  
   5402000   0.054428527   -0.81018038     0.041589633   -0.68700063     0.016739205  
   5403000   0.054914734   -0.81108842     0.04242839    -0.68634107     0.002615313  
   5404000   0.054410071   -0.81174173     0.042459383   -0.6877199      0.022252406  
   5405000   0.054513119   -0.81168763     0.045009591   -0.68496112     0.015576521  
   5406000   0.05348747    -0.81318403     0.043396161   -0.68960843     0.025970146  
   5407000   0.054044998   -0.81361938     0.042041513   -0.69056267     0.017224695  
   5408000   0.052616226   -0.81375632     0.044331664   -0.69055124     0.01634363   
   5409000   0.053323586   -0.81134166     0.040364643   -0.69104325     0.016095715  
   5410000   0.053788361   -0.81335255     0.040344548   -0.69237751     0.0063792472 
   5411000   0.054603579   -0.8111598      0.041598338   -0.68770893     0.0019890522 
   5412000   0.054425291   -0.81313        0.043289482   -0.68825525     0.030011215  
   5413000   0.05340774    -0.81265656     0.044694535   -0.6879021      0.021109003  
   5414000   0.053463048   -0.81238156     0.042168375   -0.69007036     0.015776007  
   5415000   0.056371407   -0.81146393     0.040052522   -0.68690885     0.00051427299
   5416000   0.053347459   -0.81309721     0.041888697   -0.69123895     0.014722369  
   5417000   0.053686246   -0.81472563     0.043483607   -0.69076461     0.025725374  
   5418000   0.053929401   -0.81418983     0.041329687   -0.69201824     0.025256289  
   5419000   0.053951376   -0.81268542     0.042945979   -0.68886458     0.010204637  
   5420000   0.054448776   -0.81309654     0.040712489   -0.69076358     0.022912147  
   5421000   0.052777225   -0.81375738     0.04201858    -0.69262403     0.019720948  
   5422000   0.054059883   -0.81433148     0.0397953     -0.69349867     0.014284996  
   5423000   0.054890652   -0.81229617     0.039969932   -0.69004338     0.034108847  
   5424000   0.051883766   -0.81118123     0.043062902   -0.69034288     0.016488878  
   5425000   0.054648152   -0.81279469     0.041066459   -0.68980889     0.013826676  
   5426000   0.052587626   -0.81199603     0.042995471   -0.69017001     0.034805542  
   5427000   0.053313369   -0.8124676      0.042276487   -0.69027266     0.014273691  
   5428000   0.054382914   -0.81317025     0.044040751   -0.68760776     0.0093643818 
   5429000   0.055423085   -0.81197745     0.039725487   -0.68917097     0.024250971  
   5430000   0.0557362     -0.81174138     0.041064102   -0.68712692     0.020564783  
   5431000   0.056696272   -0.81197483     0.042575056   -0.68441023     0.041138794  
   5432000   0.054289805   -0.81297866     0.042180851   -0.68941564     0.03150954   
   5433000   0.053117313   -0.8132782      0.044075683   -0.68957796     0.02730926   
   5434000   0.054424644   -0.8124709      0.042570764   -0.68831584     0.027397195  
   5435000   0.053107423   -0.80969154     0.043092724   -0.68698907     0.03777294   
   5436000   0.053670756   -0.81217051     0.041359743   -0.69035657     0.034825474  
   5437000   0.052225423   -0.81122192     0.042875999   -0.69005832     0.03194106   
   5438000   0.054650797   -0.81284947     0.042481465   -0.68844469     0.035821805  
   5439000   0.054208437   -0.81002344     0.042494495   -0.68626875     0.028017822  
   5440000   0.053964235   -0.81319245     0.045023232   -0.68727509     0.018435031  
   5441000   0.054767411   -0.81152198     0.043633406   -0.68579046     0.032876852  
   5442000   0.053484977   -0.81202212     0.042704242   -0.68914217     0.034977805  
   5443000   0.053698216   -0.81156478     0.04302103    -0.68804839     0.03194195   
   5444000   0.054719098   -0.81205874     0.043282111   -0.68675093     0.035927174  
   5445000   0.054947128   -0.81291076     0.041684895   -0.68885834     0.031672234  
   5446000   0.055132372   -0.81392806     0.042044442   -0.68923842     0.032841492  
   5447000   0.056147967   -0.81161491     0.04084991    -0.68659738     0.037698687  
   5448000   0.054783917   -0.8119628      0.040955686   -0.68888425     0.026869787  
   5449000   0.055869221   -0.81077487     0.042753072   -0.68427203     0.037256712  
   5450000   0.053975344   -0.81279911     0.046316242   -0.68557209     0.015095998  
   5451000   0.055940675   -0.81232006     0.043732238   -0.68473095     0.024703904  
   5452000   0.054502403   -0.81034103     0.04364137    -0.6849988      0.029419456  
   5453000   0.054825951   -0.81332579     0.042622634   -0.68851728     0.014164057  
   5454000   0.05508209    -0.81336699     0.041344603   -0.68945256     0.032450455  
   5455000   0.055351153   -0.81223499     0.042164216   -0.68709761     0.035363687  
   5456000   0.053647089   -0.81005997     0.041587347   -0.68805391     0.0070536909 
   5457000   0.055796683   -0.81369381     0.043237016   -0.68681576     0.019322739  
   5458000   0.054223799   -0.81259264     0.042317076   -0.68899234     0.026709333  
   5459000   0.055014188   -0.81221093     0.042360063   -0.68738282     0.032921646  
   5460000   0.05510512    -0.81106981     0.040775466   -0.68768999     0.020891088  
   5461000   0.054062919   -0.81071432     0.042650499   -0.68702176     0.048465801  
   5462000   0.05499218    -0.81049738     0.042471344   -0.68559098     0.029852821  
   5463000   0.054438428   -0.81129959     0.040908519   -0.68878611     0.047276156  
   5464000   0.053311696   -0.81344301     0.043613261   -0.68991379     0.044517586  
   5465000   0.054472162   -0.81305385     0.041406026   -0.6899923      0.027950222  
   5466000   0.054153492   -0.81331518     0.041911881   -0.69022547     0.016914752  
   5467000   0.05490751    -0.81402008     0.042667905   -0.68904404     0.012696608  
   5468000   0.054465785   -0.81211221     0.042015134   -0.68845111     0.015854389  
   5469000   0.053550114   -0.81266447     0.044366222   -0.68802489     0.03799198   
   5470000   0.05508066    -0.81139965     0.042283106   -0.68654886     0.0030236485 
   5471000   0.054575894   -0.8125519      0.044259451   -0.68648143     0.026940968  
   5472000   0.054811807   -0.81138296     0.044235858   -0.68498244     0.024048517  
   5473000   0.053870905   -0.80899086     0.043563532   -0.6846731      0.033324535  
   5474000   0.055248441   -0.80938345     0.041413289   -0.68515097     0.041662079  
   5475000   0.053321098   -0.8104979      0.044508406   -0.68605945     0.029813909  
   5476000   0.055707424   -0.81275882     0.042321796   -0.6869298      0.018120192  
   5477000   0.05455173    -0.81347962     0.043573909   -0.68813091     0.011904726  
   5478000   0.053002265   -0.81365151     0.044825501   -0.68937391     0.033453953  
   5479000   0.054260932   -0.81238351     0.042146952   -0.68889767     0.042794437  
   5480000   0.052932729   -0.81332473     0.04400614    -0.68997073     0.023616504  
   5481000   0.056462985   -0.81254841     0.043324921   -0.68458365     0.020997309  
   5482000   0.053028661   -0.8131027      0.044365325   -0.6892457      0.05238855   
   5483000   0.053880605   -0.81363732     0.044310105   -0.68855845     0.033607564  
   5484000   0.052867841   -0.81302592     0.041759415   -0.69201591     0.04541786   
   5485000   0.056313217   -0.81003986     0.042296951   -0.68332758     0.0410257    
   5486000   0.055181035   -0.81201888     0.046620085   -0.68268065     0.016140809  
   5487000   0.056995436   -0.81191822     0.043461004   -0.68301922     0.025078186  
   5488000   0.05321934    -0.81150968     0.044203313   -0.68752886     0.035188648  
   5489000   0.054726608   -0.81325333     0.042706553   -0.68850982     0.033302079  
   5490000   0.053813521   -0.81316756     0.044081098   -0.68841825     0.027340732  
   5491000   0.053644011   -0.81363392     0.042124377   -0.69109544     0.007676801  
   5492000   0.054300011   -0.81187072     0.041559572   -0.68891368     0.020889184  
   5493000   0.054034044   -0.81260392     0.041115428   -0.69048972     0.0081963174 
   5494000   0.056076605   -0.81275112     0.042474258   -0.68621622     0.011804902  
   5495000   0.056311709   -0.81262702     0.044275264   -0.68393868     0.030555218  
   5496000   0.053729516   -0.81133762     0.04184181    -0.68895353     0.019017636  
   5497000   0.053209883   -0.81187724     0.042044453   -0.69006946     0.018090132  
   5498000   0.052434767   -0.81236595     0.04416548    -0.68959906     0.013896731  
   5499000   0.053195651   -0.81195608     0.041482016   -0.69073207     0.002905987  
   5500000   0.054874861   -0.81236155     0.041559282   -0.68854308     0.021287042  
   5501000   0.053873713   -0.81406696     0.039965875   -0.69334265     0.016734504  
   5502000   0.054066346   -0.81201681     0.04385362    -0.687116       0.040640077  
   5503000   0.054946406   -0.8121652      0.046471821   -0.68332695     0.005760609  
   5504000   0.054785162   -0.81199802     0.045573647   -0.68429965     0.0048327265 
   5505000   0.055624211   -0.81244471     0.043521341   -0.68554089     0.017419231  
   5506000   0.055713324   -0.81180392     0.044585853   -0.683702       0.011086978  
   5507000   0.055008626   -0.81105372     0.042311128   -0.68628289     0.016924332  
   5508000   0.054708212   -0.81023509     0.044140195   -0.68408552     0.047323901  
   5509000   0.051890819   -0.81297353     0.041272992   -0.69391453     0.022825423  
   5510000   0.054464167   -0.81304692     0.040490865   -0.69091251     0.028234505  
   5511000   0.052172254   -0.81267031     0.043976286   -0.69048613     0.042741777  
   5512000   0.054758433   -0.81182736     0.04209564    -0.68764706     0.019036913  
   5513000   0.054694896   -0.81144046     0.042430139   -0.68702091     0.0096637518 
   5514000   0.053688743   -0.812282       0.042597836   -0.68920301     0.0270803    
   5515000   0.053122636   -0.81192285     0.042634842   -0.68965546     0.035230037  
   5516000   0.053338957   -0.81225957     0.041134815   -0.69116794     0.0080327424 
   5517000   0.054535768   -0.81158037     0.04277097    -0.68705852     0.01289681   
   5518000   0.056880263   -0.81169446     0.041079652   -0.68534946     0.0087064927 
   5519000   0.055103323   -0.81224563     0.043047837   -0.68659613     0.03011174   
   5520000   0.054515406   -0.81112537     0.04513983    -0.68426519     0.01155292   
   5521000   0.055552572   -0.81177636     0.042415518   -0.68608575     0.031642591  
   5522000   0.054784056   -0.8088006      0.042326347   -0.68435119     0.018132776  
   5523000   0.053354177   -0.81310119     0.044670789   -0.68845076     0.0091305576 
   5524000   0.054714415   -0.81121781     0.044737712   -0.68446142     0.0052582578 
   5525000   0.053229559   -0.81261792     0.0416443     -0.69118079     0.010775653  
   5526000   0.055561798   -0.81090763     0.042304045   -0.68531466     0.034353441  
   5527000   0.055610636   -0.81279801     0.043734554   -0.68570132     0.032936455  
   5528000   0.052583568   -0.81037355     0.042254255   -0.68929483     0.0075195011 
   5529000   0.054577066   -0.81430377     0.040298831   -0.69219216     0.022292851  
   5530000   0.054272325   -0.81259443     0.042546035   -0.68869243     0.020989082  
   5531000   0.056107342   -0.8114606      0.044085652   -0.68326823     0.038202273  
   5532000   0.055922257   -0.81153713     0.041000665   -0.68670719     0.013983613  
   5533000   0.054560024   -0.81432117     0.040934714   -0.69159922     0.019865028  
   5534000   0.053424483   -0.8109872      0.041018408   -0.68988377     0.038933523  
   5535000   0.054368939   -0.81030813     0.042973006   -0.68583433     0.037020108  
   5536000   0.053312894   -0.81055054     0.043583659   -0.68704913     0.020524369  
   5537000   0.055087663   -0.81310282     0.045206183   -0.68531845     0.023819703  
   5538000   0.05431345    -0.81135995     0.043888519   -0.68605382     0.013746552  
   5539000   0.054307075   -0.81232188     0.045162585   -0.68575123     0.017698651  
   5540000   0.054815597   -0.81078124     0.042611921   -0.68599897     0.027054051  
   5541000   0.055374996   -0.80968872     0.042823254   -0.68385656     0.0067042383 
   5542000   0.056681133   -0.81218022     0.041451622   -0.68576175     0.0080476763 
   5543000   0.052593628   -0.81270361     0.043701639   -0.69016243     0.025377664  
   5544000   0.053593944   -0.81348173     0.042954543   -0.69018814     0.0038509357 
   5545000   0.052476456   -0.81319044     0.045263524   -0.68926302     0.0006297862 
   5546000   0.054062684   -0.81248442     0.044135178   -0.68730753     0.002633229  
   5547000   0.053012056   -0.81163902     0.04180516    -0.69036708     0.0042602036 
   5548000   0.052483094   -0.8117456      0.043189059   -0.68988269     0.039622453  
   5549000   0.052648568   -0.81078094     0.044230269   -0.68762877     0.018292838  
   5550000   0.052997996   -0.81228623     0.04195667    -0.69088386    -0.0036016206 
   5551000   0.054696075   -0.81350705     0.0413833     -0.69013257     0.016886685  
   5552000   0.054967835   -0.81261054     0.043955259   -0.68625672    -5.6516362e-05
   5553000   0.056362573   -0.81197895     0.041728917   -0.68576072    -0.0032973141 
   5554000   0.055110379   -0.81244874     0.045026342   -0.68481016     0.0072672524 
   5555000   0.053811392   -0.81173879     0.042716375   -0.6883574      0.030817863  
   5556000   0.055249543   -0.81225925     0.042570836   -0.68686757     0.02306459   
   5557000   0.053088475   -0.81241037     0.042730639   -0.6900984      0.030856007  
   5558000   0.054460752   -0.81317527     0.042264084   -0.68927276     0.0020139153 
   5559000   0.054047151   -0.81247131     0.042401795   -0.68905109     0.02569534   
   5560000   0.057129859   -0.81337408     0.04400449    -0.68373009     0.021165012  
   5561000   0.054430279   -0.81267        0.043762643   -0.68731462     0.021693071  
   5562000   0.055020847   -0.81132473     0.041962695   -0.68688401     0.027562597  
   5563000   0.054349829   -0.81077835     0.043224545   -0.68608166    -0.0039946389 
   5564000   0.053010056   -0.81276143     0.043503099   -0.68979454     0.0079573076 
   5565000   0.053077599   -0.81040347     0.043675878   -0.68716256     0.01423264   
   5566000   0.053807796   -0.81255226     0.043916117   -0.68797652     0.019868147  
   5567000   0.053514771   -0.81155101     0.044186157   -0.68714448     0.016243719  
   5568000   0.054594881   -0.81029589     0.041211474   -0.68724492     0.040764705  
   5569000   0.053304461   -0.81227224     0.043966709   -0.68840042    -0.0011919525 
   5570000   0.055824432   -0.81149357     0.042427879   -0.68538307     0.031492884  
   5571000   0.055138048   -0.81033907     0.042241023   -0.68544434     0.0080237667 
   5572000   0.053024672   -0.81204985     0.044472531   -0.68809162     0.014086465  
   5573000   0.056181174   -0.81196618     0.042834867   -0.68491392     0.0073412725 
   5574000   0.05472697    -0.81117607     0.042591126   -0.68654745    -0.0013111101 
   5575000   0.053822486   -0.81131025     0.041524079   -0.68910453     0.024291228  
   5576000   0.052459084   -0.81098645     0.040605986   -0.69174261     0.02912879   
   5577000   0.053575414   -0.81236692     0.040307635   -0.69174802     0.019705275  
   5578000   0.054658352   -0.81186176     0.042993785   -0.68693334     0.016422238  
   5579000   0.055576417   -0.8138471      0.043030815   -0.68750545     0.021167216  
   5580000   0.054530918   -0.8104361      0.040387669   -0.68830483     0.026866298  
   5581000   0.053411329   -0.81442493     0.043743619   -0.690616       0.011935167  
   5582000   0.05334491    -0.81295321     0.043358014   -0.68962946     0.025517624  
   5583000   0.054551354   -0.81039144     0.041552333   -0.68706486     0.034838053  
   5584000   0.055603488   -0.80936511     0.044181474   -0.68183221     0.012152653  
   5585000   0.05496698    -0.81024264     0.042729867   -0.6851155      0.042011201  
   5586000   0.053036022   -0.80999836     0.042512557   -0.68798309     0.023776044  
   5587000   0.055417475   -0.81281975     0.040643839   -0.68910333    -0.0022437202 
   5588000   0.055363648   -0.81085563     0.041335641   -0.6865281      0.029436455  
   5589000   0.054878806   -0.81214098     0.04394845    -0.68592743     0.021368233  
   5590000   0.055293265   -0.81444515     0.04159488    -0.68996388     0.036649093  
   5591000   0.053475017   -0.80973441     0.043597503   -0.68597613     0.014542677  
   5592000   0.054009973   -0.81222886     0.04481293    -0.68645324    -0.011164265  
   5593000   0.054856575   -0.81328605     0.042088344   -0.68896593    -0.0014315168 
   5594000   0.054763843   -0.81325246     0.042165985   -0.68899371     0.014329651  
   5595000   0.053305506   -0.81118076     0.042544174   -0.68872992     0.03747777   
   5596000   0.055036744   -0.81140501     0.041710344   -0.68719281     0.020521082  
   5597000   0.054388504   -0.81102211     0.045659547   -0.68383245     0.014625646  
   5598000   0.053576561   -0.81308537     0.043613152   -0.68915923     0.021740574  
   5599000   0.054077951   -0.81366191     0.043103193   -0.68949412     0.0052847017 
   5600000   0.052794514   -0.81293307     0.044273853   -0.68951853     0.02369609   
   5601000   0.055484436   -0.81281539     0.041337905   -0.68830453     0.033571481  
   5602000   0.05571542    -0.81029355     0.042905771   -0.68386857     0.024210501  
   5603000   0.052958507   -0.81076192     0.044323081   -0.68705232     0.009808235  
   5604000   0.056998218   -0.81264136     0.042263453   -0.68493574     0.02225605   
   5605000   0.055016486   -0.81244263     0.04273343    -0.68723771     0.040029073  
   5606000   0.054388422   -0.81112202     0.043155021   -0.686437       0.041707051  
   5607000   0.053459843   -0.8107629      0.042199039   -0.68842583     0.031821621  
   5608000   0.052900628   -0.80990695     0.042927354   -0.68767985     0.020941331  
   5609000   0.055634621   -0.8126255      0.043465326   -0.68576208     0.011486232  
   5610000   0.055398227   -0.81200704     0.043064271   -0.68589904     0.026493845  
   5611000   0.053831009   -0.81074218     0.043036772   -0.68701099     0.012122593  
   5612000   0.054861491   -0.81250857     0.042045135   -0.6882243      0.017421551  
   5613000   0.054787976   -0.8127989      0.04194559    -0.68872436     0.035456163  
   5614000   0.054356758   -0.81028243     0.040915843   -0.68788405     0.023751463  
   5615000   0.054929354   -0.81095576     0.043291554   -0.68532333     0.021399481  
   5616000   0.05476403    -0.81280312     0.042941632   -0.68776844     0.018028181  
   5617000   0.05357423    -0.81146025     0.040798804   -0.69035195     0.022239141  
   5618000   0.054135333   -0.81393077     0.041525598   -0.69125456     0.024431823  
   5619000   0.054574883   -0.81160655     0.043076368   -0.68672067     0.024331697  
   5620000   0.051704284   -0.81316769     0.045339956   -0.69032135     0.0019490985 
   5621000   0.053362554   -0.81397096     0.044731907   -0.68924686    -0.0019765994 
   5622000   0.054659875   -0.81235235     0.041953821   -0.68846161     0.0056062556 
   5623000   0.054765632   -0.81112049     0.042072632   -0.68695241     0.025049021  
   5624000   0.05315156    -0.8112889      0.04226906    -0.68934394     0.019301049  
   5625000   0.052946694   -0.8128346      0.042176477   -0.69128932     0.023280339  
   5626000   0.054567111   -0.81100046     0.043309758   -0.68589284     0.024093287  
   5627000   0.054668359   -0.81265752     0.043201279   -0.6875066      0.020320413  
   5628000   0.056427402   -0.81409918     0.041430461   -0.68808223     0.0036507415 
   5629000   0.056205288   -0.81333187     0.043482893   -0.68559544     0.016085881  
   5630000   0.055797966   -0.81140412     0.044174706   -0.68358646     0.030260973  
   5631000   0.055420525   -0.81336178     0.043767807   -0.68651682     0.022967122  
   5632000   0.054514687   -0.81108669     0.0444603     -0.68490712     0.023851203  
   5633000   0.051989522   -0.81153571     0.042674287   -0.69092745     0.023628534  
   5634000   0.054721369   -0.81089399     0.041025991   -0.6878389      0.055222945  
   5635000   0.056677415   -0.81221543     0.04332701    -0.68392715     0.021861885  
   5636000   0.054174738   -0.81315552     0.043222316   -0.68872352     0.025519941  
   5637000   0.053485358   -0.81225492     0.043473832   -0.68860481     0.0072152149 
   5638000   0.055105465   -0.8121626      0.040397113   -0.68916062     0.017155818  
   5639000   0.053785465   -0.81335485     0.041022908   -0.69170579     0.014417685  
   5640000   0.053260873   -0.81308562     0.042792807   -0.69045304     0.01100278   
   5641000   0.053541817   -0.81359707     0.044860214   -0.68847594     0.023007701  
   5642000   0.053468153   -0.81267395     0.045286388   -0.68723708     0.013326638  
   5643000   0.055026578   -0.81227521     0.04314373    -0.68664486     0.021289128  
   5644000   0.055154735   -0.81522065     0.043111629   -0.68943029     0.024861787  
   5645000   0.054856451   -0.81248877     0.043206404   -0.68705078     0.032517078  
   5646000   0.056571547   -0.81157792     0.040508593   -0.68626676     0.011841371  
   5647000   0.054626637   -0.81457084     0.042959492   -0.68972426     0.015295228  
   5648000   0.055334049   -0.81126764     0.04400053    -0.68431959     0.012947855  
   5649000   0.055724303   -0.81428176     0.042333333   -0.68841591     0.014041578  
   5650000   0.055220254   -0.81239839     0.043115763   -0.68650568    -0.0056411343 
   5651000   0.057072771   -0.81325046     0.044002144   -0.68369439     0.025512098  
   5652000   0.054686787   -0.8126032      0.044923361   -0.68570258     0.027273442  
   5653000   0.056526666   -0.81262152     0.042905589   -0.68498063     0.019933023  
   5654000   0.0540091     -0.81155044     0.041931164   -0.68865789     0.023620844  
   5655000   0.053735293   -0.81210498     0.043426988   -0.68812706     0.025891252  
   5656000   0.056547121   -0.81356599     0.043601538   -0.68519849     0.033691403  
   5657000   0.05494097    -0.81138754     0.041386031   -0.68764322     0.0051888146 
   5658000   0.05545488    -0.81335952     0.041129282   -0.68910159     0.025112736  
   5659000   0.052625996   -0.81200786     0.043455727   -0.68966407     0.0078652425 
   5660000   0.055043985   -0.81057122     0.042565217   -0.68549329     0.018873978  
   5661000   0.055524856   -0.81178806     0.044059846   -0.68449466     0.027460847  
   5662000   0.055224473   -0.81316123     0.042001812   -0.68837615     0.013928096  
   5663000   0.055743579   -0.81096418     0.042208598   -0.68519416     0.016055508  
   5664000   0.05541025    -0.81058353     0.041549961   -0.68597181     0.032208014  
   5665000   0.055414665   -0.81053108     0.041225147   -0.68623756     0.036376742  
   5666000   0.056340229   -0.81227686     0.043491929   -0.68432911     0.021382517  
   5667000   0.053913287   -0.81136383     0.04528857    -0.68525751     0.017988615  
   5668000   0.054578266   -0.81117969     0.04217463    -0.68719048     0.011129715  
   5669000   0.053330306   -0.81226654     0.042261551   -0.69006114     0.040387895  
   5670000   0.05529557    -0.81254004     0.039524597   -0.6901256      0.015738751  
   5671000   0.054601309   -0.81086467     0.040321871   -0.68869367     0.022129277  
   5672000   0.053216599   -0.81190129     0.041965493   -0.6901624      0.023052863  
   5673000   0.056543136   -0.8138199      0.041211773   -0.68784815     0.012564929  
   5674000   0.053559381   -0.81136573     0.044490218   -0.68658827     0.024905436  
   5675000   0.05513849    -0.80788975     0.04199395    -0.68324142     0.034255735  
   5676000   0.05540859    -0.81126841     0.042820077   -0.68538907     0.026468677  
   5677000   0.052492826   -0.81397858     0.04390594    -0.6913842      0.01755897   
   5678000   0.054053198   -0.81232629     0.041469869   -0.68982893     0.013118149  
   5679000   0.054550463   -0.81334418     0.041404836   -0.69016644     0.0047113109 
   5680000   0.052673896   -0.81301198     0.041188182   -0.69286393     0.025378618  
   5681000   0.053374141   -0.8133548      0.043671555   -0.68967369     0.012805819  
   5682000   0.052931008   -0.8108188      0.042785861   -0.68868765     0.023290732  
   5683000   0.053596189   -0.81180043     0.040729597   -0.69072842     0.0069382645 
   5684000   0.05207195    -0.81371052     0.043862467   -0.69179052     0.017044117  
   5685000   0.054024809   -0.8127425      0.042907794   -0.68884978     0.0077964856 
   5686000   0.056015496   -0.81203043     0.045109575   -0.68295182     0.018214348  
   5687000   0.054588651   -0.81021714     0.041752414   -0.68663458     0.0097791533 
   5688000   0.055301009   -0.81261862     0.041888283   -0.68783234     0.0059487811 
   5689000   0.053512063   -0.81353271     0.042142914   -0.69117349     0.010135858  
   5690000   0.054616596   -0.81407578     0.042834759   -0.68936898     0.0046607288 
   5691000   0.052396774   -0.81162394     0.041477764   -0.69160172     0.015285375  
   5692000   0.053332844   -0.81320769     0.04273451    -0.69052553     0.023569832  
   5693000   0.054305223   -0.81267533     0.043058142   -0.68821191     0.015014299  
   5694000   0.054852832   -0.81097192     0.041300687   -0.68744507     0.023957267  
   5695000   0.054996128   -0.81347922     0.042801783   -0.68823647     0.013183611  
   5696000   0.054871982   -0.81218511     0.042831143   -0.6870991      0.017681029  
   5697000   0.054878916   -0.81034198     0.042356191   -0.68572052     0.032760577  
   5698000   0.05376797    -0.81320764     0.043720759   -0.68888696     0.029246439  
   5699000   0.053788617   -0.81020262     0.042697242   -0.68687451     0.02236572   
   5700000   0.053337698   -0.81268204     0.042979063   -0.68974805     0.016797334  
   5701000   0.055000848   -0.8105583      0.042666841   -0.68544341     0.018050324  
   5702000   0.055393734   -0.81184228     0.041635471   -0.68716981     0.053215573  
   5703000   0.053681796   -0.8123163      0.044168483   -0.68767708     0.00073776511
   5704000   0.054430567   -0.81193282     0.041788341   -0.6885513      0.018687363  
   5705000   0.054342295   -0.81217471     0.042322076   -0.68839178     0.0099245564 
   5706000   0.054210755   -0.81208815     0.043376567   -0.68744791    -0.002249627  
   5707000   0.055482553   -0.81468708     0.042889434   -0.68862751     0.016865366  
   5708000   0.054373142   -0.81183331     0.045217204   -0.68510901     0.010077208  
   5709000   0.053015302   -0.81393312     0.043937337   -0.69052414     0.011768612  
   5710000   0.052776167   -0.81168895     0.041928049   -0.69064773     0.016421604  
   5711000   0.052951191   -0.81235033     0.042538491   -0.69043629     0.01834306   
   5712000   0.053697722   -0.81370577     0.043251721   -0.68995944     0.0036784224 
   5713000   0.056789387   -0.8109175      0.040983921   -0.68480446    -0.0051036195 
   5714000   0.055785416   -0.81211194     0.043744224   -0.68474357    -0.0066823569 
   5715000   0.053635602   -0.81304001     0.043812332   -0.68882618     0.008694221  
   5716000   0.054237481   -0.8112696      0.042060763   -0.6879051     -0.0022588728 
   5717000   0.055498067   -0.81217969     0.044785988   -0.68420031     0.028754047  
   5718000   0.05642193    -0.81167616     0.04230017    -0.68479769     0.0044864426 
   5719000   0.054991909   -0.81163809     0.044819765   -0.68438368     0.016762     
   5720000   0.05574113    -0.81170224     0.043440656   -0.68470383     0.020573806  
   5721000   0.053967716   -0.81369635     0.042237376   -0.69055963    -0.0046247551 
   5722000   0.056072711   -0.81170419     0.042864794   -0.6847846      0.019929022  
   5723000   0.053611275   -0.81238157     0.042775568   -0.68924097     0.0087017974 
   5724000   0.054811043   -0.81155972     0.043471724   -0.68592448     0.02615609   
   5725000   0.055243691   -0.81204381     0.042195636   -0.6870361      0.035739925  
   5726000   0.054926097   -0.81261067     0.041945246   -0.68832944     0.024726788  
   5727000   0.052962163   -0.81245989     0.043332293   -0.6897356      0.0014734944 
   5728000   0.053414305   -0.81410758     0.042502622   -0.69153519     0.014967161  
   5729000   0.053756275   -0.81236715     0.039608712   -0.69217605     0.011866879  
   5730000   0.053561856   -0.81363355     0.041290788   -0.69205181     0.024954789  
   5731000   0.053161807   -0.81130446     0.041273477   -0.69033972     0.011341008  
   5732000   0.054283779   -0.81400718     0.043976053   -0.68865799    -0.011764932  
   5733000   0.052884541   -0.81151637     0.041555289   -0.69068545     0.024597813  
   5734000   0.053914348   -0.81457024     0.042676659   -0.69107423     0.012412425  
   5735000   0.053479171   -0.81225109     0.043142672   -0.68894142     0.029277479  
   5736000   0.056195714   -0.81297669     0.043568658   -0.68516884     0.029122864  
   5737000   0.054713055   -0.81327945     0.044706698   -0.68655612     0.017386066  
   5738000   0.055158272   -0.81017499     0.044089111   -0.68340185     0.039258255  
   5739000   0.053730105   -0.81257503     0.043280061   -0.6887518      0.023658007  
   5740000   0.055811413   -0.81082313     0.043924128   -0.6832359      0.025753906  
   5741000   0.054602374   -0.81251309     0.043280548   -0.68738182     0.0047537141 
   5742000   0.054323003   -0.81123185     0.041305733   -0.68849418     0.015135401  
   5743000   0.055028377   -0.81229723     0.044378312   -0.6854296      0.015614898  
   5744000   0.053682767   -0.81244708     0.043303033   -0.68867185     0.02380209   
   5745000   0.055731154   -0.81031745     0.040477075   -0.68629758     0.035802901  
   5746000   0.053675301   -0.81133959     0.046107253   -0.68477133     0.027051449  
   5747000   0.053366318   -0.81337292     0.043023833   -0.69035126     0.023291096  
   5748000   0.053502432   -0.81300302     0.041276324   -0.69152482     0.0036820375 
   5749000   0.052928803   -0.81163616     0.042844702   -0.68944947     0.0067394459 
   5750000   0.052228629   -0.81400632     0.042272624   -0.6934413      0.016362627  
   5751000   0.054243152   -0.81398003     0.043798358   -0.68886944     0.0069490252 
   5752000   0.056312589   -0.81419505     0.043400674   -0.68637999     0.025400489  
   5753000   0.053083432   -0.80929013     0.04183668    -0.68787967     0.016093859  
   5754000   0.053780664   -0.81030216     0.042314781   -0.68736843     0.0066454014 
   5755000   0.057111773   -0.81445877     0.044450095   -0.68439628     0.014976706  
   5756000   0.054180533   -0.81210341     0.043168658   -0.68771638    -0.0082308567 
   5757000   0.054898722   -0.81261191     0.040568771   -0.68974818     0.035776151  
   5758000   0.053752973   -0.81264025     0.04252974    -0.68953307     0.02557386   
   5759000   0.056548094   -0.81122866     0.043226474   -0.68323477     0.017035329  
   5760000   0.055490652   -0.81251239     0.041214918   -0.6881152      0.01317247   
   5761000   0.054460178   -0.81141977     0.040647408   -0.6891348      0.0046945216 
   5762000   0.053982628   -0.81327165     0.042345772   -0.69000418     0.0060728349 
   5763000   0.054413493   -0.81279913     0.044606349   -0.6866252      0.01466702   
   5764000   0.053183775   -0.81299853     0.043575491   -0.68969884     0.014466402  
   5765000   0.053958333   -0.81305006     0.042572022   -0.68959276     0.016540689  
   5766000   0.05441652    -0.81188879     0.044323429   -0.68599324     0.038459337  
   5767000   0.056406461   -0.80966412     0.044160963   -0.68094805     0.024908891  
   5768000   0.055598858   -0.81188674     0.042309547   -0.68623271     0.014303381  
   5769000   0.053267466   -0.81341666     0.0416223     -0.69194471     0.023217161  
   5770000   0.052622461   -0.81366342     0.042450775   -0.69232988     0.022758973  
   5771000   0.052862117   -0.81178313     0.043955721   -0.68858539     0.0070680828 
   5772000   0.052794504   -0.81195736     0.042543192   -0.6902735      0.027001565  
   5773000   0.052964801   -0.81242476     0.041559594   -0.69146922     0.017941947  
   5774000   0.053928168   -0.81276649     0.04490688    -0.68701954     0.053541304  
   5775000   0.054578437   -0.81396285     0.041640344   -0.69050767     0.02987016   
   5776000   0.052428498   -0.8098388      0.042470079   -0.68877671     0.019769733  
   5777000   0.05506677    -0.81262145     0.041800914   -0.68827367     0.021946278  
   5778000   0.052987632   -0.81201328     0.045008466   -0.68757465     0.020305959  
   5779000   0.054386257   -0.81377709     0.043414846   -0.68883549     0.032318812  
   5780000   0.055029195   -0.81427885     0.042147169   -0.68964114     0.015305095  
   5781000   0.05406209    -0.81209962     0.042867549   -0.68819125     0.021216297  
   5782000   0.053157576   -0.81183374     0.043238721   -0.6889101      0.039894503  
   5783000   0.053976102   -0.81460009     0.04288046    -0.69080771     0.033932246  
   5784000   0.055210742   -0.81002715     0.04441927    -0.6828452      0.0070533285 
   5785000   0.05429342    -0.81267256     0.043404852   -0.68788012     0.0041123559 
   5786000   0.052652186   -0.81194017     0.041381586   -0.69163126     0.013088467  
   5787000   0.054005647   -0.81206406     0.043925034   -0.68718282     0.016904891  
   5788000   0.054319848   -0.81219822     0.041224553   -0.68954646     0.017505469  
   5789000   0.05565126    -0.81006697     0.04153851    -0.68510542     0.03517041   
   5790000   0.053483147   -0.81085386     0.043708137   -0.68697276     0.013267103  
   5791000   0.05430878    -0.81269773     0.04170384    -0.68958328     0.018359429  
   5792000   0.051669901   -0.81323706     0.041358482   -0.69442373     0.034616313  
   5793000   0.054103799   -0.81128331     0.045108649   -0.68507132     0.041945232  
   5794000   0.05538626    -0.81133971     0.042655217   -0.68565871     0.021049067  
   5795000   0.052665485   -0.8133989      0.044035673   -0.69041597     0.027359556  
   5796000   0.05291548    -0.81152394     0.042039563   -0.69016237     0.02385359   
   5797000   0.055820684   -0.81251994     0.043661176   -0.68518176     0.018773912  
   5798000   0.055279715   -0.81148134     0.04043155    -0.68818371     0.02174894   
   5799000   0.053310504   -0.81282216     0.042755799   -0.6901522      0.014737003  
   5800000   0.053811023   -0.81176626     0.042035462   -0.68906634     0.041709619  
   5801000   0.054725558   -0.81125805     0.042962166   -0.6862605      0.015697659  
   5802000   0.054294521   -0.81220402     0.042119707   -0.68869508     0.036398031  
   5803000   0.054929866   -0.80955677     0.040715764   -0.68649936     0.040308338  
   5804000   0.053198547   -0.81011648     0.041902327   -0.68846782     0.022948254  
   5805000   0.054195238   -0.81210943     0.042360743   -0.68850827     0.017836647  
   5806000   0.054310762   -0.81257769     0.043884441   -0.68727967     0.0061526955 
   5807000   0.053775732   -0.81163356     0.043390573   -0.68763143     0.036175129  
   5808000   0.052974153   -0.81218589     0.041441545   -0.69133438     0.031718506  
   5809000   0.052414463   -0.81476303     0.042740268   -0.69345179     0.021884741  
   5810000   0.051377878   -0.81099412     0.041251427   -0.69272559     0.021356066  
   5811000   0.05171876    -0.81036944     0.042409454   -0.6904319      0.020080059  
   5812000   0.054163521   -0.81220054     0.042561762   -0.68844591     0.013728687  
   5813000   0.055736807   -0.81194683     0.041198445   -0.68719711     0.030120124  
   5814000   0.055048009   -0.81150159     0.04425477    -0.68472808     0.014368333  
   5815000   0.054805817   -0.81245808     0.04389691    -0.68640548     0.033161491  
   5816000   0.055282989   -0.81073029     0.040902925   -0.68695638     0.011238314  
   5817000   0.055394941   -0.81313988     0.042617445   -0.68748363     0.026557722  
   5818000   0.053522307   -0.80920021     0.041403156   -0.68756538     0.010236757  
   5819000   0.054120057   -0.81101118     0.044848144   -0.68503533     0.026390335  
   5820000   0.054280193   -0.81142946     0.042224417   -0.68783728     0.027104718  
   5821000   0.054009485   -0.81172194     0.041448972   -0.689311       0.016217759  
   5822000   0.05315315    -0.81166921     0.042501585   -0.68948933     0.0213026    
   5823000   0.054510152   -0.81198427     0.042930079   -0.68734171     0.011347967  
   5824000   0.052759854   -0.8131716      0.041104167   -0.6929787     -0.0045847585 
   5825000   0.053154419   -0.81070324     0.042113468   -0.68890958     0.013890037  
   5826000   0.052426507   -0.81149415     0.043058988   -0.68984613    -0.0055588938 
   5827000   0.055150919   -0.81160413     0.043182989   -0.68574814     0.0030586793 
   5828000   0.055565847   -0.81216009     0.043973446   -0.68489164     0.0042277011 
   5829000   0.053849352   -0.81163169     0.042300551   -0.68860922     0.020317663  
   5830000   0.054301651   -0.81238431     0.043187875   -0.68779651     0.014047631  
   5831000   0.054510383   -0.8133572      0.040874811   -0.69076956     0.010450672  
   5832000   0.05466989    -0.81282079     0.041599319   -0.68926954     0.01868828   
   5833000   0.054424853   -0.81304231     0.040236748   -0.69122095    -0.001343325  
   5834000   0.055429794   -0.81175934     0.041844806   -0.68682349     0.015741577  
   5835000   0.053872843   -0.81072022     0.042923613   -0.68703947     0.0080202826 
   5836000   0.052779965   -0.81001133     0.041180952   -0.6897115      0.014446681  
   5837000   0.051249554   -0.81133673     0.043250162   -0.69126184     0.015105164  
   5838000   0.052479881   -0.81139919     0.04109185    -0.69163831     0.01946051   
   5839000   0.052910355   -0.81258918     0.042254254   -0.6910206      0.0081875456 
   5840000   0.053332736   -0.81083762     0.041894836   -0.68899529     0.009762536  
   5841000   0.054816672   -0.81351405     0.04276676    -0.68857533     0.013774721  
   5842000   0.053747262   -0.81204652     0.040660981   -0.69081666     0.015657497  
   5843000   0.054754182   -0.81171819     0.042973754   -0.68666615     0.015606789  
   5844000   0.055301977   -0.81305709     0.041950991   -0.68820665     0.020886529  
   5845000   0.054168363   -0.81281623     0.042397327   -0.68921878     0.024394111  
   5846000   0.053339068   -0.81360916     0.044637887   -0.68901428     0.024875395  
   5847000   0.052048998   -0.81255917     0.043487885   -0.69104816    -0.00016500306
   5848000   0.05233572    -0.81323267     0.0415749     -0.69320483     0.026837165  
   5849000   0.0536007     -0.81098615     0.042331906   -0.68830506     0.010227336  
   5850000   0.054458857   -0.81146395     0.041630644   -0.68819772     0.021316538  
   5851000   0.05495953    -0.81304677     0.042393975   -0.68826669     0.020570664  
   5852000   0.05503793    -0.80984619     0.041249939   -0.68609262     0.025859728  
   5853000   0.054411646   -0.810285       0.044532348   -0.68418784     0.024085375  
   5854000   0.055573833   -0.80908445     0.043739511   -0.68203797     0.0051423555 
   5855000   0.053777666   -0.8126928      0.04349691    -0.68858144     0.019366604  
   5856000   0.053056685   -0.81271377     0.040039725   -0.69314036     0.018653644  
   5857000   0.054065135   -0.81473839     0.042962647   -0.69073036    -0.017872681  
   5858000   0.053441249   -0.81302436     0.042667935   -0.69024627     0.0079694198 
   5859000   0.05494415    -0.81041364     0.045077135   -0.68297345     0.030098276  
   5860000   0.054143599   -0.81221813     0.044711768   -0.68634336     0.0095890919 
   5861000   0.054049791   -0.81171243     0.043609637   -0.68708041     0.021223305  
   5862000   0.055766618   -0.81116221     0.043128989   -0.68443726     0.013325088  
   5863000   0.056985963   -0.81092916     0.043993377   -0.68151199     0.035672618  
   5864000   0.054734799   -0.8112265      0.042841163   -0.68633611     0.036469546  
   5865000   0.054263589   -0.81298588     0.042868329   -0.68877468     0.010557945  
   5866000   0.056535901   -0.81211262     0.041046377   -0.6863171      0.0039722786 
   5867000   0.054783134   -0.81171391     0.044141885   -0.68545034     0.017836138  
   5868000   0.052818259   -0.81106393     0.043928876   -0.68795877    -0.0077780944 
   5869000   0.054409063   -0.81097559     0.039992124   -0.68942253     0.0065627451 
   5870000   0.054110205   -0.81283698     0.041902111   -0.68982193     0.014952047  
   5871000   0.05427526    -0.80915482     0.043841641   -0.68395281    -0.009720381  
   5872000   0.053528804   -0.81099878     0.042873347   -0.68788403     0.013209857  
   5873000   0.055717294   -0.81198228     0.044540776   -0.68391949     0.013189454  
   5874000   0.054461477   -0.81199678     0.045039674   -0.6853176      0.028177358  
   5875000   0.055132864   -0.81317045     0.043652719   -0.68687179     0.0022251877 
   5876000   0.054442143   -0.81361863     0.042627756   -0.68938035    -0.0056601985 
   5877000   0.052973595   -0.81303989     0.04198322    -0.69164755     0.00013621518
   5878000   0.053533548   -0.81235054     0.04204543    -0.69005659     0.0082090351 
   5879000   0.052206181   -0.81089164     0.042375045   -0.69025785    -0.00036822949
   5880000   0.053436247   -0.81028335     0.041458709   -0.68872198     0.011102553  
   5881000   0.054564522   -0.80815632     0.042994876   -0.68336747     0.015094555  
   5882000   0.054862897   -0.81225216     0.044747865   -0.68526305    -0.00028062924
   5883000   0.056434203   -0.81008995     0.041107797   -0.68438546     0.012792863  
   5884000   0.05579145    -0.81203674     0.042940413   -0.68546314     0.041548276  
   5885000   0.053298737   -0.81190664     0.043558148   -0.68845197     0.0011507005 
   5886000   0.053950495   -0.81251075     0.042659464   -0.68897775     0.01778062   
   5887000   0.054156012   -0.81044653     0.041817073   -0.68744785    -0.00043889686
   5888000   0.055232398   -0.81359168     0.042868279   -0.68792826     0.00039266856
   5889000   0.054920048   -0.81156086     0.040790233   -0.68844371     0.032195421  
   5890000   0.054753762   -0.81246328     0.042993205   -0.68739242     0.022088659  
   5891000   0.054984483   -0.81150664     0.042897703   -0.68618542     0.0088111949 
   5892000   0.052144268   -0.80854041     0.0447146     -0.68565987     0.011720534  
   5893000   0.054043455   -0.81042206     0.043540863   -0.68586832     0.0014604926 
   5894000   0.054722918   -0.80985563     0.044574252   -0.68324996     0.0069153826 
   5895000   0.056354655   -0.81091569     0.04383561    -0.68260264     0.012311854  
   5896000   0.054648969   -0.81181312     0.043654654   -0.6862379      0.0019723299 
   5897000   0.055529432   -0.81152487     0.044781581   -0.68350288     0.011860885  
   5898000   0.056745284   -0.81063096     0.040801072   -0.68476688     0.0086761918 
   5899000   0.054157249   -0.81179297     0.042708924   -0.68790059     0.021065638  
   5900000   0.054540937   -0.81083126     0.043394203   -0.68567843     0.014454827  
   5901000   0.053500978   -0.81181866     0.041724637   -0.68989433    -0.0040223724 
   5902000   0.053125501   -0.81027027     0.042631092   -0.68800234     0.012274862  
   5903000   0.05417471    -0.81289668     0.042459401   -0.68922764     0.004458238  
   5904000   0.056065801   -0.81057346     0.045293223   -0.68123579     0.00081287689
   5905000   0.055728506   -0.81282517     0.045097748   -0.68418859     0.0042364234 
   5906000   0.055290437   -0.81262267     0.042221274   -0.68751925     0.0093322642 
   5907000   0.056275856   -0.81182057     0.044268297   -0.68319295     0.014146413  
   5908000   0.055017353   -0.81202838     0.042119983   -0.68743561     0.010806932  
   5909000   0.055257328   -0.81128386     0.041854454   -0.68659689     0.020900139  
   5910000   0.054594935   -0.80857935     0.042179748   -0.68456004     0.018450502  
   5911000   0.053524388   -0.81252745     0.042550543   -0.68974212     0.042143076  
   5912000   0.052995893   -0.81092526     0.044223319   -0.68725938     0.021681552  
   5913000   0.055354912   -0.81134142     0.041596058   -0.68676656     0.025938123  
   5914000   0.055939265   -0.81321359     0.041533841   -0.68782498     0.015231427  
   5915000   0.052898198   -0.81194035     0.042059597   -0.69058465     0.02311162   
   5916000   0.052797351   -0.81286572     0.040853879   -0.69286691     0.005461317  
   5917000   0.053781758   -0.81176345     0.042847646   -0.68829521     0.02566992   
   5918000   0.053269271   -0.81289631     0.043232319   -0.68981164    -0.0027923467 
   5919000   0.056278929   -0.8114637      0.042805486   -0.68429429     0.028867065  
   5920000   0.054649351   -0.81219304     0.043599094   -0.68667281     0.0238052    
   5921000   0.055248227   -0.81323142     0.041942464   -0.68847008     0.024445982  
   5922000   0.054127646   -0.81043164     0.04375541    -0.68553714     0.015271792  
   5923000   0.054401848   -0.81349887     0.043845275   -0.68810347     0.0082600693 
   5924000   0.053691415   -0.81204546     0.042486396   -0.6890739      0.022223952  
   5925000   0.056340571   -0.81011882     0.043696687   -0.6819658     -0.0029942894 
   5926000   0.054130178   -0.81274876     0.04173227    -0.68987361    -0.0010331033 
   5927000   0.053341621   -0.81265511     0.042650895   -0.6900434     -0.004374481  
   5928000   0.055343409   -0.8096102      0.043184985   -0.68346366     0.021798861  
   5929000   0.055413067   -0.81201516     0.044818698   -0.68413049     0.03467969   
   5930000   0.054044279   -0.81066335     0.041115711   -0.68853352     0.014221964  
   5931000   0.052756668   -0.81269703     0.041249632   -0.69236345     0.016153738  
   5932000   0.052488354   -0.81403213     0.041969471   -0.69338092    -0.004770302  
   5933000   0.051506386   -0.81361206     0.043318825   -0.6930835      0.00082546556
   5934000   0.051362736   -0.81380363     0.043237391   -0.69357184     0.013318212  
   5935000   0.056016025   -0.81076751     0.041099115   -0.68569857     0.005429503  
   5936000   0.055209547   -0.8131673      0.041643541   -0.68876286    -0.0031460614 
   5937000   0.055325953   -0.81184986     0.041662126   -0.68725235     0.019099578  
   5938000   0.052853385   -0.81182904     0.041601297   -0.69099882     0.0085301676 
   5939000   0.052715555   -0.81233922     0.040880132   -0.69243677     0.0039748908 
   5940000   0.053053023   -0.81382631     0.042587475   -0.69171064     0.011441273  
   5941000   0.054828103   -0.81145015     0.042906308   -0.68635475     0.01286116   
   5942000   0.054765189   -0.81287745     0.0401677     -0.69061496     0.031421618  
   5943000   0.052647186   -0.81062162     0.041763104   -0.68993869     0.018610615  
   5944000   0.05187642    -0.81376584     0.039975265   -0.69602615     0.026021264  
   5945000   0.054268439   -0.81296217     0.043114523   -0.68849751     0.0027557612 
   5946000   0.053097909   -0.81099355     0.043505913   -0.68789216     0.015746477  
   5947000   0.053155512   -0.81125711     0.042981588   -0.68859369     0.00086141979
   5948000   0.054585274   -0.81397192     0.043837924   -0.68830891     0.031288349  
   5949000   0.054489218   -0.81215771     0.045829819   -0.6846468      0.017657544  
   5950000   0.056027838   -0.81117887     0.043381671   -0.68380966     0.014661892  
   5951000   0.055571988   -0.81169447     0.041891409   -0.68649886     0.0086032407 
   5952000   0.053480113   -0.81130307     0.043428837   -0.68770582     0.014836685  
   5953000   0.055945352   -0.81226605     0.04337339    -0.68502878     0.018476856  
   5954000   0.057052298   -0.81300967     0.043494443   -0.68399199     0.0080339715 
   5955000   0.055936834   -0.813151       0.044201656   -0.68509822     0.032501519  
   5956000   0.053616098   -0.81332475     0.042185104   -0.69076739     0.016026304  
   5957000   0.053923441   -0.81081388     0.041545954   -0.68843495     0.014828873  
   5958000   0.054898579   -0.81369851     0.043810312   -0.68759345     0.040020059  
   5959000   0.054153852   -0.81236272     0.04225235    -0.688932       0.017207872  
   5960000   0.052334342   -0.81300487     0.044773268   -0.68978074     0.026099938  
   5961000   0.055279337   -0.81314151     0.043333628   -0.68694238     0.0090227124 
   5962000   0.054075855   -0.81165927     0.041483613   -0.6891142      0.0062535377 
   5963000   0.052881079   -0.81232776     0.041377079   -0.69168024     0.003439006  
   5964000   0.054523757   -0.8109292      0.041948261   -0.68724807     0.020494529  
   5965000   0.053479692   -0.81093551     0.043990661   -0.68677706     0.0089354587 
   5966000   0.053902057   -0.81415125     0.042403211   -0.69094711    -0.0013361551 
   5967000   0.055527535   -0.81352528     0.044223168   -0.68606454     0.003136183  
   5968000   0.054770639   -0.81349128     0.042065601   -0.68932273     0.020222986  
   5969000   0.05537029    -0.81140551     0.041462336   -0.68694132     0.0063652743 
   5970000   0.057144889   -0.81107745     0.042376359   -0.68303906     0.018582246  
   5971000   0.05395137    -0.81318734     0.044146358   -0.68816614     0.025587524  
   5972000   0.053506262   -0.81113111     0.041410535   -0.68951296     0.0091356174 
   5973000   0.052849288   -0.81277309     0.041695558   -0.69185474     0.022181197  
   5974000   0.055278537   -0.81310417     0.041380305   -0.68885955     0.01006045   
   5975000   0.051912968   -0.81287143     0.042739038   -0.69231318     0.016831472  
   5976000   0.052913507   -0.8120698      0.044087455   -0.68866329     0.026956005  
   5977000   0.05535776    -0.81427474     0.044442195   -0.68684947    -0.0017962782 
   5978000   0.055321039   -0.81106445     0.044168728   -0.68396769     0.0099302156 
   5979000   0.053901064   -0.81156284     0.042787771   -0.68797564     0.02244842   
   5980000   0.053487431   -0.81410194     0.042986558   -0.690936       0.0094122781 
   5981000   0.054723061   -0.81151839     0.040951197   -0.68853556     0.01768917   
   5982000   0.053576867   -0.81351779     0.043399796   -0.68980454     0.014650771  
   5983000   0.054191565   -0.81181815     0.042790814   -0.68779243     0.033706313  
   5984000   0.0539872     -0.8102965      0.041656722   -0.68771123     0.01344861   
   5985000   0.055269978   -0.81018504     0.04255189    -0.68478167     0.037823125  
   5986000   0.0542109     -0.81330366     0.043816195   -0.68822358     0.03165357   
   5987000   0.053056817   -0.81190403     0.042249704   -0.69012045     0.014640143  
   5988000   0.052418025   -0.81301319     0.042650725   -0.69178616     0.010043196  
   5989000   0.054493568   -0.8113756      0.041641143   -0.68804684     0.016646648  
   5990000   0.052913738   -0.81115332     0.042316202   -0.68951772     0.019385107  
   5991000   0.053802116   -0.81153876     0.04124368    -0.68964397     0.01107952   
   5992000   0.054545063   -0.81350343     0.044017657   -0.68772097     0.028674661  
   5993000   0.053775942   -0.81082518     0.045186199   -0.68502711     0.023418331  
   5994000   0.053769219   -0.81297778     0.044143008   -0.68823298     0.012541243  
   5995000   0.053137825   -0.81211534     0.042404091   -0.69005594     0.0072978818 
   5996000   0.056683242   -0.81206088     0.044069645   -0.68302122     0.014336408  
   5997000   0.055837299   -0.81153198     0.043311069   -0.684519       0.018084078  
   5998000   0.054932811   -0.81341878     0.040920899   -0.69015183     0.02124395   
   5999000   0.053551518   -0.81323443     0.045653627   -0.68730535     0.013415396  
   6000000   0.053134904   -0.8134609      0.042304812   -0.69150515    -0.00028081478
   6001000   0.054529022   -0.81265034     0.042327149   -0.68858243     0.021126878  
   6002000   0.055224358   -0.81157676     0.042128986   -0.68666468    -0.0053569859 
   6003000   0.054648914   -0.81199519     0.042022484   -0.68805222     0.016908543  
   6004000   0.054607564   -0.81221757     0.045242909   -0.68511616     0.012020851  
   6005000   0.054859103   -0.81133914     0.043381081   -0.6857225      0.021617606  
   6006000   0.054505289   -0.81421931     0.042848368   -0.68966576     0.014731343  
   6007000   0.055317608   -0.8112653      0.043571018   -0.6847714      0.017223243  
   6008000   0.0539036     -0.81341782     0.045592127   -0.68702246     0.0077384774 
   6009000   0.0554858     -0.814367       0.044732478   -0.68645952    -0.011941319  
   6010000   0.055517368   -0.81160557     0.044820533   -0.68356272     0.017677365  
   6011000   0.055850752   -0.8122137      0.045028336   -0.68346328    -0.002723196  
   6012000   0.05483967    -0.81192476     0.044261624   -0.6854567     -0.0085859755 
   6013000   0.054654982   -0.81212107     0.042558786   -0.68763271     0.00736179   
   6014000   0.053444539   -0.81229784     0.043985042   -0.68819771     0.0025121246 
   6015000   0.05643304    -0.81372614     0.044418565   -0.68471262     0.0040697629 
   6016000   0.054781248   -0.81277075     0.043367555   -0.68728433     0.011766432  
   6017000   0.053765821   -0.81045553     0.043718866   -0.68613997     0.025733001  
   6018000   0.05549979    -0.81186033     0.042881784   -0.68578257     0.0082341022 
   6019000   0.054942151   -0.81244341     0.043782366   -0.68630098     0.0035910743 
   6020000   0.052948872   -0.81124254     0.043469411   -0.68840106     0.010161501  
   6021000   0.054865785   -0.81190766     0.043172078   -0.68649        0.0081059187 
   6022000   0.055588338   -0.81445367     0.043998528   -0.68712643    -0.0056898155 
   6023000   0.053927344   -0.81334658     0.043690909   -0.68881684    -0.0047644027 
   6024000   0.054743037   -0.81326432     0.043126029   -0.68807671     0.010103282  
   6025000   0.052960062   -0.81023117     0.04117701    -0.68966532     0.030459771  
   6026000   0.054155132   -0.81361976     0.044857909   -0.68758156     0.01311083   
   6027000   0.0539422     -0.81090226     0.043734301   -0.68630686     0.0032244673 
   6028000   0.053051541   -0.81094637     0.043219866   -0.68820053     0.020776601  
   6029000   0.05531946    -0.81114808     0.043479379   -0.68474305     0.0076821912 
   6030000   0.057165554   -0.81093136     0.043191269   -0.68204708     0.031961658  
   6031000   0.054426094   -0.81262683     0.045628864   -0.6854115      0.0049466745 
   6032000   0.055422738   -0.81159277     0.04487582    -0.68363647     0.0063952919 
   6033000   0.056345747   -0.81356706     0.041411147   -0.68769182     0.020670312  
   6034000   0.054377204   -0.81249549     0.044399923   -0.68658238     0.00039180541
   6035000   0.053959175   -0.81163763     0.042375346   -0.68837574     0.0060533124 
   6036000   0.056203513   -0.81256925     0.044525711   -0.68379266     0.0072026754 
   6037000   0.055247011   -0.8119938      0.043409864   -0.68576688     0.002314625  
   6038000   0.054030889   -0.8120103      0.042234287   -0.68878197     0.024718054  
   6039000   0.054033177   -0.81259225     0.043951296   -0.68764348     0.006950116  
   6040000   0.054828288   -0.8140168      0.04273632    -0.68909111     0.018522523  
   6041000   0.053405176   -0.8126124      0.043205087   -0.68935124    -0.0013799648 
   6042000   0.052546883   -0.81244783     0.042654498   -0.69102386     0.0084753421 
   6043000   0.054580738   -0.8135871      0.043467047   -0.68830177    -0.0094165967 
   6044000   0.0561477     -0.81425372     0.042934693   -0.68715182     0.0037808862 
   6045000   0.053892058   -0.81193378     0.042437206   -0.68871064     0.014089703  
   6046000   0.052823883   -0.81233961     0.044615875   -0.68853903    -0.0054218562 
   6047000   0.052381779   -0.81036722     0.040179332   -0.69166591     0.0219512    
   6048000   0.054198007   -0.80953969     0.041620097   -0.68667503     0.0018646877 
   6049000   0.053617287   -0.81232731     0.044079399   -0.68787387    -0.0060544138 
   6050000   0.054871558   -0.81211426     0.043526283   -0.68633374     0.012517541  
   6051000   0.054066514   -0.8126886      0.041073746   -0.6905674      0.0031394395 
   6052000   0.054767939   -0.8126557      0.042583552   -0.68797324    -0.0076492384 
   6053000   0.054168788   -0.81369312     0.042977032   -0.68951532     0.010834984  
   6054000   0.052394371   -0.81233784     0.042713418   -0.69108357     0.020695088  
   6055000   0.054039912   -0.81299847     0.041545335   -0.69044556     0.025349762  
   6056000   0.05358717    -0.81114414     0.042578096   -0.68823715     0.012148362  
   6057000   0.05474966    -0.8128594      0.044280404   -0.68650749     0.0088240832 
   6058000   0.055233173   -0.81329673     0.044348583   -0.68615184     0.01351267   
   6059000   0.054613899   -0.81271669     0.043964235   -0.68688446     0.0057324957 
   6060000   0.055700683   -0.81224753     0.043037417   -0.68571299     0.0042855351 
   6061000   0.054485407   -0.81095584     0.042465006   -0.68681545     0.0016305244 
   6062000   0.054009849   -0.81313844     0.044174269   -0.68800166     0.014322327  
   6063000   0.054206051   -0.81314859     0.045189203   -0.68670277     0.00015225313
   6064000   0.054070451   -0.81416531     0.041615314   -0.69149664     0.023088421  
   6065000   0.053659586   -0.81278508     0.040577768   -0.69176986     0.016316022  
   6066000   0.051783694   -0.81190376     0.042501808   -0.69177653     0.010497042  
   6067000   0.053322914   -0.81453238     0.042546001   -0.69205361    -0.0016428819 
   6068000   0.053066408   -0.8135625      0.039803755   -0.69421049     0.0085329184 
   6069000   0.054349565   -0.81258111     0.041751487   -0.68935787     0.0036650101 
   6070000   0.05440526    -0.81147301     0.042369902   -0.68754787     0.02760987   
   6071000   0.053284366   -0.81250088     0.041743085   -0.69088282     0.021071361  
   6072000   0.054336432   -0.81010869     0.04276366    -0.68589296     0.007354609  
   6073000   0.054199427   -0.81263749     0.040842771   -0.69054803     0.0016214596 
   6074000   0.054321754   -0.81213385     0.042849847   -0.68785394    -0.0018729925 
   6075000   0.054821864   -0.81131696     0.043159442   -0.68597778     0.012103767  
   6076000   0.055908543   -0.81089273     0.044791715   -0.68229231     0.014066571  
   6077000   0.056722463   -0.81231602     0.041709841   -0.68557738     0.011295256  
   6078000   0.054295035   -0.81258864     0.043111645   -0.68808699    -0.014753686  
   6079000   0.055143957   -0.81244745     0.041595666   -0.68818922    -0.0069332853 
   6080000   0.054667006   -0.81216        0.042857671   -0.68735472     0.0025089845 
   6081000   0.055427128   -0.80955039     0.041295235   -0.6851681      0.019500667  
   6082000   0.055640221   -0.81212528     0.039646641   -0.68907215     0.015389196  
   6083000   0.056214726   -0.81142027     0.042085394   -0.68506719     0.018804747  
   6084000   0.054334125   -0.81228802     0.043420246   -0.68741917    -0.0059793452 
   6085000   0.052670713   -0.81228551     0.042916315   -0.69041409     0.027347828  
   6086000   0.054077951   -0.81311288     0.042921116   -0.68912717     0.0022005902 
   6087000   0.053965076   -0.81131614     0.043682502   -0.68673825     0.0073598377 
   6088000   0.052945106   -0.81152349     0.042591775   -0.6895653      0.015036953  
   6089000   0.053405784   -0.81470776     0.041622392   -0.69302838     0.0029094565 
   6090000   0.055247337   -0.81112975     0.039950665   -0.68836154     0.0032517486 
   6091000   0.054235738   -0.81149343     0.041600847   -0.68859146     0.021882648  
   6092000   0.054107329   -0.81253271     0.04240581    -0.68901827    -0.00014184055
   6093000   0.055034333   -0.81105362     0.043732227   -0.68482315     0.013270829  
   6094000   0.054726761   -0.81387836     0.044413489   -0.68742769     0.01551756   
   6095000   0.053799584   -0.81167192     0.0451352     -0.68588941     0.010402235  
   6096000   0.056307509   -0.80972931     0.040827114   -0.68449543    -0.00080618779
   6097000   0.052948166   -0.80926054     0.043611023   -0.68627851     0.006000566  
   6098000   0.055027262   -0.81158219     0.042306692   -0.68678786     0.025608267  
   6099000   0.055103685   -0.81281392     0.042329124   -0.68788259     0.029494718  
   6100000   0.054158873   -0.81078502     0.042144624   -0.6874545      0.018555249  
   6101000   0.056595623   -0.81227386     0.040970266   -0.68646493     0.028934293  
   6102000   0.054654841   -0.81400906     0.042275672   -0.68980402     0.033131011  
   6103000   0.054566345   -0.81335099     0.043098384   -0.6884559     -0.00217407   
   6104000   0.055270503   -0.81242865     0.042594169   -0.68698222     0.011772545  
   6105000   0.055324315   -0.81389171     0.043158151   -0.68780063    -0.0046576957 
   6106000   0.055368346   -0.81137503     0.044116191   -0.6842599      0.013154282  
   6107000   0.055257367   -0.81427477     0.045212567   -0.68622962     0.018224946  
   6108000   0.054958809   -0.81335801     0.043053549   -0.68791943     0.0081420137 
   6109000   0.055370918   -0.81259367     0.042195849   -0.68739503     0.01327536   
   6110000   0.055886845   -0.81271397     0.043241002   -0.68569678     0.011907114  
   6111000   0.053198506   -0.81178121     0.042537032   -0.6894979      0.015464785  
   6112000   0.053498351   -0.81231588     0.044181537   -0.68793859     0.032151974  
   6113000   0.052552335   -0.81507999     0.042820121   -0.69348223     0.0015962407 
   6114000   0.053579728   -0.81031669     0.041420493   -0.68857846     0.038260169  
   6115000   0.055315847   -0.81236138     0.042082524   -0.68735862     0.031373282  
   6116000   0.055302619   -0.81174548     0.042899628   -0.68594545     0.0288139    
   6117000   0.057050332   -0.81333023     0.043279124   -0.68453082     0.014192493  
   6118000   0.056150107   -0.8098821      0.042589453   -0.68312182    -0.00306336   
   6119000   0.055993313   -0.81067065     0.042157227   -0.68457764     0.031782538  
   6120000   0.053003559   -0.81347384     0.043444015   -0.69057578     0.019115113  
   6121000   0.056409522   -0.81067008     0.044443862   -0.68166652     0.017056646  
   6122000   0.056250093   -0.81149404     0.040569975   -0.68660336     0.048745403  
   6123000   0.054192542   -0.81226243     0.042389346   -0.68863671     0.027225532  
   6124000   0.055517489   -0.81048896     0.042044068   -0.68522239     0.012022561  
   6125000   0.052796846   -0.811981       0.04162147    -0.69121535     0.013794122  
   6126000   0.053428864   -0.81225922     0.041876283   -0.69029134     0.0096092923 
   6127000   0.054182751   -0.81044047     0.042337289   -0.68688149     0.019875569  
   6128000   0.054956621   -0.81412403     0.041902769   -0.68983951     0.0055734589 
   6129000   0.051752601   -0.81021381     0.040106476   -0.69252851     0.015143682  
   6130000   0.053727854   -0.81220737     0.042844104   -0.68882348     0.0099854216 
   6131000   0.05533259    -0.81265449     0.04329585    -0.6864133      0.0033236936 
   6132000   0.054569359   -0.80991541     0.041793664   -0.68632052     0.0159215    
   6133000   0.054233316   -0.81163458     0.043045051   -0.68729204     0.01592887   
   6134000   0.053834063   -0.81517259     0.044350873   -0.69012272     0.0069024089 
   6135000   0.0539038     -0.81230466     0.04399782    -0.68750331     0.011234534  
   6136000   0.054839551   -0.81189802     0.042823833   -0.68686793     0.0037953203 
   6137000   0.055552516   -0.81450262     0.04334091    -0.68788669     0.017532702  
   6138000   0.055725389   -0.81068151     0.042860832   -0.68428652     0.016425109  
   6139000   0.055971898   -0.81267773     0.042149735   -0.68662432     0.032208076  
   6140000   0.054409536   -0.81345094     0.042641005   -0.68924828     0.022114023  
   6141000   0.054548607   -0.8111588      0.042888016   -0.68650066     0.022959329  
   6142000   0.054476184   -0.81388221     0.042365896   -0.68985476    -0.0085493751 
   6143000   0.056875794   -0.81169789     0.042633768   -0.68380547     0.0053656902 
   6144000   0.055186444   -0.81032382     0.043084241   -0.68451332     0.0081073756 
   6145000   0.055053647   -0.8134595      0.044090993   -0.68684131     0.01138532   
   6146000   0.054549932   -0.81145952     0.042710194   -0.68697722     0.013612646  
   6147000   0.054145434   -0.81330457     0.042500332   -0.68963849    -0.0052555317 
   6148000   0.054897911   -0.81355722     0.044144178   -0.68711931    -0.010289121  
   6149000   0.053679114   -0.81121321     0.041762425   -0.68898406     0.034774654  
   6150000   0.055349265   -0.81151746     0.043762785   -0.68478434     0.01259612   
   6151000   0.055639289   -0.81376012     0.04451124    -0.6858438      0.019041019  
   6152000   0.054928546   -0.81060563     0.042748895   -0.68551708     0.0092277911 
   6153000   0.053885704   -0.81028267     0.045255024   -0.68425124     0.011468151  
   6154000   0.055881146   -0.81322006     0.041869367   -0.68758306     0.0036208875 
   6155000   0.055893924   -0.81164371     0.042411918   -0.685445       0.0097404125 
   6156000   0.055556962   -0.81271013     0.041591135   -0.68783732     0.0038230396 
   6157000   0.054264618   -0.81071223     0.039763725   -0.68960409     0.014991249  
   6158000   0.054963749   -0.81286786     0.042394485   -0.68808094     0.021366537  
   6159000   0.055233356   -0.81017862     0.042441455   -0.68494059     0.015968854  
   6160000   0.054497842   -0.81371068     0.043414209   -0.68860245    -0.00064729696
   6161000   0.055208601   -0.81122164     0.046545979   -0.68191619     0.013118344  
   6162000   0.05352196    -0.81395974     0.043006557   -0.69072204     0.016275621  
   6163000   0.053381178   -0.81233367     0.04451032    -0.68780324     0.018615726  
   6164000   0.055566589   -0.8129876      0.042777641   -0.68691385     0.01409216   
   6165000   0.054541087   -0.81272821     0.042273567   -0.6886958      0.030769167  
   6166000   0.054583862   -0.8109727      0.044053339   -0.68509639     0.016902294  
   6167000   0.056317249   -0.81434861     0.042311064   -0.68761617     0.01775834   
   6168000   0.052514184   -0.81460205     0.044686292   -0.6911953      0.0037232411 
   6169000   0.054617809   -0.81194844     0.044142958   -0.68593163     0.0075011803 
   6170000   0.055160027   -0.81161345     0.042597425   -0.68632937     0.038915998  
   6171000   0.053792679   -0.81301401     0.043873609   -0.68850344     0.036853722  
   6172000   0.052743428   -0.81186137     0.042101709   -0.69069556     0.0097359261 
   6173000   0.052273456   -0.81211836     0.04302337    -0.6907354      0.015502054  
   6174000   0.05456141    -0.81210458     0.042451284   -0.68786399     0.016912266  
   6175000   0.052698955   -0.8121659      0.045942025   -0.68722644     0.016159039  
   6176000   0.052232103   -0.81273707     0.042449231   -0.69199023     0.030197781  
   6177000   0.055392391   -0.81041969     0.042552115   -0.6848326      0.010169105  
   6178000   0.053771464   -0.81060101     0.040923533   -0.68907232     0.023742229  
   6179000   0.051712748   -0.81176346     0.041350567   -0.69289381     0.0081688737 
   6180000   0.054964327   -0.8111465      0.04292304    -0.68583017     0.018388014  
   6181000   0.054684248   -0.81311744     0.040243876   -0.69090011     0.013529864  
   6182000   0.053405253   -0.81184393     0.043079433   -0.6887083      0.0032644398 
   6183000   0.051109532   -0.81358176     0.043407027   -0.6935599      0.010409749  
   6184000   0.052359101   -0.81082164     0.043098431   -0.68923523    -0.0077716192 
   6185000   0.054427797   -0.81214741     0.043209001   -0.68734938     0.02717895   
   6186000   0.055102546   -0.81217105     0.042943589   -0.68662697     0.0055959375 
   6187000   0.05381966    -0.81095926     0.041234468   -0.68904739    -0.0053239465 
   6188000   0.05478956    -0.81197296     0.045055324   -0.68478631     0.011512933  
   6189000   0.054019184   -0.80993811     0.042709663   -0.68625194     0.022308741  
   6190000   0.054066934   -0.81127922     0.043539804   -0.68669134     0.0032798245 
   6191000   0.053715117   -0.81008141     0.042600473   -0.68696025     0.016365647  
   6192000   0.055746888   -0.8126309      0.042603212   -0.68646131     0.014206098  
   6193000   0.051891517   -0.81133937     0.043435825   -0.69011649     0.024323465  
   6194000   0.054654608   -0.81148749     0.045057186   -0.68450128     0.021488138  
   6195000   0.055396323   -0.81364475     0.040585634   -0.69001824     0.017423664  
   6196000   0.05172233    -0.81124068     0.04396195    -0.68974529     0.012860372  
   6197000   0.053687924   -0.81313911     0.041294243   -0.69136494     0.0060764976 
   6198000   0.051546144   -0.81380443     0.044818135   -0.69171696     0.0011119402 
   6199000   0.052992435   -0.81251119     0.042333714   -0.69074011     0.010070095  
   6200000   0.053763392   -0.81223949     0.043120832   -0.6885256      0.021526772  
   6201000   0.053404442   -0.81203817     0.044476734   -0.68750646     0.0037605059 
   6202000   0.055047409   -0.81409931     0.043080964   -0.6885005      0.00021015464
   6203000   0.053280423   -0.81187668     0.04386403    -0.68814358     0.009694633  
   6204000   0.055761881   -0.81333356     0.042844294   -0.68690041     0.032015069  
   6205000   0.054496571   -0.81390806     0.044581618   -0.68763433    -0.0060027667 
   6206000   0.05629145    -0.81178012     0.041388046   -0.68600937     0.012453033  
   6207000   0.054090476   -0.8123257      0.042325194   -0.68891714     0.0091160944 
   6208000   0.052808715   -0.81258961     0.043645944   -0.6897817     -0.0041538666 
   6209000   0.055335034   -0.81434548     0.044109957   -0.68728652     0.012329656  
   6210000   0.053851487   -0.81367947     0.042479939   -0.69047441     0.026825887  
   6211000   0.052331482   -0.81194091     0.043950435   -0.68954389     0.019960628  
   6212000   0.053947214   -0.81198441     0.042579302   -0.68853649     0.022321224  
   6213000   0.053438546   -0.81060766     0.041885795   -0.68861576     0.022271204  
   6214000   0.053252763   -0.81023372     0.041864089   -0.68854202     0.01010249   
   6215000   0.053763559   -0.81193422     0.043506827   -0.68783409     0.0088981006 
   6216000   0.055166726   -0.81264717     0.042501121   -0.68744934     0.0064535508 
   6217000   0.054546093   -0.81319591     0.043065674   -0.68836389     0.016898608  
   6218000   0.055887443   -0.8102695      0.042676768   -0.68381565     0.030043194  
   6219000   0.055331841   -0.81284161     0.046624762   -0.68327263     0.01561238   
   6220000   0.054091428   -0.81314217     0.043711496   -0.68834588     0.021480472  
   6221000   0.05081325    -0.81189621     0.041896303   -0.69382921     0.014358276  
   6222000   0.05390651    -0.81435846     0.041364994   -0.69218587     0.0057992471 
   6223000   0.053825461   -0.81255503     0.041652439   -0.69021649     0.025861274  
   6224000   0.055616947   -0.80962556     0.039468357   -0.68678561     0.025245022  
   6225000   0.054418947   -0.81346821     0.043732093   -0.68816036     0.023292255  
   6226000   0.055687309   -0.813751       0.042428749   -0.68784517    -0.0024556925 
   6227000   0.052736143   -0.81418629     0.046925498   -0.68820761    -0.00085790841
   6228000   0.052515763   -0.81132234     0.04369639    -0.68890313     0.013154465  
   6229000   0.054754757   -0.81198144     0.042662969   -0.68723933     0.0046681283 
   6230000   0.055897642   -0.81165949     0.042479594   -0.68538753     0.0084468536 
   6231000   0.055166918   -0.81273683     0.045066681   -0.68497316     0.00011647975
   6232000   0.055358811   -0.81240485     0.043879647   -0.68554055     0.017930129  
   6233000   0.053837255   -0.81152494     0.044917847   -0.68590332    -0.0030547431 
   6234000   0.056614491   -0.81299957     0.043071809   -0.68506082     0.017037374  
   6235000   0.053722933   -0.81192143     0.042091801   -0.68929722     0.024059016  
   6236000   0.055688865   -0.81225355     0.042999871   -0.68577428     0.0056483631 
   6237000   0.054450494   -0.81307523     0.041706259   -0.68974592     0.0088645619 
   6238000   0.053948041   -0.81411446     0.041023508   -0.6922211      0.024676578  
   6239000   0.055823592   -0.81389036     0.044724224   -0.68548477     0.030357407  
   6240000   0.055251286   -0.81318522     0.043308716   -0.68705305     0.0026913674 
   6241000   0.056250422   -0.81291684     0.041158995   -0.68743665     0.012022651  
   6242000   0.054967312   -0.81270196     0.04550919    -0.68479499     0.018723725  
   6243000   0.053855318   -0.81462327     0.044291142   -0.68960127     0.011337695  
   6244000   0.051813471   -0.81512377     0.042860851   -0.69459285     0.015371204  
   6245000   0.054138962   -0.81381884     0.041335556   -0.69132723     0.013450986  
   6246000   0.054185121   -0.81502363     0.042401535   -0.69139685     0.0076216363 
   6247000   0.055118434   -0.81230425     0.042476096   -0.68720384     0.020525521  
   6248000   0.055819157   -0.81448437     0.042410126   -0.68839953    -0.020548262  
   6249000   0.053090857   -0.81408151     0.044262348   -0.69023425     0.016834075  
   6250000   0.054692788   -0.81229032     0.043179176   -0.68712489     0.00055081992
   6251000   0.054932722   -0.81256683     0.044350587   -0.68587032     0.03085195   
   6252000   0.055355399   -0.81447211     0.045721459   -0.68577112     0.0037023055 
   6253000   0.055551341   -0.81425041     0.0422352     -0.68874195    -0.0067216669 
   6254000   0.054584142   -0.8148315      0.042723386   -0.69028473     0.014367575  
   6255000   0.053518838   -0.81273837     0.043593045   -0.68891886    -0.0035829718 
   6256000   0.055462178   -0.81419801     0.043091613   -0.6879668     -0.0011992854 
   6257000   0.053060813   -0.81204676     0.042383931   -0.69012295     0.036874747  
   6258000   0.053557833   -0.81142685     0.042962331   -0.6881796      0.0050046733 
   6259000   0.055527675   -0.81336455     0.043519216   -0.68660756     0.011155683  
   6260000   0.055732308   -0.81132696     0.042273694   -0.68550874     0.036071157  
   6261000   0.053182769   -0.81320943     0.043479857   -0.69000688     0.0071971947 
   6262000   0.05372545    -0.8123485      0.042438674   -0.68937364     0.034841512  
   6263000   0.054744401   -0.81394787     0.044063765   -0.68782049     0.02358043   
   6264000   0.054520668   -0.81403296     0.041757277   -0.69054744     0.036815126  
   6265000   0.054035247   -0.81426455     0.041729989   -0.69153399     0.027836657  
   6266000   0.053397684   -0.81506969     0.044394424   -0.69063042     0.01554252   
   6267000   0.054562833   -0.81379944     0.043024916   -0.68898308     0.015534193  
   6268000   0.054434985   -0.81414199     0.042652782   -0.68988941     0.022116842  
   6269000   0.054617232   -0.81366004     0.042182025   -0.68960502     0.023291537  
   6270000   0.054838415   -0.81417672     0.045209291   -0.68676287     0.01521292   
   6271000   0.054448301   -0.81354125     0.043424875   -0.68849661     0.0069773079 
   6272000   0.055256941   -0.81523564     0.04343818    -0.68896552     0.0066438571 
   6273000   0.054426505   -0.81539609     0.043210046   -0.69059896    -0.0028622772 
   6274000   0.052886895   -0.81348737     0.043360751   -0.69084746     0.02896466   
   6275000   0.05516194    -0.81551046     0.043139012   -0.68968192     0.015843728  
   6276000   0.053364561   -0.81443184     0.042049387   -0.69238726     0.018238845  
   6277000   0.054855554   -0.8132419      0.043300377   -0.68771128     0.032257616  
   6278000   0.054050546   -0.8135408      0.041810221   -0.69070706     0.045579796  
   6279000   0.055313531   -0.81383172     0.039659694   -0.69125526     0.034089412  
   6280000   0.0543113     -0.81475983     0.040997091   -0.69234835     0.015034714  
   6281000   0.053766554   -0.81184061     0.04437735    -0.68686546     0.018459051  
   6282000   0.05519479    -0.81182087     0.041590343   -0.68749176     0.010099496  
   6283000   0.053366428   -0.81200397     0.043505802   -0.68850017     0.019841578  
   6284000   0.052547411   -0.81356845     0.044233165   -0.69056502     0.021692985  
   6285000   0.053782226   -0.81381881     0.042219892   -0.69097763     0.044221621  
   6286000   0.053892543   -0.81411711     0.042759008   -0.69057145     0.02078136   
   6287000   0.054937695   -0.81259649     0.039631723   -0.69061139     0.025985005  
   6288000   0.052967732   -0.81478465     0.042091939   -0.69329237     0.032365382  
   6289000   0.054334126   -0.81386642     0.039917011   -0.6925008      0.02244138   
   6290000   0.052444041   -0.81358293     0.042625119   -0.6923425      0.058998895  
   6291000   0.052250603   -0.81258209     0.04208904    -0.6921677      0.049885501  
   6292000   0.05214192    -0.81367456     0.041607796   -0.69390435     0.058381534  
   6293000   0.051289455   -0.81433529     0.041306787   -0.69614396     0.060983232  
   6294000   0.054495276   -0.81125399     0.042383203   -0.68718061     0.026472877  
   6295000   0.055159831   -0.81394929     0.042132515   -0.6891304      0.023545542  
   6296000   0.054888109   -0.81308058     0.044455328   -0.68634621     0.013802329  
   6297000   0.054632571   -0.8116872      0.041224213   -0.688567       0.023850854  
   6298000   0.054532731   -0.81405611     0.042774899   -0.68953489     0.036073871  
   6299000   0.056698821   -0.81258736     0.043110293   -0.6844837      0.03364708   
   6300000   0.053777302   -0.81237345     0.043551839   -0.6882077      0.02525202   
   6301000   0.054965826   -0.81220285     0.042926786   -0.68688052     0.048179386  
   6302000   0.055900963   -0.81591655     0.044693726   -0.68742548     0.034923586  
   6303000   0.055724087   -0.81345779     0.044075117   -0.68585047     0.050691959  
   6304000   0.0552926     -0.81523831     0.041247726   -0.69110519     0.024065189  
   6305000   0.05388355    -0.81346254     0.042943714   -0.68974565     0.038949795  
   6306000   0.055504379   -0.81368841     0.042679815   -0.68780574     0.03621013   
   6307000   0.055937333   -0.81656289     0.043834814   -0.68887621     0.029252352  
   6308000   0.055517373   -0.81296977     0.042121585   -0.68762586     0.004542534  
   6309000   0.053995304   -0.81239069     0.044455566   -0.68699442     0.0088259622 
   6310000   0.054777032   -0.81177649     0.043756995   -0.68590696     0.02356557   
   6311000   0.05464623    -0.81382821     0.042844887   -0.68906686    -0.00098880463
   6312000   0.056073767   -0.81404071     0.043468164   -0.68651616     0.0201073    
   6313000   0.052907429   -0.81179395     0.042995388   -0.68948862     0.036193049  
   6314000   0.055403758   -0.81079056     0.041479721   -0.68625882     0.030669796  
   6315000   0.055645124   -0.81456921     0.043186661   -0.68796871     0.027257837  
   6316000   0.055349961   -0.80957499     0.040488197   -0.68611542     0.031204022  
   6317000   0.053976176   -0.81447135     0.041813854   -0.69174547     0.034247388  
   6318000   0.054801497   -0.81198282     0.042324103   -0.68750951     0.046306407  
   6319000   0.054732598   -0.81341917     0.042569804   -0.68880344     0.050568622  
   6320000   0.055198836   -0.81343014     0.043023727   -0.68766158     0.0526735    
   6321000   0.054372225   -0.81241539     0.041124607   -0.68978506     0.049139836  
   6322000   0.054046166   -0.81186862     0.042554344   -0.68829733     0.046140083  
   6323000   0.052747456   -0.81244403     0.041460199   -0.69191369     0.034907712  
   6324000   0.053532314   -0.81578723     0.044096365   -0.6914442      0.019418236  
   6325000   0.051893179   -0.8148205      0.044666932   -0.69236402     0.058524043  
   6326000   0.053472652   -0.8146381      0.042487751   -0.69199311     0.051130913  
   6327000   0.053122776   -0.81457665     0.043544431   -0.69139946     0.014439259  
   6328000   0.053059988   -0.8127687      0.042859479   -0.69037059     0.02290104   
   6329000   0.054224904   -0.81315403     0.040192917   -0.69167623     0.035926828  
   6330000   0.053810911   -0.81348884     0.042262343   -0.6905622      0.055813766  
   6331000   0.054601435   -0.81426724     0.041301449   -0.69111648     0.043228783  
   6332000   0.053934272   -0.8138781      0.041229545   -0.69179934     0.037981995  
   6333000   0.052612093   -0.81206225     0.041549506   -0.69164552     0.045629631  
   6334000   0.054243556   -0.8126631      0.041749877   -0.68960038     0.028947663  
   6335000   0.055242567   -0.81311948     0.040523474   -0.68978562     0.0529653    
   6336000   0.055404087   -0.8126122      0.042585733   -0.68697396     0.042952747  
   6337000   0.053228942   -0.81112915     0.04251296    -0.68882429     0.03289732   
   6338000   0.057918224   -0.81242649     0.043333205   -0.682272       0.0037310651 
   6339000   0.055538171   -0.81345277     0.045069645   -0.68512961     0.031448825  
   6340000   0.055137539   -0.81205348     0.045095389   -0.68430514     0.016201638  
   6341000   0.056079644   -0.81348637     0.042745225   -0.68667595     0.027327931  
   6342000   0.054809163   -0.811222       0.044516618   -0.68454468     0.030709978  
   6343000   0.056959905   -0.81492186     0.042506401   -0.68703072     0.023335586  
   6344000   0.054702718   -0.81066733     0.043416017   -0.68525017     0.029083688  
   6345000   0.05438189    -0.81283359     0.041928829   -0.68938455     0.024311412  
   6346000   0.056290882   -0.81305457     0.040591801   -0.68808092     0.020777158  
   6347000   0.053883516   -0.81504953     0.040378819   -0.69389758     0.02094003   
   6348000   0.053048687   -0.81450491     0.041594261   -0.69338896     0.017478819  
   6349000   0.054213463   -0.81152403     0.041713092   -0.68854321     0.016308276  
   6350000   0.053958999   -0.81165705     0.042427099   -0.68834367     0.02333432   
   6351000   0.054453613   -0.81403601     0.042125805   -0.69028248     0.014273867  
   6352000   0.055257397   -0.81291808     0.044138948   -0.68594651     0.015389726  
   6353000   0.056559905   -0.81076805     0.04266347    -0.68331946     0.02304759   
   6354000   0.054284413   -0.8127492      0.04516679    -0.68620832     0.026144803  
   6355000   0.053357167   -0.8125401      0.043279128   -0.68927686     0.009780573  
   6356000   0.053488767   -0.81382579     0.044419075   -0.68922532     0.016492292  
   6357000   0.053588595   -0.81362346     0.041040691   -0.69225174     0.011408588  
   6358000   0.052244503   -0.81282181     0.044048791   -0.69045683     0.0072422323 
   6359000   0.054722419   -0.81366789     0.043525628   -0.6881116      0.023314611  
   6360000   0.054367085   -0.81363828     0.043651099   -0.68848917     0.0012114434 
   6361000   0.053861326   -0.81489388     0.042300933   -0.69185308     0.028133039  
   6362000   0.053526947   -0.81234797     0.044409109   -0.68770024     0.016700699  
   6363000   0.054689753   -0.81197239     0.0433149     -0.68667578     0.024409978  
   6364000   0.05531915    -0.81235244     0.04263996    -0.68678729     0.033538742  
   6365000   0.055097991   -0.81549165     0.043582122   -0.68931586     0.014404453  
   6366000   0.053352682   -0.81280595     0.043094496   -0.68973406     0.032735018  
   6367000   0.05373318    -0.81414545     0.041816756   -0.69178093     0.040139072  
   6368000   0.054587091   -0.81274505     0.042436066   -0.68848118     0.027817224  
   6369000   0.051864038   -0.81388798     0.043065365   -0.69307675     0.031406304  
   6370000   0.053515087   -0.81381026     0.040693793   -0.69289563     0.029512914  
   6371000   0.05598702    -0.81212522     0.040701599   -0.68749727     0.029041412  
   6372000   0.054104171   -0.81245476     0.042420542   -0.68893032     0.034882218  
   6373000   0.052849503   -0.81271836     0.042621909   -0.69087334     0.011374783  
   6374000   0.055676725   -0.81448154     0.044109855   -0.68691048     4.4307657e-06
   6375000   0.05298       -0.81242721     0.043878843   -0.68912964    -0.0051424424 
   6376000   0.055623945   -0.81234878     0.043752052   -0.68521464    -0.0068748967 
   6377000   0.05351116    -0.81210096     0.043601032   -0.68828497     0.027240748  
   6378000   0.05457486    -0.81310045     0.044583295   -0.68670768     0.024585942  
   6379000   0.05535865    -0.81280132     0.041888633   -0.68792828     0.007638853  
   6380000   0.054085141   -0.81324093     0.04501536    -0.6871502      0.0068249826 
   6381000   0.056726244   -0.8135969      0.041440016   -0.68712242     0.0087065122 
   6382000   0.054414776   -0.81423662     0.044795995   -0.68787112     0.014014793  
   6383000   0.054851363   -0.81090031     0.043578957   -0.68509739     0.034628516  
   6384000   0.054796863   -0.81314914     0.045267227   -0.68573965     0.019646817  
   6385000   0.052514744   -0.81182466     0.043248086   -0.68985528     0.017256645  
   6386000   0.05165718    -0.81212292     0.040017413   -0.69466973     0.008992366  
   6387000   0.051168139   -0.81494491     0.041276956   -0.69696526     0.01698252   
   6388000   0.05543428    -0.81660796     0.03988823    -0.69362196     0.027936408  
   6389000   0.054508777   -0.81223153     0.042715339   -0.68780578     0.028451509  
   6390000   0.054654883   -0.8146273      0.044253587   -0.68844428     0.013020039  
   6391000   0.055063625   -0.81391129     0.043683948   -0.68768519    -0.0097736178 
   6392000   0.053628631   -0.81380031     0.041195559   -0.6922137      0.01693308   
   6393000   0.055011527   -0.8138891      0.044075862   -0.68734919    -0.00054223777
   6394000   0.055632218   -0.81386143     0.043273024   -0.68719392     0.012510981  
   6395000   0.053391199   -0.81313618     0.044381123   -0.68871993     0.030678284  
   6396000   0.054362102   -0.81209623     0.042570961   -0.68803473     0.023795415  
   6397000   0.054813143   -0.81248661     0.044164076   -0.68615586     0.030309577  
   6398000   0.055340811   -0.81207233     0.043848337   -0.68526633     0.031884946  
   6399000   0.05516942    -0.8147412      0.043275779   -0.68876468     0.028922255  
   6400000   0.055131217   -0.81439479     0.042189992   -0.68956132     0.048348181  
   6401000   0.055361422   -0.81362593     0.04153243    -0.68910494     0.041303043  
   6402000   0.055050601   -0.81480597     0.041930432   -0.69035291     0.031236892  
   6403000   0.052729885   -0.81344823     0.04173769    -0.69266674     0.030372907  
   6404000   0.055543763   -0.81394764     0.039946784   -0.69073896     0.029601555  
   6405000   0.053375802   -0.81416392     0.043766444   -0.69038543     0.024131941  
   6406000   0.054258657   -0.81424739     0.042773489   -0.69013842     0.036354157  
   6407000   0.055512057   -0.81237549     0.040869781   -0.68829134     0.031187464  
   6408000   0.055003318   -0.81403849     0.044424956   -0.68716178     0.011474118  
   6409000   0.057146168   -0.81449982     0.04241779    -0.68641808     0.0080387033 
   6410000   0.054553186   -0.81342334     0.041682054   -0.6899643      0.021692226  
   6411000   0.055050262   -0.81421756     0.042094664   -0.68960078     0.011850276  
   6412000   0.054375288   -0.81357251     0.042282169   -0.68978003     0.029486466  
   6413000   0.055325254   -0.81331276     0.044164936   -0.68621348     0.013347067  
   6414000   0.056407758   -0.81373045     0.044495404   -0.684678       0.0030574101 
   6415000   0.053994001   -0.81297086     0.043456826   -0.68857529     0.017729537  
   6416000   0.056819367   -0.81212408     0.042494309   -0.6844557      0.024177519  
   6417000   0.0563476     -0.8137012      0.043035765   -0.68619857     0.015869078  
   6418000   0.055215364   -0.81336787     0.044553192   -0.68604507     0.037262254  
   6419000   0.055173531   -0.81084927     0.043068637   -0.68507373     0.034048079  
   6420000   0.054526257   -0.813467       0.043820369   -0.68791001     0.034970212  
   6421000   0.053951593   -0.81491253     0.043521116   -0.69051623     0.0046649619 
   6422000   0.054039682   -0.81386702     0.042503362   -0.69035643     0.022431011  
   6423000   0.055328899   -0.81420852     0.042461969   -0.68880674     0.014774509  
   6424000   0.05632948    -0.81264108     0.0440882     -0.68411317     0.018528622  
   6425000   0.053790231   -0.81269463     0.044604335   -0.687457       0.025164133  
   6426000   0.053708456   -0.81473973     0.043880029   -0.69034899     0.0085824489 
   6427000   0.055514116   -0.81199669     0.04394153    -0.68483771     0.016749047  
   6428000   0.053180233   -0.81250497     0.041986161   -0.69079993     0.010071083  
   6429000   0.052895087   -0.81295711     0.042968205   -0.69069746     0.01509825   
   6430000   0.054534064   -0.81258474     0.042206467   -0.68862995     0.022123872  
   6431000   0.054465373   -0.81406346     0.045250366   -0.68716775     0.02358402   
   6432000   0.052635915   -0.81375017     0.041273671   -0.69357357     0.024122047  
   6433000   0.051467017   -0.81241508     0.044459552   -0.69080481     0.014887319  
   6434000   0.05336333    -0.81329525     0.043460636   -0.68984126     0.010499555  
   6435000   0.054027941   -0.81212495     0.04271588    -0.68841944     0.03628652   
   6436000   0.053870972   -0.81384324     0.0440323     -0.68905662     0.036065062  
   6437000   0.055455359   -0.81279403     0.042606203   -0.68705846     0.033611788  
   6438000   0.053611442   -0.81312568     0.041826318   -0.69093408     0.010254453  
   6439000   0.053312526   -0.81423588     0.043410636   -0.69090805     0.036044557  
   6440000   0.052476388   -0.81324504     0.041601586   -0.69297966     0.023859977  
   6441000   0.054787372   -0.81530308     0.043456924   -0.68971812     0.024586156  
   6442000   0.056241986   -0.81248233     0.043587487   -0.68458629     0.0092496237 
   6443000   0.052990629   -0.81372933     0.043485075   -0.6908096      0.029521478  
   6444000   0.052913917   -0.8145648      0.043924989   -0.69132014     0.042327401  
   6445000   0.055712375   -0.81481193     0.043916022   -0.68738126     0.0027823849 
   6446000   0.0519978     -0.8130199      0.042602736   -0.69247079     0.022657281  
   6447000   0.051733612   -0.81087486     0.041490474   -0.69183403     0.011132744  
   6448000   0.051658016   -0.81539203     0.042955776   -0.69499922     0.015555344  
   6449000   0.052207201   -0.81458388     0.041155227   -0.69516837     0.021403623  
   6450000   0.053250689   -0.81332286     0.041640201   -0.69185816     0.025730625  
   6451000   0.055634289   -0.81384806     0.041929936   -0.68852052     0.023340669  
   6452000   0.052961871   -0.81248054     0.044576154   -0.68851283     0.009875299  
   6453000   0.05558378    -0.81279813     0.041971454   -0.6875048      0.0033946734 
   6454000   0.054742631   -0.81530281     0.043475502   -0.68976634     0.031891107  
   6455000   0.055581025   -0.81382532     0.043096833   -0.68741074     0.02780745   
   6456000   0.052296799   -0.81338992     0.042933445   -0.69206189     0.0026420814 
   6457000   0.053854948   -0.81258832     0.042068237   -0.68978977     0.017439053  
   6458000   0.053640008   -0.81247647     0.043887944   -0.68818042     0.023572133  
   6459000   0.055231243   -0.81268303     0.042190886   -0.68769873     0.0016456418 
   6460000   0.055048897   -0.8118267      0.044013044   -0.68529358     0.018184527  
   6461000   0.057355859   -0.81307567     0.043349924   -0.68374746     0.0063105445 
   6462000   0.054637228   -0.81364802     0.044066248   -0.6876788      0.013434614  
   6463000   0.053446224   -0.81416652     0.041928414   -0.69212049     0.02424283   
   6464000   0.05567366    -0.8149092      0.041937655   -0.68951494     0.019935876  
   6465000   0.053739303   -0.81510796     0.042391786   -0.69215922     0.02256723   
   6466000   0.052710626   -0.81354502     0.044369436   -0.69016066     0.0091491671 
   6467000   0.054804723   -0.81554638     0.040710925   -0.69268141     0.020062695  
   6468000   0.054088414   -0.81445341     0.043143915   -0.69022922     0.024341926  
   6469000   0.051158139   -0.81098091     0.043291183   -0.69100203     0.013817925  
   6470000   0.054049136   -0.81491376     0.043416841   -0.69047552     0.013953908  
   6471000   0.054102208   -0.81457388     0.043245319   -0.69022761     0.014332588  
   6472000   0.055054203   -0.81311078     0.042777621   -0.68780513     0.034288829  
   6473000   0.054572497   -0.81455517     0.042687      -0.69006223     0.020026508  
   6474000   0.052579425   -0.81386588     0.042764204   -0.69228342     0.03219206   
   6475000   0.053142151   -0.81251627     0.040315672   -0.6925388      0.015448216  
   6476000   0.055544705   -0.81331224     0.040581234   -0.68946771     0.0055965538 
   6477000   0.055605155   -0.81368766     0.042498911   -0.68783483     0.0053641216 
   6478000   0.05462486    -0.81214456     0.044558283   -0.68570185     0.050033068  
   6479000   0.053993125   -0.81373542     0.04407132    -0.68872666     0.033660927  
   6480000   0.054645708   -0.81413076     0.04308988    -0.6891252      0.024329564  
   6481000   0.054330382   -0.81114621     0.04303491    -0.6866683      0.00076040407
   6482000   0.053857145   -0.81360609     0.043422123   -0.68945037     0.014564508  
   6483000   0.055167324   -0.81350016     0.042943493   -0.68785907     0.025573475  
   6484000   0.056219966   -0.81368363     0.043982115   -0.68542598     0.0013031047 
   6485000   0.056107824   -0.81100929     0.04500906    -0.68189279     0.038642227  
   6486000   0.055841564   -0.81405112     0.043851541   -0.68649127     0.051204294  
   6487000   0.055592777   -0.81258049     0.041696853   -0.68754827     0.016584409  
   6488000   0.054811929   -0.81225991     0.043001368   -0.6870937      0.023709846  
   6489000   0.051716949   -0.8122598      0.043834031   -0.69090039     0.032860391  
   6490000   0.053199275   -0.81563188     0.042553525   -0.69333093     0.038654151  
   6491000   0.055907182   -0.81161923     0.044164449   -0.68364811     0.024553733  
   6492000   0.052767336   -0.81195495     0.043133451   -0.68972156     0.054771597  
   6493000   0.05399778    -0.81305896     0.040859209   -0.69125534     0.046444876  
   6494000   0.053309435   -0.81272837     0.040438858   -0.69237695     0.02849045   
   6495000   0.053907797   -0.81486609     0.042810146   -0.69124642     0.038199341  
   6496000   0.054514511   -0.81214433     0.042260506   -0.68816481     0.033066212  
   6497000   0.054245036   -0.81230714     0.044415507   -0.68657657     0.033492736  
   6498000   0.055068897   -0.81318006     0.041878639   -0.68875136     0.016773511  
   6499000   0.054627451   -0.81251381     0.042819118   -0.68780638     0.062462118  
   6500000   0.053874393   -0.81249167     0.045498256   -0.68623396     0.055997811  
   6501000   0.053967755   -0.81298226     0.044000462   -0.68808239     0.032806288  
   6502000   0.054115945   -0.81517587     0.041257959   -0.69279637     0.061672317  
   6503000   0.054778906   -0.81298964     0.041961902   -0.68891239     0.051511374  
   6504000   0.056142298   -0.81286216     0.043992748   -0.6847103      0.060913509  
   6505000   0.057016956   -0.81430773     0.042235926   -0.68660155     0.032007358  
   6506000   0.054731549   -0.81175662     0.044221197   -0.68549107     0.063766275  
   6507000   0.056118564   -0.81238518     0.041324407   -0.68693723     0.057197949  
   6508000   0.055024911   -0.81439187     0.043248356   -0.6886594      0.05910914   
   6509000   0.056174426   -0.81281677     0.044242603   -0.68436689     0.040133216  
   6510000   0.055011806   -0.81418452     0.042593707   -0.68912634     0.061387975  
   6511000   0.055569705   -0.81208581     0.040161074   -0.68862395     0.06283639   
   6512000   0.055394      -0.812852       0.042526351   -0.68728826     0.029221925  
   6513000   0.052934156   -0.81110235     0.044319971   -0.68743237     0.028911281  
   6514000   0.055310607   -0.81547762     0.041603931   -0.69096131     0.021729682  
   6515000   0.054228012   -0.81532842     0.043005161   -0.69103372     0.028361156  
   6516000   0.052427968   -0.81007548     0.042733921   -0.68875034     0.014309388  
   6517000   0.054170832   -0.81585026     0.043250434   -0.691396       0.019875024  
   6518000   0.054197583   -0.81256919     0.045151328   -0.68617394     0.039668824  
   6519000   0.055200813   -0.81178259     0.042578838   -0.68645595     0.043239513  
   6520000   0.055492179   -0.81328626     0.041949338   -0.68815236     0.036590342  
   6521000   0.052656073   -0.81216468     0.043837207   -0.68939432     0.042531904  
   6522000   0.054444973   -0.8110958      0.041857467   -0.68762356     0.045587204  
   6523000   0.053446109   -0.8140823      0.044096773   -0.68986809     0.043204762  
   6524000   0.05311885    -0.81355309     0.043722819   -0.69020341     0.0190323    
   6525000   0.054380113   -0.81235659     0.042095449   -0.6887436      0.035179936  
   6526000   0.054084991   -0.81449891     0.043536903   -0.68988686     0.037213617  
   6527000   0.055869711   -0.81359358     0.043512012   -0.68633107     0.029784742  
   6528000   0.053212888   -0.81080047     0.043340226   -0.68769241     0.016535045  
   6529000   0.055512018   -0.81121589     0.042328529   -0.68567306     0.055875381  
   6530000   0.055754372   -0.81153488     0.042872215   -0.68508506     0.038615519  
   6531000   0.055141161   -0.8122538      0.042390817   -0.6872046      0.036460597  
   6532000   0.054534821   -0.81484368     0.042665308   -0.69042892     0.042717703  
   6533000   0.052303115   -0.8145897      0.042944126   -0.69324152     0.058031611  
   6534000   0.05579214    -0.81573602     0.04290417    -0.68919763     0.034798422  
   6535000   0.056689627   -0.81577406     0.041941241   -0.68885323     0.0316396    
   6536000   0.055934614   -0.81443576     0.042799451   -0.68778851    -0.011376929  
   6537000   0.054277929   -0.815139       0.043186122   -0.69058851     0.01709054   
   6538000   0.053221081   -0.81333086     0.043615217   -0.68993552    -0.00097217743
   6539000   0.054826118   -0.81351497     0.04245732    -0.68887153     0.037676467  
   6540000   0.053714205   -0.81613738     0.044892658   -0.69072539     0.0058550478 
   6541000   0.052510498   -0.81364485     0.041886616   -0.69304331     0.031833547  
   6542000   0.053673532   -0.81290639     0.042479465   -0.68996857     0.0025599009 
   6543000   0.05516501    -0.81339164     0.043021739   -0.68767577     0.023882085  
   6544000   0.055385833   -0.81291652     0.044004279   -0.68588709     0.047997723  
   6545000   0.055277749   -0.81275479     0.043369126   -0.68652253     0.023767833  
   6546000   0.053426969   -0.81393525     0.041928061   -0.69191844     0.032476326  
   6547000   0.053269117   -0.81448617     0.04250339    -0.69213066     0.023345219  
   6548000   0.054907968   -0.81348602     0.041945182   -0.68923202     0.051575648  
   6549000   0.05355272    -0.81482395     0.040722183   -0.69382451     0.020226814  
   6550000   0.05242931    -0.81428632     0.042563142   -0.69312995     0.014940655  
   6551000   0.05394909    -0.81213703     0.043075952   -0.68818966     0.040913112  
   6552000   0.053874135   -0.81413265     0.041445982   -0.6919276      0.027906353  
   6553000   0.0534794     -0.81367873     0.041022299   -0.69248909     0.022481515  
   6554000   0.052455388   -0.81354861     0.044994759   -0.68992153     0.022430623  
   6555000   0.054786441   -0.81418058     0.042647375   -0.68940656     0.012244114  
   6556000   0.053784946   -0.81116919     0.046490166   -0.68405365     0.031378464  
   6557000   0.053460992   -0.81271488     0.045689819   -0.68688531     0.022269366  
   6558000   0.055004418   -0.8121891      0.04380556    -0.68593015     0.033919586  
   6559000   0.053256785   -0.81287193     0.041175593   -0.6918627      0.029889328  
   6560000   0.054985717   -0.81113321     0.042250616   -0.68645723     0.01565475   
   6561000   0.053759096   -0.81351611     0.043178787   -0.68975071     0.04341388   
   6562000   0.053253927   -0.81448713     0.042923695   -0.69173408     0.04554501   
   6563000   0.053592354   -0.81288874     0.04107892    -0.69147315     0.041212837  
   6564000   0.055869689   -0.80915115     0.040302646   -0.68509803     0.036023199  
   6565000   0.054552373   -0.81369038     0.045327879   -0.68658673     0.037296996  
   6566000   0.05503718    -0.81279611     0.044463338   -0.68583027     0.038033382  
   6567000   0.05489151    -0.81317683     0.041997863   -0.68889483     0.022954075  
   6568000   0.056093037   -0.81130479     0.042274431   -0.68494509     0.013349352  
   6569000   0.056503538   -0.8146898      0.041107927   -0.68888125     0.050636554  
   6570000   0.054518816   -0.81147275     0.043373072   -0.68637421     0.013355208  
   6571000   0.054851933   -0.81285703     0.044437847   -0.68619437     0.019995474  
   6572000   0.056531486   -0.81344138     0.042776334   -0.68592253     0.022250835  
   6573000   0.05222489    -0.81281922     0.044971787   -0.68956064     0.0021410597 
   6574000   0.054486949   -0.81173418     0.044304947   -0.68575154     0.021651381  
   6575000   0.053811143   -0.8136229      0.041639247   -0.69131902     0.022249148  
   6576000   0.053626353   -0.81210525     0.042781379   -0.68893624     0.0064623278 
   6577000   0.055005189   -0.8124355      0.041189144   -0.6887918      0.0014119123 
   6578000   0.056874882   -0.81384915     0.042083559   -0.6865083      0.01091617   
   6579000   0.055079922   -0.81270543     0.041268896   -0.68886995     0.02335947   
   6580000   0.054410513   -0.81311127     0.042052162   -0.68949599     0.022796316  
   6581000   0.053377418   -0.81254351     0.043253941   -0.6892751     -0.0014128976 
   6582000   0.055309674   -0.81407443     0.041675206   -0.68948824     0.0098711513 
   6583000   0.054612471   -0.81531225     0.03993245    -0.69351394     0.031084278  
   6584000   0.052913058   -0.81487694     0.043437699   -0.69212086     0.016971392  
   6585000   0.053720058   -0.81429153     0.043693878   -0.69006956     0.017422486  
   6586000   0.054223745   -0.81321792     0.04434163    -0.68759315     0.010026684  
   6587000   0.054545261   -0.8132759      0.044133187   -0.68737761     0.0096605483 
   6588000   0.055194564   -0.81171466     0.040850713   -0.68812551     0.028186493  
   6589000   0.055562741   -0.81384005     0.042275288   -0.68827442     0.025980953  
   6590000   0.052774079   -0.81293589     0.041978576   -0.69184727     0.029540372  
   6591000   0.056001569   -0.81279878     0.044483997   -0.68436662     0.011888762  
   6592000   0.054945427   -0.81262216     0.041688667   -0.68856852     0.0051403787 
   6593000   0.052929722   -0.81329552     0.044369736   -0.68958243     0.0016252048 
   6594000   0.054453875   -0.81235664     0.039808312   -0.69092021     0.014476025  
   6595000   0.053306771   -0.81256001     0.043422578   -0.68922887     0.02087774   
   6596000   0.055521702   -0.81205916     0.042563925   -0.68626641     0.053269655  
   6597000   0.054519666   -0.8097459      0.041946366   -0.68607279     0.042329005  
   6598000   0.05601639    -0.81425165     0.042998448   -0.68728282     0.012139762  
   6599000   0.053966991   -0.81465562     0.041560288   -0.69219707     0.015440999  
   6600000   0.054470373   -0.81331076     0.041622555   -0.69003536     0.018887387  
   6601000   0.054394084   -0.81394125     0.041500938   -0.69090182     0.041021935  
   6602000   0.053322283   -0.81364184     0.043417664   -0.69029235     0.022501403  
   6603000   0.054972643   -0.81354683     0.042217293   -0.68892377     0.017574424  
   6604000   0.054270846   -0.81258908     0.041506313   -0.68972902     0.038600967  
   6605000   0.053561884   -0.81193779     0.044160282   -0.68748651     0.023096329  
   6606000   0.055129577   -0.81109841     0.040139686   -0.68831771     0.033811157  
   6607000   0.054330669   -0.8134871      0.042439273   -0.6896044      0.047952518  
   6608000   0.055325838   -0.81467224     0.043752395   -0.68798463     0.018584525  
   6609000   0.054153409   -0.81371056     0.041639665   -0.69089319     0.02025182   
   6610000   0.055580657   -0.81485155     0.042830873   -0.68870349     0.03292181   
   6611000   0.054911337   -0.81299256     0.040857268   -0.68982142     0.02154197   
   6612000   0.054467673   -0.81435079     0.04346505    -0.68923694     0.023296284  
   6613000   0.054350888   -0.81393572     0.042677496   -0.68978449     0.033444422  
   6614000   0.055466279   -0.81327385     0.044427664   -0.68570045     0.030312779  
   6615000   0.054333744   -0.81157744     0.042477872   -0.68765153     0.036513777  
   6616000   0.055445992   -0.81232815     0.041871644   -0.68734117     0.030682247  
   6617000   0.052218312   -0.81499624     0.041707683   -0.69501162     0.028857038  
   6618000   0.052127768   -0.81485855     0.042188258   -0.69452909     0.033282253  
   6619000   0.053882524   -0.81185106     0.041219752   -0.68985966     0.030753641  
   6620000   0.055027813   -0.81279037     0.04314358    -0.68715832     0.019730467  
   6621000   0.05516939    -0.81241496     0.042148459   -0.68756581     0.032186891  
   6622000   0.055909968   -0.81458024     0.043285232   -0.68748416     0.032803045  
   6623000   0.053459364   -0.81339677     0.042968136   -0.69029133     0.025263481  
   6624000   0.053608606   -0.81513468     0.044597018   -0.69017663     0.022192686  
   6625000   0.056913414   -0.81346618     0.044042502   -0.68410863     0.028723573  
   6626000   0.055748788   -0.8133853      0.0424013     -0.68741477     0.034534562  
   6627000   0.053619349   -0.81380248     0.042279016   -0.69114633     0.057246355  
   6628000   0.055755144   -0.81387431     0.04249791    -0.68779764     0.026426368  
   6629000   0.056101722   -0.8134716      0.042743723   -0.68662959     0.035627105  
   6630000   0.056259414   -0.81091292     0.041449532   -0.68512871     0.021572833  
   6631000   0.054507003   -0.81467021     0.043096288   -0.68986616     0.0069698297 
   6632000   0.053514883   -0.81339808     0.042863199   -0.69031435     0.036743098  
   6633000   0.054233805   -0.81451392     0.043930434   -0.68928526     0.019497695  
   6634000   0.054955092   -0.81457016     0.042619492   -0.68957122     0.024093947  
   6635000   0.053691708   -0.81441499     0.044268845   -0.68966054     0.041207994  
   6636000   0.055166984   -0.81204621     0.04359814    -0.68575099     0.035654523  
   6637000   0.055957954   -0.81399221     0.044006238   -0.68610319     0.046425951  
   6638000   0.055269941   -0.8140403      0.041475199   -0.68971368     0.037640337  
   6639000   0.057421791   -0.81289103     0.042120924   -0.68469299     0.029209239  
   6640000   0.054947144   -0.8130944      0.040937552   -0.68978931     0.038953528  
   6641000   0.053620535   -0.81359423     0.044086143   -0.68912917     0.010822899  
   6642000   0.053132379   -0.81306442     0.041899652   -0.69151762     0.017245332  
   6643000   0.052720985   -0.81449263     0.042246416   -0.69321575     0.009961481  
   6644000   0.055217841   -0.81288864     0.043223418   -0.6868919      0.02984308   
   6645000   0.053603157   -0.8129455      0.04389495    -0.68869769     0.047367014  
   6646000   0.053944227   -0.81410266     0.042113068   -0.69112546     0.043514542  
   6647000   0.05277301    -0.81301597     0.044517628   -0.6893899      0.028492499  
   6648000   0.05511752    -0.81410515     0.045294326   -0.68618789     0.025305838  
   6649000   0.055090466   -0.8144315      0.042046866   -0.68980225     0.02064906   
   6650000   0.054073762   -0.81496645     0.043490874   -0.69041726     0.017983187  
   6651000   0.053768038   -0.81125628     0.043219044   -0.68743721     0.039962666  
   6652000   0.055999807   -0.81395011     0.042674074   -0.68733052     0.039316984  
   6653000   0.054513379   -0.81371339     0.042764423   -0.68923166     0.036522952  
   6654000   0.053085452   -0.8166232      0.041791465   -0.69525493     0.064823006  
   6655000   0.054282868   -0.8149668      0.0415944     -0.69200063     0.051288258  
   6656000   0.055238413   -0.81324064     0.044003051   -0.68643343     0.014287142  
   6657000   0.054228312   -0.81275362     0.043281006   -0.68818263     0.039855655  
   6658000   0.05324317    -0.81344494     0.043049474   -0.69058223     0.02081835   
   6659000   0.052779099   -0.81335001     0.041370493   -0.69286194     0.045370709  
   6660000   0.055968221   -0.81451659     0.042870365   -0.68774806     0.031231431  
   6661000   0.053664879   -0.81312125     0.040246314   -0.69242955     0.021977884  
   6662000   0.054102135   -0.81425285     0.044721886   -0.68843012     0.052348704  
   6663000   0.056283      -0.81133931     0.045055811   -0.68191347     0.016754047  
   6664000   0.057239802   -0.81296258     0.043349719   -0.68380855     0.028403059  
   6665000   0.055172226   -0.81054193     0.044723015   -0.68311397     0.0378077    
   6666000   0.054679721   -0.81413815     0.045945324   -0.68622616     0.035976607  
   6667000   0.054869513   -0.81475644     0.043359258   -0.68914601     0.014942622  
   6668000   0.055085471   -0.81447788     0.044926271   -0.68697671     0.017269756  
   6669000   0.054987324   -0.81360351     0.044746765   -0.68642897     0.042141536  
   6670000   0.053728152   -0.81489601     0.0442017     -0.69015408     0.04564975   
   6671000   0.055020897   -0.81254975     0.04488702    -0.68518463     0.029138022  
   6672000   0.05435061    -0.81446285     0.045023133   -0.6879664      0.027898219  
   6673000   0.055256377   -0.81288187     0.041738466   -0.68831231     0.030197635  
   6674000   0.053686538   -0.81226508     0.042284779   -0.68950245     0.021960226  
   6675000   0.054268588   -0.81400134     0.042181243   -0.69046973     0.022917687  
   6676000   0.055393005   -0.81445789     0.043815526   -0.68760647     0.009930117  
   6677000   0.05376779    -0.81272753     0.043601247   -0.68852663     0.025708622  
   6678000   0.055082247   -0.81311043     0.042048936   -0.68849143     0.013169727  
   6679000   0.052813886   -0.81473614     0.043445023   -0.6921214      0.049961156  
   6680000   0.05505026    -0.8137383      0.042882896   -0.68833328     0.040628221  
   6681000   0.056410409   -0.81218268     0.043146253   -0.68447541     0.033103004  
   6682000   0.05641957    -0.81424657     0.042493      -0.68717882     0.023979015  
   6683000   0.052340832   -0.81470915     0.044995787   -0.69125277     0.013133365  
   6684000   0.055820986   -0.81455232     0.038694302   -0.69218056     0.031972388  
   6685000   0.053678666   -0.81277509     0.040580897   -0.69172814    -0.0075070685 
   6686000   0.051024371   -0.81321544     0.044095187   -0.69263308     0.047723121  
   6687000   0.052840445   -0.81275691     0.042292283   -0.69125509     0.021280529  
   6688000   0.054403503   -0.81258047     0.042170557   -0.68885731     0.02482547   
   6689000   0.05453684    -0.81408512     0.044076653   -0.68825598     0.00053754071
   6690000   0.055699571   -0.81200908     0.043801348   -0.68471228     0.0046692756 
   6691000   0.055605906   -0.81411778     0.045071858   -0.68569087     0.0068049716 
   6692000   0.055847717   -0.81209711     0.042474707   -0.68590487     0.015491445  
   6693000   0.053528895   -0.81255902     0.042166514   -0.69015097     0.019541976  
   6694000   0.053917222   -0.81237489     0.043831509   -0.68771972     0.031879502  
   6695000   0.055454612   -0.81574458     0.043116937   -0.68949939     0.014132315  
   6696000   0.05438639    -0.81560433     0.04214076    -0.69193662     0.011647963  
   6697000   0.054089454   -0.8140858      0.044334673   -0.68866929     0.023880933  
   6698000   0.054757909   -0.81318386     0.043347238   -0.68775275     0.029716157  
   6699000   0.055070284   -0.81342766     0.041080156   -0.68979537     0.029838593  
   6700000   0.053221209   -0.81417136     0.044505686   -0.68988536     0.018094501  
   6701000   0.054574099   -0.81401532     0.043317004   -0.68888998     0.015118426  
   6702000   0.055006822   -0.813392       0.042882378   -0.68805262     0.011657768  
   6703000   0.052751217   -0.81485618     0.044238705   -0.6915417      0.024944096  
   6704000   0.05248057    -0.81406015     0.041847865   -0.69354222     0.016631081  
   6705000   0.053809974   -0.81258488     0.041406569   -0.69051543     0.024130145  
   6706000   0.055448416   -0.8153435      0.043027334   -0.6891972     -0.014962321  
   6707000   0.053373809   -0.81257956     0.043024881   -0.68954562     0.0088885901 
   6708000   0.056150016   -0.81353586     0.044504128   -0.68486104     0.030295585  
   6709000   0.055765956   -0.81257123     0.043940282   -0.68503598     0.018704447  
   6710000   0.056312599   -0.81348171     0.044215596   -0.68485171     0.019465511  
   6711000   0.054528011   -0.81360473     0.043213481   -0.688652       0.039039402  
   6712000   0.053397698   -0.81350359     0.041721491   -0.69173723     0.02032878   
   6713000   0.053890714   -0.81305198     0.042771113   -0.68949695     0.040845168  
   6714000   0.055396548   -0.81279588     0.043148531   -0.68660613     0.036653063  
   6715000   0.053911388   -0.814021       0.043844438   -0.68936166     0.025196674  
   6716000   0.055028524   -0.81366389     0.041978983   -0.68919538     0.031431359  
   6717000   0.054752705   -0.8111231      0.045185062   -0.68386197     0.030483494  
   6718000   0.055276413   -0.81514988     0.043077826   -0.68921093    -0.0078658108 
   6719000   0.054327705   -0.81076702     0.043496264   -0.68583178     0.009023997  
   6720000   0.054573502   -0.81297291     0.044319224   -0.68684625     0.015137622  
   6721000   0.054927686   -0.8119857      0.043389591   -0.68625774     0.010383166  
   6722000   0.055541052   -0.81421502     0.042302288   -0.6886549      0.016033309  
   6723000   0.054346645   -0.81161817     0.043477402   -0.68667339     0.013972958  
   6724000   0.054435006   -0.81381489     0.043285283   -0.68892978     0.03907409   
   6725000   0.053868441   -0.81391168     0.041530056   -0.69163109     0.013307125  
   6726000   0.055402272   -0.81308085     0.042929725   -0.68710134     0.0052598895 
   6727000   0.055055543   -0.81208853     0.042283102   -0.68727539     0.011836797  
   6728000   0.054633927   -0.81078575     0.041657354   -0.68723038     0.011184111  
   6729000   0.054278769   -0.8126791      0.042970315   -0.68834316     0.040703765  
   6730000   0.055364775   -0.81569736     0.043865136   -0.68883865     0.01878911   
   6731000   0.055283819   -0.81279363     0.045787053   -0.68413435     0.023029388  
   6732000   0.056694387   -0.81335152     0.04392822    -0.68443659     0.01919128   
   6733000   0.055559012   -0.8148123      0.044738059   -0.68678949     0.0036211368 
   6734000   0.054038943   -0.81358356     0.042738987   -0.68983845     0.022405409  
   6735000   0.053484096   -0.8140672      0.041599809   -0.69229301     0.01218981   
   6736000   0.053118151   -0.81334264     0.040758082   -0.69295874     0.012047536  
   6737000   0.054191543   -0.81118236     0.041128925   -0.68881856     0.019843474  
   6738000   0.055860344   -0.81223842     0.043774071   -0.68472789     0.0014034815 
   6739000   0.054523183   -0.81160758     0.044281227   -0.68559435     0.020036017  
   6740000   0.055053996   -0.81444345     0.045425066   -0.68649067     0.020989571  
   6741000   0.055281456   -0.81241143     0.042597275   -0.68694547     0.0014670498 
   6742000   0.05213073    -0.81385293     0.042514734   -0.69319255     0.0087247088 
   6743000   0.05369822    -0.81270838     0.041519602   -0.69069341     0.0060426802 
   6744000   0.053707143   -0.81438705     0.041489102   -0.69238921     0.012234419  
   6745000   0.053972879   -0.81367371     0.043568366   -0.68919825     0.012822773  
   6746000   0.054500768   -0.81313381     0.042285094   -0.6891503      0.013840392  
   6747000   0.055139234   -0.8142567      0.042323747   -0.68927746     0.026075376  
   6748000   0.053380634   -0.81210825     0.042776152   -0.6893128      0.0083118111 
   6749000   0.054695724   -0.81165846     0.042836095   -0.68683171     0.011068369  
   6750000   0.054574789   -0.81164663     0.042764086   -0.68707317     0.020159965  
   6751000   0.053282799   -0.81400801     0.044540446   -0.68959492     0.02100305   
   6752000   0.054791953   -0.81244745     0.041570931   -0.68874161     0.02456158   
   6753000   0.054460746   -0.81219847     0.044556722   -0.68600333     0.018741957  
   6754000   0.053846825   -0.81421797     0.04187231    -0.69162753     0.018705914  
   6755000   0.052076983   -0.81405017     0.042038092   -0.693947       0.006836658  
   6756000   0.055189418   -0.81364162     0.041920802   -0.6889901      0.019029107  
   6757000   0.054602082   -0.81229019     0.04400024    -0.68643967     0.010417618  
   6758000   0.053617182   -0.81168917     0.047648702   -0.68366658     0.010806923  
   6759000   0.054740719   -0.81345117     0.042221125   -0.68917194     0.022148219  
   6760000   0.05477485    -0.8154135      0.041670242   -0.69163399     0.010396189  
   6761000   0.055854651   -0.81375801     0.04351247    -0.68651761     0.0215619    
   6762000   0.053085751   -0.8147342      0.045691331   -0.68946562     0.014454073  
   6763000   0.053571324   -0.8138841      0.04278614    -0.69079282     0.0022831989 
   6764000   0.053199357   -0.81146728     0.043008856   -0.68871087     0.0056555136 
   6765000   0.054474902   -0.81308414     0.043701456   -0.68772305     0.0098181286 
   6766000   0.054485975   -0.81191739     0.042591315   -0.68764984     0.01895653   
   6767000   0.053280077   -0.813954       0.042096585   -0.69198886     0.019799711  
   6768000   0.055897401   -0.81269053     0.042813703   -0.68608482     0.019562277  
   6769000   0.053171448   -0.81493837     0.041698344   -0.69353431    -0.002195911  
   6770000   0.054146259   -0.81315807     0.044430571   -0.68756051     0.025099476  
   6771000   0.054512908   -0.81369707     0.041019819   -0.69096064     0.011776739  
   6772000   0.05601183    -0.8104648      0.041895716   -0.68460554     0.0032793971 
   6773000   0.054754771   -0.81357332     0.042973779   -0.68852037     0.0026911245 
   6774000   0.054712248   -0.81365429     0.043384249   -0.68825462     0.0048322225 
   6775000   0.053962187   -0.81202021     0.042118008   -0.68901114     0.042936975  
   6776000   0.053401605   -0.81206795     0.043061383   -0.68895584     0.020226169  
   6777000   0.054030479   -0.81342592     0.040928144   -0.69150434     0.020590039  
   6778000   0.05424424    -0.81125892     0.041443785   -0.68850127     0.01462702   
   6779000   0.054712789   -0.81190604     0.041480229   -0.68840957     0.020740182  
   6780000   0.054437633   -0.81714417     0.042110629   -0.69342978     0.0052428564 
   6781000   0.055816716   -0.81429777     0.040763675   -0.68986304     0.028968695  
   6782000   0.053760623   -0.81225932     0.042219047   -0.68945137     0.015373228  
   6783000   0.05490091    -0.81356589     0.042839124   -0.68842853     0.027203998  
   6784000   0.054059173   -0.81268772     0.04281151    -0.68883977     0.012555657  
   6785000   0.053285485   -0.81228918     0.040731168   -0.69168136     0.014314937  
   6786000   0.053249629   -0.81384653     0.043244965   -0.69077865     0.015077667  
   6787000   0.054106724   -0.81400005     0.043654189   -0.68923813     0.0068900874 
   6788000   0.055461093   -0.81138525     0.043133344   -0.68511394     0.033173625  
   6789000   0.054859111   -0.81238344     0.04226264    -0.68788522     0.020233645  
   6790000   0.053975609   -0.81269992     0.041380446   -0.69040829     0.034615486  
   6791000   0.051125143   -0.81208034     0.042019337   -0.69342277     0.037608011  
   6792000   0.054375791   -0.81473004     0.043528829   -0.68969015     0.030151912  
   6793000   0.055276511   -0.81350688     0.042632481   -0.68801313     0.0044140735 
   6794000   0.054950721   -0.81440454     0.042011939   -0.6900197      0.038873075  
   6795000   0.054759259   -0.81561188     0.040965451   -0.69256053     0.0094929471 
   6796000   0.054557567   -0.81610561     0.042757563   -0.69156449     0.011759363  
   6797000   0.052945355   -0.81555613     0.043609747   -0.69257959     0.020364132  
   6798000   0.053279419   -0.81283688     0.041685005   -0.69128431     0.034482157  
   6799000   0.052963139   -0.81469668     0.040880106   -0.69442312     0.027799108  
   6800000   0.052187925   -0.81204168     0.042867056   -0.69094324     0.013071844  
   6801000   0.052171705   -0.81079222     0.041879749   -0.69070541     0.051548527  
   6802000   0.053669004   -0.81088424     0.045397829   -0.68503484     0.034696019  
   6803000   0.054743539   -0.81389437     0.042359324   -0.68947272     0.014804693  
   6804000   0.053009805   -0.81501509     0.044149228   -0.69140245     0.022248916  
   6805000   0.053618729   -0.81366609     0.04228792    -0.69100196     0.0019583829 
   6806000   0.053086629   -0.81534531     0.042330887   -0.69343586     0.010671854  
   6807000   0.055320482   -0.81370707     0.043233246   -0.68754664    -1.7797948e-05
   6808000   0.054764058   -0.81322144     0.04454904    -0.68657931     0.0048273873 
   6809000   0.054738118   -0.8151616      0.040962839   -0.69214456     0.0061885429 
   6810000   0.05526274    -0.81137141     0.043166972   -0.68536381    -0.0025873574 
   6811000   0.053417771   -0.81328491     0.043826828   -0.68938312     0.01749145   
   6812000   0.053577547   -0.81393528     0.044523194   -0.68909761     0.003828994  
   6813000   0.053398633   -0.81343844     0.043066779   -0.69032539     0.033238731  
   6814000   0.054267932   -0.81343618     0.04239932    -0.68968748     0.042898662  
   6815000   0.056332334   -0.81356556     0.041083202   -0.68803837     0.04879915   
   6816000   0.053780375   -0.81193274     0.044932991   -0.68638124    -0.0025548329 
   6817000   0.054601491   -0.81309161     0.042752891   -0.68848932     0.025288965  
   6818000   0.055227747   -0.81435738     0.043250343   -0.68831886     0.01966053   
   6819000   0.054493242   -0.81349077     0.042563377   -0.68924027     0.0043803447 
   6820000   0.056417835   -0.81423395     0.04375624    -0.68590556     0.032425601  
   6821000   0.05469346    -0.81232124     0.040815801   -0.68951818     0.026431155  
   6822000   0.054490747   -0.81367682     0.040115783   -0.69187765     0.021377134  
   6823000   0.050670312   -0.8143947      0.042724812   -0.69571346     0.010286954  
   6824000   0.05450615    -0.81340968     0.040338743   -0.69136446     0.0071203551 
   6825000   0.053480678   -0.81346374     0.041307687   -0.69198679     0.028612823  
   6826000   0.053124457   -0.81351145     0.04092187    -0.6929543      0.012314245  
   6827000   0.053543037   -0.81309892     0.043116436   -0.68971975     0.017487033  
   6828000   0.054956638   -0.81357196     0.041136704   -0.69005349     0.020982194  
   6829000   0.054534657   -0.81226346     0.042193701   -0.68832055     0.01828659   
   6830000   0.054848002   -0.81316501     0.043019745   -0.68792634     0.019049239  
   6831000   0.056356297   -0.81449237     0.04351521    -0.68649725     0.028121448  
   6832000   0.054681173   -0.81273974     0.04172755    -0.68904334     0.01264701   
   6833000   0.052903861   -0.8129664      0.042052964   -0.69160884     0.00542769   
   6834000   0.053145126   -0.81339401     0.042717436   -0.69101032     0.013614601  
   6835000   0.053011716   -0.81334335     0.041786159   -0.69209091     0.011202067  
   6836000   0.053728753   -0.81543276     0.042052779   -0.69283885     0.042541982  
   6837000   0.054493653   -0.81309898     0.042594067   -0.68881717     0.013119091  
   6838000   0.052904627   -0.81210368     0.042639354   -0.69015858     0.0090727484 
   6839000   0.055189202   -0.81465262     0.041698649   -0.69022357     0.014637284  
   6840000   0.054828718   -0.8122053      0.043557974   -0.68645731    -0.0055777601 
   6841000   0.05521746    -0.81295772     0.042580721   -0.68760424     0.0074202789 
   6842000   0.056205156   -0.81132851     0.043505426   -0.68356974     0.019813063  
   6843000   0.054201586   -0.81111156     0.042543559   -0.68731808     0.0021295404 
   6844000   0.055586489   -0.81354997     0.043204751   -0.68701928     0.016514903  
   6845000   0.055528497   -0.81527921     0.045020864   -0.68701934     0.013817954  
   6846000   0.053570474   -0.8129624      0.043282894   -0.68937564     0.01235291   
   6847000   0.053174074   -0.81385188     0.044350641   -0.68979159     0.0037060467 
   6848000   0.054505877   -0.81392725     0.042810253   -0.68941093    -0.0020758595 
   6849000   0.051788273   -0.81440981     0.045570032   -0.69120748    -0.0018521526 
   6850000   0.051327001   -0.81431997     0.044011931   -0.69336721     0.023228251  
   6851000   0.053401181   -0.81413466     0.042328516   -0.69175605     0.0032757813 
   6852000   0.053673177   -0.81287759     0.039081152   -0.69333862     0.013243512  
   6853000   0.054181948   -0.81517576     0.044778052   -0.68917722    -0.00034699699
   6854000   0.054918908   -0.81331412     0.041774395   -0.68921451     0.019491235  
   6855000   0.053961982   -0.81429809     0.042735176   -0.69067216     0.021442767  
   6856000   0.056250171   -0.81267511     0.042524175   -0.68583012     0.027843597  
   6857000   0.054464593   -0.81231879     0.044187534   -0.68648707     0.0090552588 
   6858000   0.053120477   -0.81413727     0.042355211   -0.69215275     0.018670361  
   6859000   0.05371652    -0.8132987      0.040479062   -0.69229684     0.036869577  
   6860000   0.053856385   -0.81489762     0.041861744   -0.69230342     0.024280902  
   6861000   0.056029193   -0.81650745     0.041893026   -0.69062485    -0.0072244838 
   6862000   0.055714389   -0.8123918      0.040805452   -0.68806868     0.0096533482 
   6863000   0.055550656   -0.81368123     0.043988729   -0.68642028     0.0047706032 
   6864000   0.054687503   -0.81266949     0.042584501   -0.68810666     0.004415391  
   6865000   0.052746589   -0.8139156      0.043602155   -0.6912446      0.0039286809 
   6866000   0.053690716   -0.81447078     0.042330913   -0.69165575    -0.0024809916 
   6867000   0.05462716    -0.81371435     0.043165181   -0.6886613     -0.0044161993 
   6868000   0.053609351   -0.8149089      0.044457635   -0.69008912     0.010317421  
   6869000   0.052977399   -0.81344577     0.042244099   -0.69178684     0.030744001  
   6870000   0.05490962    -0.81365361     0.04307956    -0.68826276     0.02519266   
   6871000   0.054698866   -0.81514982     0.042631806   -0.69052265     0.029917459  
   6872000   0.053910022   -0.81309824     0.042107493   -0.69017788     0.010771435  
   6873000   0.053362867   -0.81391271     0.040700708   -0.69321934     0.014308239  
   6874000   0.05364787    -0.81222944     0.041290327   -0.69051923     0.01453047   
   6875000   0.053429194   -0.81270978     0.041227657   -0.69139004     0.0014228175 
   6876000   0.054684364   -0.81301434     0.04351633    -0.68752439     0.010985432  
   6877000   0.055368264   -0.81357725     0.044097355   -0.68648108     0.00052260426
   6878000   0.055721498   -0.81468638     0.04365665    -0.68750141     0.041441005  
   6879000   0.05236229    -0.81474019     0.043187153   -0.69306027     0.016543224  
   6880000   0.052961573   -0.81470668     0.043065823   -0.69224976     0.01421539   
   6881000   0.053498465   -0.81354428     0.043308062   -0.6900403      0.022816472  
   6882000   0.053057064   -0.8130426      0.042313552   -0.69119479     0.039035095  
   6883000   0.054648446   -0.81433156     0.043486284   -0.6889255     -0.0068421016 
   6884000   0.053773862   -0.8138211      0.043628447   -0.6895839      0.01431714   
   6885000   0.055206023   -0.81426432     0.042926695   -0.68858201     0.023343743  
   6886000   0.054589703   -0.81252032     0.043130954   -0.68755764     0.021601311  
   6887000   0.054171792   -0.81484856     0.040988146   -0.69265515     0.02920313   
   6888000   0.055877177   -0.81428308     0.042182666   -0.68833873     0.031907742  
   6889000   0.054360216   -0.81371839     0.042587905   -0.68964276     0.029719574  
   6890000   0.054861304   -0.81042099     0.044008496   -0.68417363     0.012831112  
   6891000   0.055346777   -0.81342619     0.04270971    -0.68774987     0.029693322  
   6892000   0.05497285    -0.81310434     0.042554399   -0.68814387     0.015949434  
   6893000   0.054145486   -0.81283666     0.044023335   -0.6876475      0.018918658  
   6894000   0.055066285   -0.81388788     0.041672818   -0.68966892     0.01749611   
   6895000   0.053868293   -0.81351694     0.044537987   -0.68822864     0.0057023039 
   6896000   0.053210521   -0.81449269     0.042343093   -0.69238531     0.012645354  
   6897000   0.053427567   -0.81238632     0.044908577   -0.68738809     0.013595064  
   6898000   0.055475566   -0.81256397     0.043220078   -0.68618423     0.017799167  
   6899000   0.053887155   -0.8135604      0.044408177   -0.68837364     0.019927362  
   6900000   0.054733149   -0.81373057     0.043819485   -0.68786433     0.026119305  
   6901000   0.053607583   -0.8133208      0.042992926   -0.68996838     0.022808493  
   6902000   0.053698432   -0.81275606     0.042957705   -0.68930267     0.012481793  
   6903000   0.056381545   -0.81293449     0.041396222   -0.68702051     0.027634561  
   6904000   0.056369428   -0.81182035     0.042690891   -0.68462987     0.022540467  
   6905000   0.05734393    -0.8141589      0.042068487   -0.68613001     0.024373768  
   6906000   0.055886768   -0.81534061     0.045007002   -0.68655754    -0.0068544358 
   6907000   0.056028708   -0.81185593     0.044839306   -0.68302779     0.0076833618 
   6908000   0.053454673   -0.81090055     0.042935937   -0.68783433     0.030523557  
   6909000   0.053742348   -0.81366944     0.042741644   -0.69036628     0.043533679  
   6910000   0.053628483   -0.81173764     0.042605019   -0.6887418      0.017004624  
   6911000   0.05675493    -0.81177236     0.045288319   -0.68140657     0.019556617  
   6912000   0.054112188   -0.81356575     0.043128156   -0.68932167     0.03233583   
   6913000   0.056109271   -0.81203523     0.044075316   -0.6838503      0.0093961882 
   6914000   0.054560648   -0.81310099     0.042641417   -0.6886714      0.021232981  
   6915000   0.055453115   -0.81375685     0.044828734   -0.68580211     0.0057437947 
   6916000   0.054915567   -0.81397209     0.043351579   -0.6883003      0.0037330238 
   6917000   0.055535391   -0.81308717     0.040700309   -0.68913751     0.022943586  
   6918000   0.056298049   -0.8150466      0.040415821   -0.69023819     0.010784214  
   6919000   0.053581487   -0.81138495     0.043840213   -0.68722436     0.012489836  
   6920000   0.055514662   -0.81457808     0.04103883    -0.69032098     0.019290398  
   6921000   0.055266949   -0.81483555     0.043628997   -0.68835961     0.020532866  
   6922000   0.053371589   -0.8137922      0.043446829   -0.69033964     0.023807393  
   6923000   0.054672849   -0.81273026     0.044227066   -0.68654683     0.0044350114 
   6924000   0.053876638   -0.81541328     0.044645817   -0.69000464     0.012790201  
   6925000   0.055817765   -0.8120609      0.042399141   -0.68598913     0.012932309  
   6926000   0.055411932   -0.81357699     0.043620463   -0.68689226    -0.0014546495 
   6927000   0.053896359   -0.81289567     0.042499651   -0.68960364     0.011366771  
   6928000   0.055059435   -0.81509735     0.040848927   -0.69171255     0.029835176  
   6929000   0.053638891   -0.81244411     0.040127963   -0.69190971     0.027702571  
   6930000   0.055129959   -0.81431351     0.043517453   -0.68815447     0.022609284  
   6931000   0.056106435   -0.81394405     0.043492891   -0.6863458      0.023769599  
   6932000   0.054203104   -0.81407638     0.042913183   -0.689911       0.034295992  
   6933000   0.052733129   -0.81385029     0.042316458   -0.69248517     0.014909738  
   6934000   0.054025844   -0.81472059     0.04167448    -0.69205963     0.016628841  
   6935000   0.05489695    -0.81279807     0.044222987   -0.68628279     0.02783229   
   6936000   0.054078938   -0.81406829     0.042575649   -0.69042657     0.019173722  
   6937000   0.055783182   -0.81247239     0.043853518   -0.68499808    -0.003762791  
   6938000   0.056258828   -0.81197668     0.041997234   -0.68564565     0.001176156  
   6939000   0.054945295   -0.81192755     0.040780074   -0.68878271     0.029632732  
   6940000   0.057128943   -0.81431838     0.042099996   -0.68658026     0.034237926  
   6941000   0.05469185    -0.81241003     0.043487101   -0.68693808     0.015124839  
   6942000   0.054711242   -0.81539123     0.041106086   -0.69227123     0.02346698   
   6943000   0.054114943   -0.81438299     0.041989527   -0.69127342     0.035723222  
   6944000   0.056530538   -0.81368094     0.044026853   -0.68491298     0.024063827  
   6945000   0.053966626   -0.81189238     0.042852951   -0.68814172     0.03652002   
   6946000   0.0528059     -0.81414614     0.041506931   -0.69348146     0.0089769896 
   6947000   0.052649225   -0.81319656     0.041487066   -0.6927866      0.013473626  
   6948000   0.052645134   -0.81358032     0.042391621   -0.69227195     0.038566449  
   6949000   0.052977923   -0.81128518     0.042701274   -0.6891683      0.028865735  
   6950000   0.051760161   -0.8151091      0.043017835   -0.69450112     0.014267521  
   6951000   0.053665047   -0.81458594     0.043582347   -0.69055796     0.010079654  
   6952000   0.054568316   -0.81286008     0.040885306   -0.69017511     0.031211479  
   6953000   0.054256788   -0.8142902      0.04057255    -0.69238498     0.012520765  
   6954000   0.054211047   -0.81149548     0.044560209   -0.68567117     0.0035609558 
   6955000   0.054277664   -0.81334198     0.044964942   -0.68701306     0.016305937  
   6956000   0.054629349   -0.81430453     0.044887158   -0.68752621     0.02126407   
   6957000   0.054152002   -0.8148076      0.041447942   -0.69218406     0.01681279   
   6958000   0.054278381   -0.81371882     0.04402323    -0.68833054     0.025080968  
   6959000   0.051893718   -0.81232167     0.042782571   -0.69174874     0.020136753  
   6960000   0.054838727   -0.81247922     0.044348421   -0.68592578     0.026823954  
   6961000   0.053391772   -0.81495541     0.043816676   -0.69110274     0.028523341  
   6962000   0.054364208   -0.8145442      0.041943588   -0.69110691     0.020150911  
   6963000   0.055136525   -0.81275951     0.041957643   -0.68815044     0.01518002   
   6964000   0.055907622   -0.81210013     0.04309123    -0.68520157     0.013330318  
   6965000   0.053383321   -0.81166702     0.043880071   -0.68776363     0.01039393   
   6966000   0.053894775   -0.81160199     0.042571025   -0.68824095     0.01131412   
   6967000   0.054694093   -0.81164718     0.042690233   -0.68696874     0.027566418  
   6968000   0.055508342   -0.81190053     0.045825877   -0.68286586     0.01337102   
   6969000   0.055239464   -0.81395796     0.044849106   -0.68630312    -0.0041145268 
   6970000   0.052874698   -0.81335193     0.045285492   -0.68880556     0.034379483  
   6971000   0.05293105    -0.81425267     0.044204961   -0.69070236     0.01322534   
   6972000   0.053138117   -0.81448397     0.042131598   -0.69269662     0.023483302  
   6973000   0.054597785   -0.81484733     0.041255484   -0.69174801     0.0090493148 
   6974000   0.054723262   -0.81289165     0.041887936   -0.68897178     0.0078158226 
   6975000   0.054586442   -0.80837004     0.041318018   -0.68522518     0.017384571  
   6976000   0.053947409   -0.81438593     0.04256111    -0.69095592     0.02700139   
   6977000   0.05414113    -0.81263291     0.042402702   -0.6890709     -0.0044557228 
   6978000   0.053555143   -0.81334782     0.044383493   -0.68868344     0.028716146  
   6979000   0.054107505   -0.81336778     0.044931656   -0.68732723     0.0064019678 
   6980000   0.053986604   -0.81165204     0.04142816    -0.68929622     0.010014727  
   6981000   0.051947704   -0.81276012     0.043720753   -0.69116808    -0.010064497  
   6982000   0.056038986   -0.81143851     0.042030239   -0.68540402     0.0023595809 
   6983000   0.056167846   -0.81425883     0.042010584   -0.68805084     0.015906163  
   6984000   0.053710253   -0.81485474     0.044460618   -0.68988072    -0.0053852296 
   6985000   0.05497175    -0.81321243     0.043734465   -0.68707354     0.014410715  
   6986000   0.053813181   -0.81099521     0.043350519   -0.686977       0.026183221  
   6987000   0.055108391   -0.8105992      0.042505695   -0.68548425     0.049848269  
   6988000   0.054729962   -0.81510599     0.042652227   -0.69041178     0.025564833  
   6989000   0.054405336   -0.81297404     0.043759648   -0.68765903     0.026104076  
   6990000   0.055552684   -0.81472659     0.043149781   -0.68830155     0.026223906  
   6991000   0.055541473   -0.81444322     0.043130039   -0.68805473     0.0078925552 
   6992000   0.055437069   -0.81475792     0.044913159   -0.68674281     0.021336704  
   6993000   0.054067352   -0.81582368     0.044341427   -0.69043355     0.050678713  
   6994000   0.055942072   -0.81346249     0.043086324   -0.68651719     0.056715609  
   6995000   0.054228612   -0.81391537     0.043197404   -0.68942753     0.043052345  
   6996000   0.05303706    -0.81400989     0.043428464   -0.69107716     0.059630035  
   6997000   0.052360205   -0.81379185     0.042518182   -0.69278403     0.024824649  
   6998000   0.054098541   -0.81342446     0.042096876   -0.69023213     0.025915732  
   6999000   0.053616428   -0.8106101      0.043286561   -0.68695079     0.059594217  
   7000000   0.054112482   -0.81433748     0.043224804   -0.68999632     0.054700885  
   7001000   0.054706807   -0.81386933     0.04527425    -0.68658781     0.053368178  
   7002000   0.054209326   -0.81359786     0.044687589   -0.68764874     0.058270335  
   7003000   0.054706375   -0.81297249     0.043961949   -0.68700391     0.03828177   
   7004000   0.056245646   -0.81090397     0.04238529    -0.68420464     0.044809706  
   7005000   0.055549087   -0.81414957     0.043171202   -0.68770849     0.061600001  
   7006000   0.056597021   -0.81449695     0.042602786   -0.68705341     0.033369265  
   7007000   0.055132271   -0.81227277     0.042641435   -0.68698629     0.020120994  
   7008000   0.05433618    -0.81316437     0.041983736   -0.68972895     0.037499994  
   7009000   0.053976225   -0.8141647      0.043484802   -0.6897678      0.036573264  
   7010000   0.055713529   -0.81332627     0.045801741   -0.68400815     0.013081246  
   7011000   0.056068058   -0.81268117     0.041523822   -0.68710952     0.03549702   
   7012000   0.054444612   -0.81205522     0.044315175   -0.68612581     0.051376696  
   7013000   0.054199431   -0.81208011     0.042996597   -0.68783682     0.038594503  
   7014000   0.055310625   -0.81196072     0.043438195   -0.68561011     0.04350825   
   7015000   0.056490217   -0.81405096     0.042513365   -0.68685694     0.03899786   
   7016000   0.056044883   -0.81396153     0.043674615   -0.68627383     0.043333412  
   7017000   0.056077045   -0.81185163     0.043832786   -0.68395754     0.038801833  
   7018000   0.05318424    -0.81364405     0.042078435   -0.69184073     0.047464287  
   7019000   0.054709667   -0.81549962     0.041225503   -0.69226257     0.035906402  
   7020000   0.052762701   -0.81448489     0.042145297   -0.69324661     0.024814387  
   7021000   0.054143562   -0.81524952     0.042861644   -0.69122493     0.039165356  
   7022000   0.054824381   -0.81044589     0.041649783   -0.68661259     0.036584988  
   7023000   0.053439257   -0.81291745     0.043233934   -0.68957634     0.022252561  
   7024000   0.05210077    -0.81288195     0.042910972   -0.69187025     0.011420385  
   7025000   0.054233026   -0.81263038     0.044789613   -0.68654371     0.027183303  
   7026000   0.054731008   -0.81452784     0.041023063   -0.69146123     0.026846168  
   7027000   0.054790802   -0.81428715     0.043451037   -0.68870294     0.047906452  
   7028000   0.055162432   -0.81246441     0.043020805   -0.68675334     0.036624525  
   7029000   0.054767452   -0.81463239     0.043509377   -0.68902484     0.0447681    
   7030000   0.056297834   -0.81115358     0.04291775    -0.68384356     0.039473436  
   7031000   0.054321922   -0.81375194     0.043360201   -0.68896142     0.00012189683
   7032000   0.057060852   -0.81195987     0.042997963   -0.68342585     0.021872488  
   7033000   0.056374363   -0.81320723     0.042761288   -0.68593896     0.026440815  
   7034000   0.054680496   -0.80927079     0.044235502   -0.68306745     0.026539082  
   7035000   0.055834284   -0.81026096     0.043531494   -0.68303207     0.021246607  
   7036000   0.055172742   -0.81366041     0.043236081   -0.6877186      0.037054935  
   7037000   0.05421212    -0.813527       0.04421635    -0.68804493     0.031487799  
   7038000   0.054553349   -0.81384691     0.044142725   -0.68792695     0.05322956   
   7039000   0.054019108   -0.81160656     0.041594145   -0.68903603     0.04359326   
   7040000   0.0539771     -0.81318409     0.042860086   -0.68941059     0.037057213  
   7041000   0.05507088    -0.8140334      0.043956343   -0.68752403     0.014335029  
   7042000   0.056264642   -0.81444658     0.04312511    -0.68697896     0.039165163  
   7043000   0.055544332   -0.81490475     0.042555388   -0.68908661     0.033056982  
   7044000   0.055492275   -0.81447982     0.040953838   -0.69034128     0.01760588   
   7045000   0.053520061   -0.8138603      0.04381704    -0.68981497     0.041376349  
   7046000   0.054486173   -0.81147499     0.043816173   -0.68598229     0.036751504  
   7047000   0.054503654   -0.81534929     0.043830357   -0.6898162      0.038430632  
   7048000   0.054343901   -0.81458867     0.040892945   -0.69223246     0.057383741  
   7049000   0.052990364   -0.81340574     0.04337877    -0.69059271     0.027654016  
   7050000   0.053118146   -0.81442195     0.042615665   -0.69218047     0.0026067832 
   7051000   0.055589598   -0.8125538      0.039846705   -0.6893765      0.035876093  
   7052000   0.055995029   -0.81469801     0.041641317   -0.68911834     0.019111743  
   7053000   0.053374922   -0.81307497     0.042750876   -0.69031336     0.0027685747 
   7054000   0.053766617   -0.81486712     0.041268793   -0.69300044    -0.0013294499 
   7055000   0.055035227   -0.81117913     0.041355379   -0.68732417     0.015843407  
   7056000   0.053627902   -0.81399465     0.040826132   -0.69277857     0.0413927    
   7057000   0.053303341   -0.81492447     0.043184651   -0.69183639     0.015947973  
   7058000   0.05559145    -0.81380039     0.041921949   -0.68854507     0.0262945    
   7059000   0.053141253   -0.81253109     0.041626042   -0.69124459     0.018848761  
   7060000   0.055337133   -0.81127057     0.041520816   -0.6867976      0.029929038  
   7061000   0.05736526    -0.81231975     0.042530894   -0.68379649     0.012141906  
   7062000   0.052927581   -0.81485997     0.044386089   -0.69113373     0.0079354166 
   7063000   0.054736239   -0.81317441     0.040507172   -0.69061585     0.021697694  
   7064000   0.055078369   -0.813299       0.043750622   -0.68698413     0.023642476  
   7065000   0.055551628   -0.81269177     0.044434725   -0.68498337     0.0056579811 
   7066000   0.051496895   -0.81071471     0.042469955   -0.69104925     0.018665305  
   7067000   0.055118671   -0.81279839     0.042207451   -0.68796628     0.020078326  
   7068000   0.054526514   -0.81395905     0.044619237   -0.68760281     0.0049741278 
   7069000   0.054747893   -0.81365959     0.042941488   -0.68864925     0.0070248237 
   7070000   0.054231368   -0.81338517     0.042978886   -0.68911171     0.0095142851 
   7071000   0.05550493    -0.814056       0.043268335   -0.68758399     0.03736193   
   7072000   0.054628959   -0.81307696     0.04370968    -0.6874767      0.02753235   
   7073000   0.053624846   -0.81404219     0.042699403   -0.69095741     0.018062629  
   7074000   0.054342035   -0.81470875     0.042155671   -0.69109261     0.00751817   
   7075000   0.054411611   -0.81329713     0.04421917    -0.6875132      0.024308467  
   7076000   0.053241149   -0.81324725     0.043095369   -0.69034168     0.029297619  
   7077000   0.056142531   -0.81434556     0.043259361   -0.68692674     0.011356885  
   7078000   0.055065196   -0.8130279      0.043904927   -0.68657847     0.020381446  
   7079000   0.054332252   -0.81099271     0.043138669   -0.68640825    -0.0082343072 
   7080000   0.052892887   -0.81451166     0.04289229    -0.69233123     0.02483068   
   7081000   0.055073888   -0.81511123     0.04208132    -0.69047238     0.021507494  
   7082000   0.055108245   -0.81529751     0.040169099   -0.69251937     0.029806599  
   7083000   0.051587479   -0.81383339     0.043622254   -0.69287984     0.0099834945 
   7084000   0.054514099   -0.81480051     0.042489544   -0.69059257     0.032067943  
   7085000   0.053877127   -0.81208619     0.042778521   -0.68854411     0.012958638  
   7086000   0.055615347   -0.81367049     0.041324838   -0.68897645     0.016177998  
   7087000   0.055438738   -0.81398455     0.042876127   -0.68800397     0.028294613  
   7088000   0.056142965   -0.81304551     0.041434274   -0.68745112     0.01705519   
   7089000   0.053109324   -0.81545573     0.042081686   -0.69376146     0.030663809  
   7090000   0.05265675    -0.81304825     0.043314672   -0.69079941     0.043921611  
   7091000   0.055580355   -0.81160105     0.045784319   -0.68249998     0.033717575  
   7092000   0.053390924   -0.81602754     0.042499734   -0.69349309     0.032859112  
   7093000   0.054829256   -0.81391757     0.042703265   -0.68902348     0.034958661  
   7094000   0.053557009   -0.81243551     0.041098554   -0.69105327     0.035410252  
   7095000   0.055462549   -0.8122079      0.042764833   -0.68630292     0.011442876  
   7096000   0.056051283   -0.81384893     0.043108848   -0.6867174      0.039336446  
   7097000   0.054388091   -0.81380097     0.042814865   -0.6894566      0.051874317  
   7098000   0.054802909   -0.81404319     0.042351089   -0.68954077     0.044397504  
   7099000   0.054806308   -0.81501546     0.04453566    -0.68832338     0.050440282  
   7100000   0.056376686   -0.81052257     0.044604411   -0.68140769     0.041713527  
   7101000   0.054707032   -0.81157636     0.0435358     -0.68603295     0.0091015173 
   7102000   0.055746506   -0.81390548     0.04190288    -0.68843679     0.04153664   
   7103000   0.054315916   -0.81380362     0.042287757   -0.69009455     0.034414954  
   7104000   0.053053967   -0.81486488     0.043882529   -0.69145275    -0.00066595188
   7105000   0.055344702   -0.81446667     0.042538427   -0.68896475     0.019216302  
   7106000   0.054971566   -0.81402857     0.043937697   -0.68768672     0.010278524  
   7107000   0.056049872   -0.81424502     0.043422237   -0.68680221     0.0029285705 
   7108000   0.055768906   -0.81408908     0.042493285   -0.68799641     0.025348748  
   7109000   0.054000726   -0.81362778     0.042803449   -0.6898755      0.014797787  
   7110000   0.054400228   -0.81641876     0.041642132   -0.69322893     0.01137958   
   7111000   0.053572448   -0.81342372     0.041943438   -0.69117346     0.029219221  
   7112000   0.053300253   -0.81548002     0.041559527   -0.6940217      0.0092635858 
   7113000   0.053074183   -0.81613593     0.044785879   -0.69179014     0.015799732  
   7114000   0.054366775   -0.81196322     0.042094841   -0.68837082     0.053587987  
   7115000   0.053911233   -0.8120016      0.042214221   -0.6889727      0.02169306   
   7116000   0.05363505    -0.81537051     0.039459867   -0.69550997     0.026069513  
   7117000   0.052672041   -0.81186224     0.042499495   -0.69040565     0.0087500296 
   7118000   0.053055266   -0.81531954     0.042710223   -0.69307776     0.032510835  
   7119000   0.055537467   -0.81352943     0.043057625   -0.68721935     0.030616277  
   7120000   0.055028946   -0.81394713     0.042978556   -0.68847841     0.022401779  
   7121000   0.053823149   -0.8150209      0.039849825   -0.69448844     0.02111347   
   7122000   0.052838324   -0.81295549     0.041385943   -0.69236319     0.047327304  
   7123000   0.05575098    -0.81342025     0.042484983   -0.68736275     0.059692847  
   7124000   0.054147367   -0.81364908     0.042342722   -0.69013771     0.04553344   
   7125000   0.055986403   -0.81284164     0.0430799     -0.68583631     0.033621891  
   7126000   0.05444896    -0.8136419      0.044011996   -0.68800916     0.034095358  
   7127000   0.055115024   -0.81118865     0.042363849   -0.6862056      0.040211642  
   7128000   0.053757428   -0.81317199     0.041887043   -0.69070083     0.058336223  
   7129000   0.055866775   -0.81507746     0.040402152   -0.69092921     0.040028394  
   7130000   0.051752853   -0.81501939     0.04501506    -0.69242513     0.035341687  
   7131000   0.054432758   -0.81536302     0.04209334    -0.69167322     0.039154718  
   7132000   0.055714298   -0.81354204     0.044382479   -0.68564203     0.043712709  
   7133000   0.053387162   -0.81180133     0.044403613   -0.68736863     0.018272262  
   7134000   0.053937805   -0.81334856     0.044679106   -0.68781494     0.041271486  
   7135000   0.05685189    -0.81368275     0.04105792    -0.68740202     0.0086624274 
   7136000   0.054531033   -0.8139359      0.042537599   -0.68965452     0.0081763064 
   7137000   0.053683227   -0.81425561     0.041635841   -0.69214688     0.023209296  
   7138000   0.053653932   -0.8135821      0.042747396   -0.69040573     0.035075252  
   7139000   0.052491603   -0.81354703     0.041448431   -0.69341199     0.055291063  
   7140000   0.054618544   -0.81500218     0.043126773   -0.69000045     0.050224374  
   7141000   0.053618369   -0.81263557     0.042299165   -0.68996074     0.023131829  
   7142000   0.055020334   -0.81576406     0.04194242    -0.69134438     0.038836796  
   7143000   0.053367766   -0.81575755     0.042250305   -0.69350725     0.042769655  
   7144000   0.053106914   -0.81406468     0.041947348   -0.69250835     0.044436684  
   7145000   0.052801519   -0.8148546      0.044347949   -0.69135547     0.040196828  
   7146000   0.054718567   -0.81263631     0.043762972   -0.68684844     0.021860888  
   7147000   0.054259514   -0.8158833      0.044640754   -0.68990579     0.020514248  
   7148000   0.054949572   -0.81462043     0.04325128    -0.68899797     0.004889763  
   7149000   0.053061717   -0.81328927     0.04407011    -0.68967793     0.025894803  
   7150000   0.054883999   -0.81222379     0.041120384   -0.68883052     0.016612769  
   7151000   0.05383272    -0.81447335     0.042504552   -0.69127181     0.020456023  
   7152000   0.053826908   -0.81518544     0.040749452   -0.69374772     0.031022651  
   7153000   0.052788884   -0.81347896     0.040916225   -0.6934305      0.027731139  
   7154000   0.053594085   -0.8127287      0.043686787   -0.68870265     0.020929131  
   7155000   0.054101222   -0.81306668     0.044328517   -0.68763869     0.021209999  
   7156000   0.054204456   -0.81269994     0.042661384   -0.68878433     0.033640993  
   7157000   0.053658833   -0.81179736     0.042352683   -0.68900836     0.02619453   
   7158000   0.053909803   -0.81387459     0.045038682   -0.68802337     0.028111688  
   7159000   0.053468179   -0.81462187     0.041393898   -0.69307744     0.033573606  
   7160000   0.055571521   -0.81479558     0.040470362   -0.69102172     0.037462289  
   7161000   0.053908657   -0.81217128     0.043293051   -0.68806741     0.031308601  
   7162000   0.053050811   -0.81240649     0.041199693   -0.69168192     0.042404763  
   7163000   0.054159104   -0.81311356     0.042151915   -0.6897754      0.044996669  
   7164000   0.053807492   -0.81427472     0.042394543   -0.69122101     0.046375223  
   7165000   0.055382271   -0.81420227     0.043121874   -0.68806059     0.006970148  
   7166000   0.053291011   -0.81449945     0.042137454   -0.69247706     0.024601554  
   7167000   0.056789798   -0.81404679     0.043607455   -0.68530959     0.018938377  
   7168000   0.053093853   -0.81374854     0.042457208   -0.69170193     0.054024665  
   7169000   0.054272149   -0.81276076     0.041380124   -0.69002493     0.052628593  
   7170000   0.053328689   -0.81386445     0.041690838   -0.69223218     0.019036919  
   7171000   0.052786826   -0.81502384     0.041612132   -0.69428255     0.041248391  
   7172000   0.052166742   -0.81484378     0.040826175   -0.69581798     0.031589546  
   7173000   0.053310246   -0.81273234     0.041950905   -0.69086765     0.029524335  
   7174000   0.054970858   -0.81261753     0.041993926   -0.68822051     0.038833305  
   7175000   0.054020737   -0.81346917     0.044125741   -0.6883646      0.040198252  
   7176000   0.053745889   -0.813702       0.043359456   -0.68977572     0.051655964  
   7177000   0.053524623   -0.81490488     0.043241318   -0.69142843     0.032750653  
   7178000   0.055071636   -0.8144367      0.044096965   -0.68778557     0.036113289  
   7179000   0.055798259   -0.81251849     0.042147902   -0.6867272      0.046997402  
   7180000   0.055380496   -0.81355463     0.042687056   -0.68785043     0.029959937  
   7181000   0.054236373   -0.81102632     0.044201637   -0.68552261     0.022983323  
   7182000   0.05538204    -0.81183382     0.043303275   -0.68551108     0.023874172  
   7183000   0.05608814    -0.8136274      0.043076591   -0.68647288     0.018401801  
   7184000   0.053639976   -0.81286473     0.043416242   -0.68904044     0.031632137  
   7185000   0.054014458   -0.81297779     0.044287909   -0.68772047     0.03026193   
   7186000   0.055341044   -0.81445178     0.046024836   -0.68546893     0.044162335  
   7187000   0.056151998   -0.81304646     0.044276702   -0.6845961      0.038711241  
   7188000   0.053893061   -0.81360106     0.043904687   -0.68890894     0.044334828  
   7189000   0.055380916   -0.81307528     0.041771663   -0.68828583     0.01687349   
   7190000   0.054206984   -0.81291406     0.042021142   -0.6896349      0.020997588  
   7191000   0.054012082   -0.81330867     0.044282097   -0.68806072     0.031107967  
   7192000   0.05537089    -0.81277146     0.042083032   -0.68768568     0.043167788  
   7193000   0.053263822   -0.81183862     0.044381119   -0.68761331     0.029982114  
   7194000   0.055801273   -0.81482016     0.042168181   -0.68900407     0.034209818  
   7195000   0.05311873    -0.81068993     0.040928278   -0.69013497     0.052244101  
   7196000   0.050561826   -0.81575771     0.039556262   -0.70040764     0.041745897  
   7197000   0.053177595   -0.81391789     0.04262769    -0.69157527     0.040392752  
   7198000   0.054558088   -0.8153263      0.043375921   -0.69016604     0.029981418  
   7199000   0.055698799   -0.81426764     0.043892547   -0.68688079     0.02265926   
   7200000   0.053618516   -0.81175413     0.041506068   -0.68987218     0.071162773  
   7201000   0.053993522   -0.81428549     0.043083364   -0.69026409     0.037941095  
   7202000   0.055243388   -0.81297055     0.044177316   -0.68598162     0.048604533  
   7203000   0.055361093   -0.81242807     0.042727241   -0.68671276     0.027512615  
   7204000   0.055298226   -0.8111375      0.042546348   -0.68569732     0.026882817  
   7205000   0.053863237   -0.81321272     0.039837215   -0.69263278     0.040482653  
   7206000   0.05480828    -0.81474933     0.041800763   -0.69078919     0.026141891  
   7207000   0.055458198   -0.81437462     0.041615645   -0.68962535     0.060792878  
   7208000   0.054720384   -0.81291526     0.04084039    -0.69004725     0.050105158  
   7209000   0.052229499   -0.81411543     0.043161771   -0.69265995     0.032695747  
   7210000   0.055969883   -0.8124112      0.041136666   -0.68737387     0.036275687  
   7211000   0.053458788   -0.81290198     0.042416553   -0.69034898     0.018647025  
   7212000   0.053649175   -0.81384896     0.041695723   -0.6917314      0.063267215  
   7213000   0.053791545   -0.81340839     0.043684282   -0.68908885     0.01469373   
   7214000   0.055848481   -0.81463077     0.043327659   -0.68758443     0.015909459  
   7215000   0.054520049   -0.81332414     0.04160786    -0.68998897     0.030819315  
   7216000   0.053772486   -0.81453257     0.043179996   -0.69074588     0.027927432  
   7217000   0.053337006   -0.81420653     0.042746679   -0.69150596     0.0060576438 
   7218000   0.054687723   -0.81389211     0.042230075   -0.68968337     0.006347404  
   7219000   0.053768198   -0.81473876     0.043789003   -0.69034949     0.031232771  
   7220000   0.055542431   -0.81193206     0.042730975   -0.68594118     0.014778037  
   7221000   0.055356564   -0.81357542     0.043084035   -0.68751011     0.022421956  
   7222000   0.054801231   -0.81154013     0.043837195   -0.68555413     0.037918647  
   7223000   0.053457092   -0.81452332     0.042973098   -0.69141632     0.028693     
   7224000   0.053839452   -0.81264904     0.040809687   -0.69113228     0.032953006  
   7225000   0.055423473   -0.81381762     0.0416843     -0.68905175     0.014272954  
   7226000   0.056033997   -0.81101116     0.043735459   -0.68327893     0.011745903  
   7227000   0.054856963   -0.81578209     0.045958063   -0.68759167     0.022702165  
   7228000   0.053733276   -0.81347673     0.042985667   -0.68994314     0.02883049   
   7229000   0.054485674   -0.8132024      0.044229417   -0.68729721     0.0092223946 
   7230000   0.054316868   -0.81316791     0.041839017   -0.68990616     0.0078140893 
   7231000   0.053409193   -0.81427832     0.044499849   -0.68971637     0.040972108  
   7232000   0.054931788   -0.81264935     0.040985121   -0.6893197      0.038773083  
   7233000   0.054095083   -0.81379709     0.042358001   -0.69034882     0.027613781  
   7234000   0.054665608   -0.81467695     0.040714033   -0.69201741     0.05462392   
   7235000   0.054114236   -0.81493535     0.044707968   -0.6891084      0.028989414  
   7236000   0.057395562   -0.8123046      0.040907617   -0.68535918     0.040629318  
   7237000   0.054120679   -0.8148154      0.043488302   -0.69019846     0.024998212  
   7238000   0.053478177   -0.81456882     0.043346598   -0.69105671     0.026646716  
   7239000   0.053087813   -0.8133931      0.042302397   -0.69151036     0.033832685  
   7240000   0.055946075   -0.81228052     0.043270174   -0.68514537     0.042127427  
   7241000   0.055116837   -0.81210379     0.044421956   -0.68505992     0.018440842  
   7242000   0.053176618   -0.8131596      0.04422601    -0.68922013     0.037275736  
   7243000   0.054876906   -0.81564968     0.044505094   -0.68888233     0.062022576  
   7244000   0.056732574   -0.81418786     0.042523055   -0.68662084     0.052158877  
   7245000   0.057584956   -0.8137742      0.041956053   -0.68549644     0.04449911   
   7246000   0.054416987   -0.81346075     0.041146129   -0.69074181     0.018966011  
   7247000   0.054635226   -0.81331256     0.043500295   -0.6879123      0.040484625  
   7248000   0.054177871   -0.81402683     0.044513833   -0.68829863     0.018012202  
   7249000   0.053992909   -0.81364794     0.040873206   -0.69183762     0.029043568  
   7250000   0.053129411   -0.81252605     0.041309454   -0.6915739      0.02536752   
   7251000   0.051860244   -0.81335765     0.043040771   -0.6925767      0.018878847  
   7252000   0.053994243   -0.81484707     0.041632233   -0.69227573     0.038943908  
   7253000   0.053639526   -0.81274031     0.043302372   -0.68903056     0.013539562  
   7254000   0.052391091   -0.81209303     0.042556316   -0.69100078     0.041357044  
   7255000   0.055221284   -0.81307522     0.040899213   -0.68939752     0.039794495  
   7256000   0.056048897   -0.81313146     0.040813698   -0.68829866     0.033226121  
   7257000   0.052322892   -0.81250727     0.042700496   -0.69137307     0.037270474  
   7258000   0.05256112    -0.81362569     0.045568753   -0.68926612     0.0211866    
   7259000   0.054632686   -0.81383984     0.041267859   -0.69067582     0.020764759  
   7260000   0.05386204    -0.81396859     0.044888349   -0.68833931     0.012481143  
   7261000   0.055703038   -0.81247346     0.042481326   -0.68649148    -0.0012533354 
   7262000   0.053908237   -0.81386529     0.044325467   -0.68872964     0.027543693  
   7263000   0.052670485   -0.81457378     0.041631176   -0.69398785     0.046635454  
   7264000   0.052497551   -0.81251941     0.043700416   -0.69012347     0.026130893  
   7265000   0.052944427   -0.81452703     0.040727324   -0.6944343      0.015671184  
   7266000   0.053436804   -0.81504155     0.044093847   -0.69084421    -0.0048215365 
   7267000   0.054804269   -0.8161159      0.043687677   -0.69027485     0.019302413  
   7268000   0.05420782    -0.81350228     0.04217475    -0.69006826     0.0082736889 
   7269000   0.055468608   -0.81421517     0.041336084   -0.68972985     0.023533904  
   7270000   0.053653613   -0.81395932     0.04390026    -0.68963056     0.0096967533 
   7271000   0.055999439   -0.81450319     0.042325526   -0.6882327      0.0046246676 
   7272000   0.05302477    -0.81454595     0.041681861   -0.69337825     0.02772913   
   7273000   0.053676667   -0.8121335      0.040787197   -0.69088324     0.023368736  
   7274000   0.053811547   -0.81414836     0.044537431   -0.68894568    -0.0057487281 
   7275000   0.054772256   -0.81263849     0.043074181   -0.68745893     0.020822272  
   7276000   0.055785643   -0.81264619     0.042784402   -0.68623731     0.0309288    
   7277000   0.053237457   -0.81377415     0.044199098   -0.68977039     0.0010629661 
   7278000   0.055572231   -0.81585301     0.043509261   -0.68903918     6.7872548e-05
   7279000   0.054788446   -0.81765325     0.044378117   -0.69114549     0.020042544  
   7280000   0.057049819   -0.81422545     0.041352592   -0.68735334     0.025734396  
   7281000   0.053905028   -0.81228352     0.042583247   -0.6888949      0.023155307  
   7282000   0.057484102   -0.81146747     0.042744137   -0.68255281     0.028024122  
   7283000   0.055505378   -0.81657411     0.041958704   -0.69141105     0.015242826  
   7284000   0.051386632   -0.81204164     0.042711185   -0.69230023     0.04683961   
   7285000   0.052588322   -0.81312277     0.04244142    -0.69184976     0.013626857  
   7286000   0.053433088   -0.81407964     0.040475131   -0.69350659     0.013363348  
   7287000   0.05401353    -0.81516574     0.042763515   -0.6914342      0.039246634  
   7288000   0.055949621   -0.81178923     0.043284057   -0.68463488     0.032905927  
   7289000   0.053535203   -0.81346986     0.043082061   -0.69013681     0.05065761   
   7290000   0.052983683   -0.81165551     0.041525134   -0.69070612     0.014043093  
   7291000   0.054141634   -0.81520996     0.042769531   -0.69128038     0.028739692  
   7292000   0.054172782   -0.8148303      0.043174645   -0.69044891     0.01063104   
   7293000   0.05559556    -0.81476069     0.040838311   -0.69058284     0.010270794  
   7294000   0.056035366   -0.81232401     0.0444031     -0.68392209     0.024695537  
   7295000   0.057715251   -0.81115922     0.041571047   -0.68307115     0.021510976  
   7296000   0.05640535    -0.81283605     0.042837444   -0.68544517     0.024628915  
   7297000   0.05616592    -0.81089254     0.043790737   -0.68290728     0.035489636  
   7298000   0.054388471   -0.81377389     0.043944296   -0.68829952     0.022510831  
   7299000   0.05292458    -0.81300855     0.044332796   -0.6893401      0.026248055  
   7300000   0.052238887   -0.81334479     0.041370088   -0.69366692     0.024542323  
   7301000   0.05233503    -0.81414059     0.041377916   -0.69431077     0.026093793  
   7302000   0.05413369    -0.81305642     0.044995867   -0.68691241     0.029055225  
   7303000   0.054509578   -0.81477896     0.042003562   -0.69106378     0.025322939  
   7304000   0.05535531    -0.81295473     0.044073129   -0.68590221     0.029200003  
   7305000   0.054360427   -0.8144657      0.043603747   -0.68937392     0.054740598  
   7306000   0.053454116   -0.81059613     0.041396548   -0.68907014     0.045045266  
   7307000   0.054270381   -0.81362279     0.0445763     -0.68769344     0.021776589  
   7308000   0.055983855   -0.81365395     0.043505813   -0.68622653     0.025459323  
   7309000   0.054354594   -0.81454176     0.042929377   -0.6901331      0.015218307  
   7310000   0.055005091   -0.81410618     0.041161764   -0.69049001     0.015242332  
   7311000   0.054320881   -0.81308807     0.044644167   -0.68701515     0.025911389  
   7312000   0.055656843   -0.81292932     0.042745621   -0.68675229     0.021299434  
   7313000   0.054213103   -0.81332851     0.043430857   -0.68863046     0.0083783158 
   7314000   0.054441037   -0.81266834     0.044298998   -0.68676047     0.024640326  
   7315000   0.055629395   -0.81311921     0.044137421   -0.68559153     0.024140761  
   7316000   0.055974573   -0.81289236     0.043909903   -0.68507477     0.031279783  
   7317000   0.05627926    -0.81393718     0.042774582   -0.68679817     0.016162902  
   7318000   0.055880161   -0.81277194     0.044070103   -0.68493568     0.054456409  
   7319000   0.052436154   -0.81558244     0.044870251   -0.6921087      0.059849106  
   7320000   0.053881472   -0.81279328     0.040912712   -0.6911105      0.043623475  
   7321000   0.053587322   -0.81593711     0.041845556   -0.69376243     0.040517514  
   7322000   0.054635222   -0.81231966     0.042705172   -0.68771453     0.026970248  
   7323000   0.054706308   -0.81351033     0.041166115   -0.69033769     0.020058863  
   7324000   0.053842559   -0.81215894     0.042009972   -0.68943723     0.052579136  
   7325000   0.052465011   -0.81218665     0.042738974   -0.69080094     0.03049021   
   7326000   0.055387091   -0.81453061     0.042027983   -0.68947559     0.019743427  
   7327000   0.054152735   -0.81361411     0.044471638   -0.68796577     0.00048138708
   7328000   0.055475733   -0.81438108     0.043635809   -0.68758536     0.035188825  
   7329000   0.052788483   -0.81348661     0.042687295   -0.69166768     0.038344333  
   7330000   0.052698757   -0.81417271     0.043315019   -0.69186056     0.053784694  
   7331000   0.054778505   -0.8134141      0.044045381   -0.68725397     0.043093751  
   7332000   0.056332765   -0.8129425      0.043258515   -0.68523935     0.028454331  
   7333000   0.053628486   -0.81310867     0.045375571   -0.68734226     0.059636556  
   7334000   0.053018044   -0.81745362     0.041571177   -0.69640669     0.023976705  
   7335000   0.052486131   -0.81551307     0.042986785   -0.69384789     0.039390264  
   7336000   0.054050859   -0.81381483     0.040083082   -0.69270777     0.024081079  
   7337000   0.054238404   -0.81449442     0.044220788   -0.68896851     0.023197671  
   7338000   0.052978819   -0.81445033     0.043850787   -0.69118258     0.012982287  
   7339000   0.056451876   -0.8140372      0.043069493   -0.68634453     0.020325666  
   7340000   0.053869136   -0.81337607     0.042879789   -0.68974471     0.021779343  
   7341000   0.054358776   -0.81350148     0.043319077   -0.68869685     0.024592171  
   7342000   0.05422369    -0.81551216     0.041281723   -0.69294738     0.019312272  
   7343000   0.053549356   -0.81405453     0.04259389    -0.69118843     0.052969125  
   7344000   0.054317544   -0.81344078     0.045726055   -0.68629097     0.025529232  
   7345000   0.0549757     -0.81114536     0.045521526   -0.68321349     0.019467562  
   7346000   0.056453799   -0.81524766     0.043938146   -0.68668345     0.047676854  
   7347000   0.053755485   -0.81448581     0.044324644   -0.68957996     0.018944874  
   7348000   0.053111044   -0.81281065     0.041821429   -0.69137405     0.043347173  
   7349000   0.054434741   -0.81493664     0.042997831   -0.69033938     0.028570475  
   7350000   0.054721277   -0.81324977     0.041994214   -0.68922659     0.0071261658 
   7351000   0.053435476   -0.81414462     0.040543874   -0.69349925     0.034346923  
   7352000   0.054198443   -0.81096723     0.041534497   -0.68818752     0.022491586  
   7353000   0.053302383   -0.81301438     0.042215707   -0.69089669     0.05299965   
   7354000   0.053936684   -0.81469304     0.043116391   -0.69072382     0.043909588  
   7355000   0.054076115   -0.81363348     0.04414801    -0.68842363     0.036833415  
   7356000   0.05475513    -0.81361484     0.045159303   -0.68637583     0.029416907  
   7357000   0.053880026   -0.81484057     0.044774032   -0.68929864     0.0044939899 
   7358000   0.054620964   -0.81198006     0.041380945   -0.68872052     0.022252574  
   7359000   0.053134573   -0.81428209     0.042509356   -0.69212229     0.025556711  
   7360000   0.052985491   -0.81229753     0.040793346   -0.69207723     0.03096698   
   7361000   0.053030892   -0.81300345     0.04115211    -0.69235632     0.029365916  
   7362000   0.054069965   -0.81375304     0.040590986   -0.69210943     0.040206853  
   7363000   0.054208746   -0.814581       0.043527309   -0.68979303     0.023011395  
   7364000   0.05466776    -0.81138291     0.042349551   -0.68708462     0.037899796  
   7365000   0.053286015   -0.81326398     0.045198036   -0.68818849     0.04828138   
   7366000   0.055903101   -0.81681362     0.042700992   -0.69031207     0.025018255  
   7367000   0.054667934   -0.81394988     0.041425741   -0.69057514     0.02580988   
   7368000   0.055618381   -0.81376896     0.042090386   -0.68830483     0.051992657  
   7369000   0.054954374   -0.81204733     0.043374021   -0.68629493     0.029538265  
   7370000   0.054870087   -0.81407992     0.043386293   -0.68844159     0.024675628  
   7371000   0.054544772   -0.81323515     0.044548873   -0.6869219      0.042321646  
   7372000   0.056883758   -0.81483029     0.0425051     -0.6870546      0.053679378  
   7373000   0.055533103   -0.81273558     0.04275886    -0.6867308      0.036288903  
   7374000   0.054414772   -0.81584037     0.041669475   -0.69260139     0.028963182  
   7375000   0.054468169   -0.813944       0.043698709   -0.68859575     0.027620393  
   7376000   0.054089132   -0.81235997     0.043289962   -0.68798865     0.018089326  
   7377000   0.055434931   -0.8149263      0.041244726   -0.69058282     0.013785999  
   7378000   0.056990354   -0.81396444     0.041639485   -0.68689457     0.017350744  
   7379000   0.053848477   -0.81269519     0.04306524    -0.68890934     0.019275021  
   7380000   0.054836049   -0.8146122      0.040684732   -0.69172646     0.016026179  
   7381000   0.054822588   -0.81412303     0.043198895   -0.6887433      0.017589401  
   7382000   0.053940057   -0.81422724     0.043948624   -0.68942073     0.024003332  
   7383000   0.05517947    -0.8137016      0.043328205   -0.68765759     0.023220261  
   7384000   0.054118289   -0.81250464     0.041939892   -0.68943969     0.041979661  
   7385000   0.053446258   -0.81302658     0.045502688   -0.68740623     0.013598342  
   7386000   0.056876598   -0.81407471     0.042309395   -0.68650546     0.02512252   
   7387000   0.055818011   -0.81477955     0.040347883   -0.69075867     0.016221067  
   7388000   0.054935923   -0.81204594     0.043206006   -0.68648921     0.058297425  
   7389000   0.054339175   -0.81477792     0.041995691   -0.69132605     0.041184805  
   7390000   0.054143807   -0.81337536     0.043212765   -0.68899928     0.039710369  
   7391000   0.054256871   -0.81292802     0.041455324   -0.6901399      0.034762453  
   7392000   0.054987399   -0.81495188     0.041387251   -0.69113674     0.031861371  
   7393000   0.054154498   -0.81486646     0.042749204   -0.69093792     0.057725427  
   7394000   0.054135281   -0.81239724     0.04264738    -0.68859932     0.051042363  
   7395000   0.053421209   -0.81233571     0.040112315   -0.69214328     0.031582643  
   7396000   0.053996015   -0.81533328     0.040735497   -0.69365601     0.032832539  
   7397000   0.052961453   -0.81525001     0.043356067   -0.69250301     0.036952177  
   7398000   0.056138531   -0.81187994     0.04110463    -0.68662184     0.017288211  
   7399000   0.054239052   -0.81382712     0.043258897   -0.68926213     0.037888392  
   7400000   0.052016617   -0.81418074     0.044193474   -0.69201268     0.035030087  
   7401000   0.054237285   -0.81240611     0.044617503   -0.68648517     0.04405553   
   7402000   0.053025463   -0.81367144     0.04491436    -0.6892702      0.034490079  
   7403000   0.054853911   -0.81412407     0.041887671   -0.69000862     0.020113586  
   7404000   0.055188598   -0.81347195     0.043710825   -0.68703164     0.028637325  
   7405000   0.053877681   -0.81384433     0.043273771   -0.68980617     0.074018188  
   7406000   0.054616321   -0.81315413     0.044239812   -0.68704269     0.037813292  
   7407000   0.054792613   -0.81488608     0.043435192   -0.68931499     0.027484121  
   7408000   0.055525585   -0.81520068     0.043878063   -0.68808797     0.043696784  
   7409000   0.054643999   -0.81469821     0.043935769   -0.68884932     0.020089268  
   7410000   0.055852804   -0.81394295     0.04360377    -0.68661403     0.043241888  
   7411000   0.053272181   -0.81385953     0.043305771   -0.69069704     0.023299505  
   7412000   0.055886395   -0.81464778     0.042665882   -0.68820639     0.034207467  
   7413000   0.056003388   -0.81425092     0.044566642   -0.68573339     0.03803167   
   7414000   0.055852134   -0.81393998     0.042105255   -0.68811057     0.042888829  
   7415000   0.053999757   -0.81342213     0.042063131   -0.69041162     0.031343387  
   7416000   0.053947132   -0.8141366      0.043708072   -0.68956004     0.033226346  
   7417000   0.056002839   -0.81273942     0.042944025   -0.68584533     0.044068706  
   7418000   0.053171877   -0.81125504     0.042994449   -0.68855423     0.042976234  
   7419000   0.054044484   -0.81252104     0.042738677   -0.68876794     0.0068077725 
   7420000   0.055800485   -0.81290561     0.043185007   -0.68607387     0.025427397  
   7421000   0.055395227   -0.81057423     0.043213651   -0.68432134     0.032226133  
   7422000   0.055342403   -0.81581269     0.044667673   -0.68818497     0.042068341  
   7423000   0.055738568   -0.81388174     0.044819301   -0.68550853     0.01986293   
   7424000   0.054147412   -0.81294372     0.043913486   -0.68786152     0.022694954  
   7425000   0.053696129   -0.81259904     0.042843711   -0.6892631      0.041205613  
   7426000   0.053826659   -0.81234599     0.042176884   -0.6894812      0.030482128  
   7427000   0.052871182   -0.81314894     0.043282506   -0.69061082     0.022334969  
   7428000   0.052468104   -0.81335333     0.04101827    -0.69368368     0.020456428  
   7429000   0.056193173   -0.81421198     0.043168325   -0.68680828     0.030387972  
   7430000   0.055098297   -0.81360265     0.043700271   -0.68730825     0.038122996  
   7431000   0.056527031   -0.81258254     0.042654026   -0.68519267     0.030721779  
   7432000   0.05745462    -0.8111732      0.044776181   -0.68027069     0.044922095  
   7433000   0.054623401   -0.81418001     0.043281538   -0.68901623     0.036078811  
   7434000   0.053346569   -0.81503151     0.044048969   -0.69101431     0.074975797  
   7435000   0.053282916   -0.81224717     0.042689811   -0.68968455     0.043225904  
   7436000   0.053231828   -0.81545682     0.044972536   -0.69068806     0.043013211  
   7437000   0.055061753   -0.81388745     0.045557175   -0.68579093     0.027465315  
   7438000   0.055024691   -0.81390919     0.044578108   -0.68684729     0.018405938  
   7439000   0.054058819   -0.81555461     0.044111405   -0.69040729     0.013687944  
   7440000   0.054921778   -0.81348224     0.044004581   -0.68714814     0.030703141  
   7441000   0.056172607   -0.81399238     0.042478948   -0.68730888     0.026271144  
   7442000   0.057242815   -0.81645006     0.044201867   -0.68643937     0.015521957  
   7443000   0.054902099   -0.81385196     0.042662411   -0.68888953     0.0065657378 
   7444000   0.055058854   -0.81600469     0.040081709   -0.69338798     0.032134328  
   7445000   0.052910242   -0.81277138     0.043489949   -0.68996727     0.036319976  
   7446000   0.054103423   -0.8133103      0.042391419   -0.6898161      0.050337026  
   7447000   0.053022007   -0.81355762     0.04132906    -0.69274686     0.03905348   
   7448000   0.053206386   -0.81347434     0.041218355   -0.69249789     0.040808412  
   7449000   0.053042827   -0.81571251     0.041403933   -0.69479567     0.045968838  
   7450000   0.055151556   -0.81250538     0.043443936   -0.68638748     0.029464609  
   7451000   0.055176186   -0.81352415     0.043592952   -0.68722031     0.034308031  
   7452000   0.053922701   -0.81523257     0.041802808   -0.6925979      0.042438171  
   7453000   0.05263041    -0.81399823     0.040995183   -0.69410836     0.042502322  
   7454000   0.054860938   -0.81569451     0.042795951   -0.69066024     0.046032566  
   7455000   0.054825388   -0.81450804     0.044513533   -0.68780949     0.035474992  
   7456000   0.052711067   -0.81437979     0.043654733   -0.69170946     0.037064205  
   7457000   0.053966896   -0.81516814     0.043500531   -0.69076949     0.03427945   
   7458000   0.054625936   -0.81583847     0.041375927   -0.69257651     0.048252997  
   7459000   0.052913792   -0.81497372     0.043133668   -0.69252057     0.02440765   
   7460000   0.054075833   -0.81464801     0.041959142   -0.69162745     0.028426538  
   7461000   0.053971423   -0.81589707     0.042174969   -0.69281719     0.030962252  
   7462000   0.054025808   -0.81421704     0.041114652   -0.69211595     0.022907126  
   7463000   0.053146393   -0.81550434     0.043048475   -0.69278771     0.015951887  
   7464000   0.053278065   -0.81620522     0.041400696   -0.69493898     0.022205899  
   7465000   0.05377095    -0.81301345     0.044201424   -0.68820764     0.037982183  
   7466000   0.052893448   -0.81661792     0.044925685   -0.69240325     0.023002156  
   7467000   0.053409264   -0.81362377     0.042870785   -0.69069077     0.020807751  
   7468000   0.055159393   -0.81630873     0.042103404   -0.69151961     0.035176414  
   7469000   0.055513187   -0.81512386     0.043202308   -0.6887055      0.026585344  
   7470000   0.055337264   -0.81588165     0.04227049    -0.69065881     0.01246304   
   7471000   0.053216048   -0.81365811     0.044711422   -0.68917412    -0.0013331147 
   7472000   0.052110857   -0.81617994     0.042449529   -0.69561456     0.023705229  
   7473000   0.05445204    -0.81412136     0.042667923   -0.68982808     0.03227789   
   7474000   0.053752855   -0.81455915     0.044385662   -0.68959622     0.0071864121 
   7475000   0.053043862   -0.81501847     0.041953529   -0.69355048     0.020893969  
   7476000   0.055970394   -0.81350002     0.041985213   -0.68761338     0.02759971   
   7477000   0.055026563   -0.81615647     0.043071719   -0.69059816     0.024773097  
   7478000   0.05384796    -0.81662957     0.043278001   -0.69263175     0.024094393  
   7479000   0.053543385   -0.81435658     0.041603969   -0.69248934     0.029380853  
   7480000   0.054154393   -0.81548452     0.042021232   -0.6922841      0.028733165  
   7481000   0.054057684   -0.81533057     0.042362956   -0.6919334      0.016793783  
   7482000   0.053819772   -0.81520878     0.040961585   -0.69356962     0.022334023  
   7483000   0.054989895   -0.81318104     0.040874677   -0.68987474     0.025967182  
   7484000   0.055031375   -0.81583013     0.041985584   -0.69135074     0.043153038  
   7485000   0.053480089   -0.81270284     0.043022622   -0.68951184     0.039621886  
   7486000   0.055308274   -0.81514894     0.044525816   -0.68771423     0.023555132  
   7487000   0.055656668   -0.81431435     0.044314283   -0.68656893     0.048963261  
   7488000   0.055893459   -0.81597916     0.043525459   -0.6886676      0.023531825  
   7489000   0.055040738   -0.81330279     0.041851296   -0.68894366     0.022831605  
   7490000   0.055208652   -0.81296491     0.043284835   -0.68692053     0.001208867  
   7491000   0.057052185   -0.81360889     0.044768336   -0.68331749     0.015424797  
   7492000   0.056175459   -0.81319615     0.044703653   -0.68428367     0.023636042  
   7493000   0.053570307   -0.81355618     0.043482697   -0.68976986     0.011613756  
   7494000   0.05448173    -0.81560881     0.042458981   -0.69147996     0.00066165437
   7495000   0.052377553   -0.81430027     0.042213438   -0.69357119     0.039846882  
   7496000   0.054189366   -0.81372708     0.042155541   -0.69033993     0.010330618  
   7497000   0.053301037   -0.81297008     0.041618822   -0.69145129     0.0076183523 
   7498000   0.053843458   -0.81193502     0.041867782   -0.68935415     0.032727824  
   7499000   0.054730799   -0.81380812     0.042457486   -0.68930741     0.037337336  
   7500000   0.053681266   -0.81327969     0.044335663   -0.68847408     0.031473001  
   7501000   0.053468745   -0.81493044     0.042481404   -0.69229766     0.0078942492 
   7502000   0.054098452   -0.81522819     0.041701517   -0.69243135     0.014532291  
   7503000   0.054853027   -0.81691943     0.044917744   -0.68977523     0.049485069  
   7504000   0.05203326    -0.81364047     0.041877402   -0.69376353     0.027111423  
   7505000   0.053709022   -0.81546678     0.041611674   -0.69334355     0.029116339  
   7506000   0.052992308   -0.81626229     0.042695597   -0.69412952     0.026588183  
   7507000   0.054635909   -0.81207111     0.042333388   -0.68783674     0.047762477  
   7508000   0.054804539   -0.81405638     0.045222602   -0.68668001     0.042223567  
   7509000   0.057411278   -0.81428365     0.041684903   -0.68653738     0.021308568  
   7510000   0.055188822   -0.81476461     0.042611312   -0.68942347     0.038235582  
   7511000   0.054691778   -0.81523234     0.041494963   -0.69175263     0.02192847   
   7512000   0.053784951   -0.81334312     0.042235415   -0.69048233     0.036870646  
   7513000   0.0535401     -0.81496962     0.041957238   -0.69275405     0.020822694  
   7514000   0.055811164   -0.81603296     0.042523274   -0.68984695     0.036210336  
   7515000   0.056379443   -0.81386466     0.04068488    -0.68866517     0.019640267  
   7516000   0.055622817   -0.8176122      0.043644458   -0.69058734     0.015971313  
   7517000   0.053808081   -0.81542321     0.043052537   -0.69171062     0.0090487258 
   7518000   0.054931393   -0.81671531     0.042061603   -0.69230978     5.0435876e-05
   7519000   0.055218699   -0.81418442     0.039957239   -0.69145257     0.0082009148 
   7520000   0.053988301   -0.81424684     0.04348269    -0.68983395     0.052546122  
   7521000   0.053833844   -0.81387241     0.044334225   -0.68883951     0.054289568  
   7522000   0.056542447   -0.81564563     0.042105288   -0.68878139     0.022848531  
   7523000   0.052907136   -0.8151181      0.0418359     -0.6939727      0.013388214  
   7524000   0.053358759   -0.81590564     0.0443749     -0.69154424     0.021797561  
   7525000   0.053051453   -0.81235504     0.043408476   -0.68942072     0.0016319406 
   7526000   0.053225852   -0.81497262     0.043816429   -0.69136892     0.019254284  
   7527000   0.05711187    -0.81586845     0.042887436   -0.68736848     0.0017678916 
   7528000   0.055111752   -0.81201847     0.04430703    -0.68509714     0.02419108   
   7529000   0.055483694   -0.81311615     0.044145856   -0.68579844     0.010130995  
   7530000   0.055990355   -0.81299159     0.043206516   -0.68585373     0.022001191  
   7531000   0.05410648    -0.8150898      0.043498909   -0.69048353     0.030004214  
   7532000   0.053030618   -0.81506906     0.042239875   -0.69333458     0.019153199  
   7533000   0.054587852   -0.81500389     0.04424334    -0.6889316      0.019759579  
   7534000   0.053871477   -0.81303989     0.040633842   -0.69165097     0.026000635  
   7535000   0.054239863   -0.81340747     0.043006027   -0.68909414     0.032372997  
   7536000   0.054303467   -0.81388827     0.044026695   -0.68845892     0.013479789  
   7537000   0.055505864   -0.8142647      0.041611342   -0.68944827     0.044140517  
   7538000   0.054860348   -0.81130796     0.042145069   -0.68692546     0.027359395  
   7539000   0.055618413   -0.8136443      0.042596268   -0.68767424     0.034187757  
   7540000   0.055611177   -0.81438871     0.041831516   -0.68919425     0.06261462   
   7541000   0.05449424    -0.81554416     0.041425914   -0.69242962     0.076637819  
   7542000   0.054233345   -0.81478759     0.041723356   -0.6917667      0.03568708   
   7543000   0.055646384   -0.81247432     0.04207331    -0.68698529     0.0076895219 
   7544000   0.052210319   -0.81511812     0.043031769   -0.6938214      0.030701972  
   7545000   0.054135393   -0.81567341     0.042226802   -0.69229591     0.018172414  
   7546000   0.055805437   -0.81449314     0.041583403   -0.68925559     0.050214757  
   7547000   0.054678304   -0.81555342     0.043763981   -0.6898249      0.026603099  
   7548000   0.053366284   -0.81580846     0.041445828   -0.69436485     0.021602594  
   7549000   0.055699083   -0.81599039     0.042091734   -0.69040393     0.0050419907 
   7550000   0.055825558   -0.81376374     0.041466643   -0.68861278     0.025744285  
   7551000   0.055416967   -0.81350569     0.044045136   -0.68638873     0.02972628   
   7552000   0.055668521   -0.8135653      0.044658412   -0.68545798    -0.00072761065
   7553000   0.056929041   -0.81492094     0.043811069   -0.6857714      0.017359949  
   7554000   0.055327844   -0.81377031     0.042699731   -0.68813235     0.016775587  
   7555000   0.05432002    -0.81471227     0.043112851   -0.69017196     0.013710926  
   7556000   0.054930104   -0.81365685     0.04440863    -0.68690622     0.028192328  
   7557000   0.055053264   -0.8132208      0.043658651   -0.68703553     0.022172707  
   7558000   0.054111888   -0.81231054     0.042666945   -0.68852812     0.026781722  
   7559000   0.053061492   -0.81283784     0.041839656   -0.69145729     0.016678931  
   7560000   0.053740602   -0.81438809     0.042614648   -0.69121455     0.052458005  
   7561000   0.055394234   -0.81450721     0.042166788   -0.68930268     0.027420408  
   7562000   0.056477548   -0.81444009     0.040380894   -0.68939753     0.0035756714 
   7563000   0.05503488    -0.81425046     0.040834463   -0.69091693     0.046956749  
   7564000   0.053586547   -0.81586291     0.042712398   -0.69282255     0.026261707  
   7565000   0.05562036    -0.81594537     0.044873641   -0.68769501     0.019359581  
   7566000   0.054626715   -0.81736455     0.042873148   -0.69260419     0.031033795  
   7567000   0.05296749    -0.81422993     0.04391637    -0.69091358     0.031474144  
   7568000   0.053637595   -0.81706625     0.043274939   -0.69338683     0.027043266  
   7569000   0.055562443   -0.81418117     0.04233732    -0.68855396     0.050225335  
   7570000   0.056849307   -0.81427447     0.042154246   -0.68690127     0.025706328  
   7571000   0.055236601   -0.81434972     0.045704979   -0.6858433      0.042423792  
   7572000   0.05471468    -0.8145844      0.043688224   -0.6888771      0.027889391  
   7573000   0.054499122   -0.81538653     0.041620948   -0.69206964     0.024364296  
   7574000   0.055284758   -0.81479925     0.041892532   -0.69003308     0.042923723  
   7575000   0.053480359   -0.81518336     0.043362513   -0.69165207     0.016243554  
   7576000   0.053009131   -0.81527056     0.041756231   -0.69405193     0.024821395  
   7577000   0.052134763   -0.81434495     0.042723749   -0.69346951     0.01826925   
   7578000   0.054355279   -0.81325395     0.042294214   -0.68947942     0.02485218   
   7579000   0.055342162   -0.81406611     0.04031801    -0.69078841     0.055544829  
   7580000   0.055559097   -0.81547724     0.043037855   -0.6891545      0.019088296  
   7581000   0.053688901   -0.81559154     0.044630409   -0.69047974     0.015489572  
   7582000   0.053637144   -0.8143854      0.041846044   -0.69213555     0.021929693  
   7583000   0.053241712   -0.81556401     0.043395135   -0.69235783     0.034386039  
   7584000   0.053620877   -0.81450148     0.04234364    -0.69177842     0.025400469  
   7585000   0.05437544    -0.81523309     0.042554465   -0.69116809     0.016881269  
   7586000   0.054788932   -0.81301389     0.041561775   -0.68932174     0.055224406  
   7587000   0.05317759    -0.81487003     0.043237229   -0.69191788     0.00174722   
   7588000   0.052245741   -0.81365623     0.042478278   -0.6928599      0.039223204  
   7589000   0.055288626   -0.81608215     0.042029173   -0.69117355     0.051469653  
   7590000   0.053698855   -0.81622509     0.042549552   -0.69317922     0.02477529   
   7591000   0.054718477   -0.81658196     0.040969994   -0.6935872      0.040559136  
   7592000   0.053924731   -0.81304955     0.041908723   -0.69030592     0.029647749  
   7593000   0.055521236   -0.81489237     0.043676273   -0.68798798     0.047309751  
   7594000   0.055906358   -0.81638112     0.043935644   -0.68864004     0.018170099  
   7595000   0.054563381   -0.81451049     0.043871291   -0.68884693     0.021277256  
   7596000   0.056283333   -0.81318804     0.043191534   -0.68562598     0.054911755  
   7597000   0.053675202   -0.81396916     0.044996011   -0.68851229     0.0476391    
   7598000   0.054940834   -0.81595052     0.04348786    -0.69010458     0.044379636  
   7599000   0.056049304   -0.81491096     0.04414975    -0.6867415      0.048764564  
   7600000   0.054670001   -0.81460689     0.045821722   -0.68683307     0.043131062  
   7601000   0.056042844   -0.81314948     0.044889512   -0.68424994     0.034268305  
   7602000   0.055091831   -0.81462776     0.044247497   -0.68779583     0.037355789  
   7603000   0.055058605   -0.81358422     0.04424033    -0.68680926     0.024497778  
   7604000   0.054328355   -0.81439369     0.043972156   -0.68898158     0.014371336  
   7605000   0.053223555   -0.81461244     0.043957659   -0.69087096     0.037389896  
   7606000   0.054654802   -0.81457539     0.043410267   -0.68923581     0.025069897  
   7607000   0.054531892   -0.81476066     0.043265462   -0.68975013     0.029811257  
   7608000   0.053437614   -0.8145965      0.041787256   -0.69270454     0.064059308  
   7609000   0.05400435    -0.81504716     0.043903442   -0.69018946     0.015056052  
   7610000   0.055142811   -0.81143936     0.041448859   -0.68732965     0.027166548  
   7611000   0.053990476   -0.81545011     0.040828078   -0.69368856     0.045527233  
   7612000   0.052993509   -0.81484127     0.039636069   -0.69576622     0.052994672  
   7613000   0.052894751   -0.81450732     0.041616342   -0.69360004     0.045109799  
   7614000   0.053830922   -0.81444096     0.039444983   -0.69430169     0.040704446  
   7615000   0.052971786   -0.81301775     0.041870257   -0.69174107     0.027049673  
   7616000   0.054325724   -0.8148813      0.043462929   -0.68998235     0.023952604  
   7617000   0.056032858   -0.81418642     0.040470443   -0.68972091     0.020443133  
   7618000   0.054690771   -0.81247696     0.042553884   -0.68793985     0.03439083   
   7619000   0.055192769   -0.81195526     0.043380692   -0.68583883     0.055093245  
   7620000   0.055056364   -0.81332485     0.044320028   -0.68647355     0.055148084  
   7621000   0.056696743   -0.81592039     0.042318432   -0.68861171     0.046920265  
   7622000   0.05414784    -0.81396333     0.044910931   -0.68788304     0.044094175  
   7623000   0.054722832   -0.81501081     0.043629146   -0.68935038     0.041797193  
   7624000   0.053775214   -0.81486083     0.043630348   -0.6906197      0.035518857  
   7625000   0.053346701   -0.81526514     0.043041903   -0.69225481     0.022090796  
   7626000   0.052841056   -0.81672446     0.045330073   -0.69218394     0.019074347  
   7627000   0.054167477   -0.81554039     0.044874845   -0.68946675     0.058623765  
   7628000   0.053700594   -0.81417421     0.043058906   -0.69061638     0.041241531  
   7629000   0.055338126   -0.81295596     0.042992407   -0.68700992     0.029047519  
   7630000   0.05574285    -0.81551152     0.040067431   -0.69188376     0.051605729  
   7631000   0.053784995   -0.81404946     0.044701954   -0.68872206     0.044380621  
   7632000   0.05497606    -0.81577724     0.044292207   -0.68907415     0.034694051  
   7633000   0.055861001   -0.81406455     0.044403431   -0.68592368     0.035378112  
   7634000   0.05343576    -0.81436921     0.044616158   -0.68965112     0.016108605  
   7635000   0.05641186    -0.81586542     0.045213969   -0.68608825     0.02871888   
   7636000   0.054367591   -0.81361013     0.042344261   -0.6897671      0.015681011  
   7637000   0.055436264   -0.81400139     0.042689075   -0.68821157     0.02473729   
   7638000   0.054867072   -0.81445496     0.042799754   -0.6894077      0.034073807  
   7639000   0.055583439   -0.81520805     0.044629653   -0.68725703     0.031191749  
   7640000   0.055377829   -0.81633474     0.041692799   -0.69162879     0.033315581  
   7641000   0.053299307   -0.81555368     0.044384074   -0.69127222     0.042626182  
   7642000   0.054391177   -0.8158837      0.04221152    -0.69213805     0.032822186  
   7643000   0.054273312   -0.81656223     0.042200787   -0.693004       0.018262539  
   7644000   0.05650833    -0.81649479     0.046379958   -0.68540702     0.039732837  
   7645000   0.054023733   -0.81404049     0.042848696   -0.69020848     0.048057974  
   7646000   0.052165768   -0.81588282     0.041775391   -0.69590925     0.015116193  
   7647000   0.053947687   -0.81404614     0.04309742    -0.6900794      0.035490064  
   7648000   0.054598573   -0.81563089     0.046156208   -0.68762966     0.040176629  
   7649000   0.055770776   -0.81449928     0.043881157   -0.68701593    -0.00081118851
   7650000   0.052570076   -0.81393771     0.042385419   -0.69274805     0.044441597  
   7651000   0.054123186   -0.81453622     0.044705555   -0.68869826     0.033194834  
   7652000   0.056098256   -0.81536585     0.043024891   -0.68824786     0.0037512109 
   7653000   0.05376314    -0.81320465     0.042395054   -0.69021692     0.00076401315
   7654000   0.051485719   -0.81591153     0.040019928   -0.69871285     0.035055714  
   7655000   0.05431215    -0.81734759     0.042164955   -0.69376697     0.024452146  
   7656000   0.054758751   -0.81354897     0.043595327   -0.6878685      0.041504144  
   7657000   0.053584684   -0.81546544     0.042546552   -0.69259372     0.036731145  
   7658000   0.053944516   -0.81634941     0.04327525    -0.69220959     0.0091695756 
   7659000   0.054506222   -0.81289554     0.041349049   -0.6898399      0.038510687  
   7660000   0.054672416   -0.81555398     0.042033491   -0.69156477     0.0073468167 
   7661000   0.053234681   -0.81313939     0.04609989    -0.687239       0.048103869  
   7662000   0.054888252   -0.81400329     0.042776703   -0.68894733     0.046872888  
   7663000   0.055861995   -0.81545397     0.042416201   -0.68929883     0.029900987  
   7664000   0.054772522   -0.81610348     0.042102945   -0.69189476     0.045736757  
   7665000   0.054437563   -0.81555606     0.041689728   -0.69226267     0.045439615  
   7666000   0.054725987   -0.8144456      0.041905895   -0.69050368     0.043903208  
   7667000   0.055619263   -0.81586872     0.044294528   -0.68819912     0.0089432291 
   7668000   0.055165407   -0.81558847     0.044516904   -0.68837684     0.023475463  
   7669000   0.055386973   -0.81440283     0.040706175   -0.6906698      0.028123893  
   7670000   0.052177294   -0.81313786     0.042967731   -0.69195468     0.0087534198 
   7671000   0.053159334   -0.81446872     0.043924814   -0.69085635     0.028570686  
   7672000   0.053981883   -0.81364852     0.041251473   -0.69147646     0.045843093  
   7673000   0.054591845   -0.81418746     0.043816816   -0.6885357      0.023987935  
   7674000   0.05592082    -0.81319494     0.04394843    -0.68541939     0.018520126  
   7675000   0.053101829   -0.81550805     0.043042288   -0.69286441     0.028013108  
   7676000   0.054763773   -0.81417452     0.042565255   -0.6895166      0.04992638   
   7677000   0.053656598   -0.81319617     0.043046289   -0.68971691     0.026503643  
   7678000   0.054003435   -0.81474927     0.042290995   -0.69150538     0.027286963  
   7679000   0.051337885   -0.81467393     0.043124361   -0.69459242     0.024788351  
   7680000   0.054383986   -0.81301855     0.042477522   -0.68901768     0.020520756  
   7681000   0.054879396   -0.81389483     0.044273866   -0.68735498     0.047315727  
   7682000   0.055697359   -0.81615444     0.042580014   -0.69008229     0.049179008  
   7683000   0.053146473   -0.8129849      0.042925237   -0.69039139     0.027562922  
   7684000   0.052148018   -0.81377356     0.042610719   -0.69299128     0.034769763  
   7685000   0.054461138   -0.81512089     0.042724202   -0.69075768     0.038881143  
   7686000   0.055017914   -0.81312473     0.041986666   -0.68866444     0.021586762  
   7687000   0.057009014   -0.81497687     0.042656001   -0.68686252     0.032846578  
   7688000   0.054702731   -0.81320401     0.042268337   -0.68893451     0.021744038  
   7689000   0.055383068   -0.81342289     0.042022054   -0.68837983     0.027386494  
   7690000   0.053965864   -0.81516216     0.043167643   -0.69109795     0.032185905  
   7691000   0.053198175   -0.81589643     0.043074027   -0.69307662     0.013678281  
   7692000   0.053370782   -0.81608174     0.044794288   -0.69128293     0.008664264  
   7693000   0.05472956    -0.81534497     0.042014955   -0.69128864     0.028514766  
   7694000   0.055331202   -0.81452185     0.04276035    -0.68881824     0.019560657  
   7695000   0.056143985   -0.81412029     0.043134834   -0.68682381     0.038110354  
   7696000   0.055200573   -0.81523061     0.044197652   -0.68828552     0.01966178   
   7697000   0.055834499   -0.81458284     0.041870179   -0.68901494     0.036610595  
   7698000   0.057160705   -0.81325444     0.045156826   -0.68241187     0.01828257   
   7699000   0.055861316   -0.81448749     0.04296482    -0.68778476     0.012448722  
   7700000   0.054339446   -0.81415252     0.042527661   -0.69016827     0.040081342  
   7701000   0.05363261    -0.81437192     0.044029656   -0.68994525     0.02947064   
   7702000   0.054638183   -0.81412716     0.042998769   -0.68922399     0.037063258  
   7703000   0.055539833   -0.81424059     0.042228178   -0.68875641     0.017385459  
   7704000   0.055696019   -0.81494223     0.043339109   -0.68811299     0.012191274  
   7705000   0.053151458   -0.81280958     0.042262949   -0.69087088     0.044293838  
   7706000   0.055515448   -0.81314031     0.039155707   -0.69076516     0.040834708  
   7707000   0.053967577   -0.81471497     0.041951248   -0.69186458     0.020074023  
   7708000   0.052761067   -0.81643795     0.041898979   -0.69544843     0.015065962  
   7709000   0.052456658   -0.81448741     0.044728477   -0.69112471     0.0074720715 
   7710000   0.054526876   -0.81361719     0.042532544   -0.6893471      0.051829069  
   7711000   0.053445312   -0.81342317     0.043550426   -0.68975649     0.032221489  
   7712000   0.054236522   -0.81478011     0.04258213    -0.69089569     0.029490451  
   7713000   0.053756672   -0.81518289     0.040851916   -0.69374799     0.040382139  
   7714000   0.052483956   -0.81529147     0.04311978    -0.69349654     0.036493323  
   7715000   0.054061201   -0.81324817     0.042440133   -0.68976856     0.031548466  
   7716000   0.055499831   -0.81529331     0.042313701   -0.68978357     0.02636289   
   7717000   0.05505452    -0.81255663     0.044899835   -0.68512829     0.031284296  
   7718000   0.05482497    -0.81405149     0.041709585   -0.69015751     0.03664351   
   7719000   0.053176584   -0.81598003     0.040793407   -0.6954732      0.023334608  
   7720000   0.053350361   -0.81499393     0.042599809   -0.69242021     0.044850223  
   7721000   0.054572643   -0.8138315      0.042082272   -0.68994307     0.042559945  
   7722000   0.054539288   -0.81324904     0.045449261   -0.68604362     0.015777446  
   7723000   0.055496749   -0.81441843     0.042371287   -0.68885573     0.028420115  
   7724000   0.053678171   -0.81530311     0.041423036   -0.69341476     0.035400861  
   7725000   0.052259932   -0.8169704      0.041260377   -0.6973707      0.023214535  
   7726000   0.053125941   -0.81223024     0.040780188   -0.69181255     0.032111663  
   7727000   0.055146901   -0.81485864     0.043040845   -0.68915081     0.011144805  
   7728000   0.055588809   -0.81442804     0.040996174   -0.69010244     0.015646564  
   7729000   0.053694639   -0.81474809     0.043110834   -0.69114726     0.030009011  
   7730000   0.056062345   -0.81564591     0.042848839   -0.68875781     0.051864614  
   7731000   0.053970757   -0.81570954     0.043805763   -0.69099987     0.036437307  
   7732000   0.055702778   -0.81408514     0.041376205   -0.68920867     0.05873895   
   7733000   0.054031666   -0.81484131     0.041712814   -0.69213328     0.014328204  
   7734000   0.054588827   -0.81585763     0.042222718   -0.6918045      0.036525841  
   7735000   0.054501167   -0.81610162     0.04339925    -0.69100336     0.027824298  
   7736000   0.053649337   -0.81433067     0.044018813   -0.68988977     0.023752348  
   7737000   0.052420046   -0.81282139     0.042075355   -0.69216669     0.025071001  
   7738000   0.056928272   -0.81475445     0.042680366   -0.68673677     0.022254076  
   7739000   0.054578189   -0.81413908     0.042351035   -0.68997358     0.03845081   
   7740000   0.054393853   -0.8128089      0.042341391   -0.68892937     0.037313479  
   7741000   0.053102549   -0.81390294     0.042563277   -0.69173723     0.027134123  
   7742000   0.054460967   -0.81186977     0.042825636   -0.68740539     0.051596516  
   7743000   0.057004925   -0.81373584     0.042888137   -0.68539548     0.04343286   
   7744000   0.055279045   -0.81630249     0.043202611   -0.69023481     0.034124501  
   7745000   0.052647717   -0.81640568     0.0406911     -0.69679396     0.013380696  
   7746000   0.054160373   -0.81524332     0.040739102   -0.69331607     0.040918725  
   7747000   0.056066201   -0.81377955     0.039926114   -0.6898084      0.023879429  
   7748000   0.053574289   -0.81416992     0.04180097    -0.69205936     0.039108202  
   7749000   0.054451502   -0.81337939     0.042867222   -0.68888761     0.0061194853 
   7750000   0.053371442   -0.81309751     0.042961809   -0.69013019     0.026337082  
   7751000   0.054416618   -0.81368308     0.04248077    -0.68963005     0.019770043  
   7752000   0.05422141    -0.81452529     0.044048228   -0.68919742     0.023988734  
   7753000   0.056446897   -0.81249936     0.043787507   -0.68409613     0.02017471   
   7754000   0.055314897   -0.81539789     0.042969301   -0.68950977     0.012911197  
   7755000   0.055146626   -0.81493704     0.043483952   -0.68878651     0.052985832  
   7756000   0.056669902   -0.81337405     0.045510764   -0.68291327     0.026731209  
   7757000   0.055824132   -0.81416244     0.044648306   -0.68583196     0.037585078  
   7758000   0.054028913   -0.81411172     0.043502835   -0.6896178      0.012336055  
   7759000   0.054435511   -0.81512206     0.043798677   -0.6897228      0.036758417  
   7760000   0.053222849   -0.81620632     0.042241974   -0.69418157     0.035984159  
   7761000   0.053530429   -0.81428561     0.0443643     -0.68967747     0.039129962  
   7762000   0.053916126   -0.81343159     0.045929376   -0.6866802      0.025100858  
   7763000   0.053695533   -0.81297046     0.042623864   -0.68985526     0.035677779  
   7764000   0.053254376   -0.81476725     0.04153594    -0.69340128     0.052758304  
   7765000   0.054418241   -0.81612565     0.041701884   -0.69284907     0.017633606  
   7766000   0.054218398   -0.81662501     0.043324724   -0.69202516     0.024186938  
   7767000   0.054837833   -0.81398805     0.040953019   -0.69083135     0.053361312  
   7768000   0.05424243    -0.81361797     0.043854525   -0.6884523      0.019300168  
   7769000   0.054720572   -0.81576169     0.04156985    -0.69216393     0.022966182  
   7770000   0.055149663   -0.81539584     0.04222351    -0.6905012      0.056666304  
   7771000   0.053585195   -0.8165853      0.043940792   -0.69231857     0.075474148  
   7772000   0.05374314    -0.81468609     0.044269472   -0.68985392     0.053739613  
   7773000   0.05495294    -0.8122063      0.042981193   -0.68684887     0.050475909  
   7774000   0.054402136   -0.81692211     0.043796328   -0.69157522     0.033221678  
   7775000   0.05323033    -0.81451793     0.042202578   -0.69252137     0.045714406  
   7776000   0.054383217   -0.8143316      0.043494199   -0.6893152      0.016819941  
   7777000   0.053065523   -0.81441861     0.043576675   -0.691295       0.044588521  
   7778000   0.05485177    -0.81554684     0.042851149   -0.69047112     0.031751275  
   7779000   0.054983267   -0.81531861     0.043164078   -0.68973284     0.037607865  
   7780000   0.054080308   -0.81513637     0.045297455   -0.68877079     0.041594564  
   7781000   0.054052854   -0.81369539     0.043270378   -0.68939804     0.052945097  
   7782000   0.053347802   -0.81597476     0.044419181   -0.6915855      0.016624177  
   7783000   0.056593218   -0.81297799     0.041924012   -0.68621892     0.02884301   
   7784000   0.055668983   -0.81568758     0.046648873   -0.68558911     0.026208103  
   7785000   0.054520431   -0.815558       0.041658935   -0.69217118     0.04517587   
   7786000   0.055927756   -0.81443841     0.043554531   -0.68704637     0.044763948  
   7787000   0.053985498   -0.81551206     0.041977641   -0.69260842     0.0090315994 
   7788000   0.053119912   -0.81478161     0.044380075   -0.69077308     0.01386267   
   7789000   0.054327241   -0.81502673     0.042868115   -0.69072032     0.021781991  
   7790000   0.05309612    -0.81357223     0.045859166   -0.68812027     0.034596191  
   7791000   0.055528629   -0.81469141     0.04471174    -0.68674046     0.0208562    
   7792000   0.05385048    -0.81129599     0.041385622   -0.68918676     0.038646703  
   7793000   0.053985462   -0.81528113     0.042747284   -0.6916079      0.017974181  
   7794000   0.054661128   -0.81706415     0.042028183   -0.69309717     0.046125581  
   7795000   0.055999141   -0.81579559     0.040252573   -0.6915985      0.051805355  
   7796000   0.055205236   -0.81417251     0.046365215   -0.68505287     0.017412132  
   7797000   0.055014178   -0.81562509     0.043243723   -0.68991334     0.02793717   
   7798000   0.055213107   -0.81670513     0.041698927   -0.69223998     0.047802214  
   7799000   0.053892962   -0.81338917     0.043043569   -0.68955832     0.011881684  
   7800000   0.054929579   -0.8167923      0.042733646   -0.69171745     0.037137411  
   7801000   0.053863193   -0.81610308     0.043801732   -0.69155869     0.022475497  
   7802000   0.054106936   -0.81524463     0.0437246     -0.69041199     0.020731862  
   7803000   0.055045763   -0.81372411     0.04309835    -0.68811038     0.0048391281 
   7804000   0.054740365   -0.814669       0.045611711   -0.68699972     0.0049327829 
   7805000   0.053697799   -0.81513317     0.046617807   -0.68802063     0.021924958  
   7806000   0.055972252   -0.8130059      0.041832153   -0.68726954     0.055869091  
   7807000   0.055614934   -0.81535064     0.043269747   -0.68871231     0.045154443  
   7808000   0.055387262   -0.81377376     0.043431374   -0.6873151      0.024888543  
   7809000   0.055909103   -0.81583354     0.043794254   -0.68822974     0.030857279  
   7810000   0.055280911   -0.81388319     0.043155868   -0.68785946     0.0428456    
   7811000   0.053920847   -0.81368951     0.042736932   -0.69012349     0.014495454  
   7812000   0.054086593   -0.81501515     0.042412109   -0.69152549     0.012677786  
   7813000   0.055587696   -0.8162173      0.040411579   -0.69247797     0.0067903437 
   7814000   0.054220609   -0.81352521     0.042356774   -0.68988999     0.066116859  
   7815000   0.053407282   -0.81296335     0.04341972    -0.68948439     0.036330692  
   7816000   0.053710301   -0.81566461     0.042446443   -0.69270469     0.053901764  
   7817000   0.054014251   -0.81561016     0.043903114   -0.69073794     0.043159307  
   7818000   0.05299481    -0.81367777     0.044925593   -0.68931125     0.031325979  
   7819000   0.054708721   -0.81209983     0.044048963   -0.68604073     0.02177597   
   7820000   0.053596839   -0.81184052     0.043324238   -0.68817289     0.037265982  
   7821000   0.056263098   -0.81717565     0.041953582   -0.69088187    -0.0016325919 
   7822000   0.054739628   -0.81413492     0.040636118   -0.69144234     0.025823912  
   7823000   0.055796264   -0.81372209     0.043292341   -0.68678935     0.023601199  
   7824000   0.056447492   -0.81175221     0.0433635     -0.68377209     0.02673454   
   7825000   0.057102052   -0.81308068     0.042667167   -0.6848157      0.042567114  
   7826000   0.055655369   -0.81644996     0.044866657   -0.6881541      0.039575248  
   7827000   0.056161547   -0.8147733      0.042743148   -0.68784218     0.036245821  
   7828000   0.053276337   -0.81385196     0.04434204    -0.68964698     0.020071513  
   7829000   0.052700938   -0.81570479     0.042400652   -0.69430373     0.021458265  
   7830000   0.054069929   -0.81330286     0.042877109   -0.68937319     0.03029325   
   7831000   0.053983993   -0.81498638     0.042701482   -0.69136115     0.01990498   
   7832000   0.052892512   -0.81394372     0.041970714   -0.69268542     0.028417839  
   7833000   0.053887565   -0.81562449     0.044091465   -0.69075383     0.030796597  
   7834000   0.053442825   -0.81474212     0.044200842   -0.69042876     0.038696005  
   7835000   0.055799981   -0.81636608     0.047969964   -0.68475015     0.023241822  
   7836000   0.053605979   -0.81683492     0.043418224   -0.69305961     0.028903811  
   7837000   0.054172411   -0.81302788     0.042018023   -0.68980367     0.045026168  
   7838000   0.054473761   -0.81457308     0.043896184   -0.68901897     0.036063034  
   7839000   0.056096903   -0.81576912     0.043388899   -0.68828915     0.038726601  
   7840000   0.054283609   -0.81518009     0.041537449   -0.69226976     0.017871635  
   7841000   0.052534196   -0.81446191     0.045104138   -0.69060731     0.032235974  
   7842000   0.054466294   -0.81356371     0.044288055   -0.68762893     0.019340631  
   7843000   0.054129575   -0.81430932     0.043329572   -0.68983777     0.039687833  
   7844000   0.055279988   -0.81535044     0.04237251    -0.69011144     0.045151914  
   7845000   0.054274567   -0.81544152     0.041705028   -0.69237717     0.035920605  
   7846000   0.053046719   -0.81411089     0.043932093   -0.69066005     0.048076726  
   7847000   0.055558502   -0.80987665     0.042728758   -0.6838639      0.025094446  
   7848000   0.053241211   -0.81335693     0.041473487   -0.69207315     0.0091821802 
   7849000   0.052614016   -0.81331438     0.042240238   -0.69220403     0.025780545  
   7850000   0.055361162   -0.8155836      0.040430331   -0.6921651      0.025809759  
   7851000   0.054271871   -0.8157394      0.04444594    -0.68993817     0.035625426  
   7852000   0.053789529   -0.81527162     0.043526266   -0.69111311     0.0067374853 
   7853000   0.054627549   -0.81624255     0.042858523   -0.69149557     0.021855853  
   7854000   0.054511716   -0.81443529     0.045177639   -0.68754283     0.023907131  
   7855000   0.05338135    -0.81459145     0.045293746   -0.68927734     0.021710598  
   7856000   0.054570475   -0.8159922      0.042567439   -0.69162186     0.035049338  
   7857000   0.056180953   -0.81461301     0.044274831   -0.68612112     0.029766932  
   7858000   0.053499503   -0.8155689      0.044822608   -0.69054881     0.015794526  
   7859000   0.05532441    -0.81371301     0.041938525   -0.68884141     0.040538882  
   7860000   0.05079235    -0.81241237     0.043105516   -0.69316749     0.045726993  
   7861000   0.053979942   -0.816464       0.043252805   -0.69229352     0.011817444  
   7862000   0.054755858   -0.81435539     0.040960086   -0.69131451     0.046886495  
   7863000   0.054386006   -0.81600484     0.043240579   -0.69123789     0.04092851   
   7864000   0.054930424   -0.81507621     0.043133885   -0.68959984     0.043557958  
   7865000   0.053607806   -0.8165883      0.041455356   -0.69477312     0.016312317  
   7866000   0.053228222   -0.8147637      0.04124261    -0.69373026     0.033382158  
   7867000   0.05428483    -0.81590071     0.042873401   -0.6916526      0.02052104   
   7868000   0.054113184   -0.8163174      0.042808018   -0.69239197     0.01782512   
   7869000   0.05464868    -0.81376613     0.045572043   -0.68627395     0.032792392  
   7870000   0.055336231   -0.81358564     0.045021501   -0.68561335     0.030512766  
   7871000   0.055654311   -0.81614093     0.043099695   -0.68961362     0.02781718   
   7872000   0.052246858   -0.81422306     0.04271777    -0.69318557     0.062012552  
   7873000   0.054702785   -0.81709275     0.042622532   -0.69246898     0.042191018  
   7874000   0.054909648   -0.81553569     0.042948407   -0.69027595     0.034327569  
   7875000   0.05462047    -0.81503648     0.042083219   -0.69107542     0.054224865  
   7876000   0.055293968   -0.81340228     0.042235684   -0.68827916     0.055491668  
   7877000   0.055093578   -0.81368531     0.045089304   -0.68600896     0.010977785  
   7878000   0.055877443   -0.81614195     0.043142058   -0.6892378      0.040129822  
   7879000   0.053723959   -0.81476283     0.043920044   -0.69030883     0.048654572  
   7880000   0.053878041   -0.81340719     0.045829783   -0.68681249     0.034013592  
   7881000   0.054510455   -0.81477949     0.043150394   -0.68991617     0.053403223  
   7882000   0.054740493   -0.8135031      0.043434198   -0.68801114     0.010369405  
   7883000   0.053741097   -0.81604546     0.043537619   -0.6919482      0.0306197    
   7884000   0.052972386   -0.81516621     0.042070967   -0.69368793     0.030659392  
   7885000   0.053648433   -0.81666896     0.043703746   -0.69254449     0.041054132  
   7886000   0.053941175   -0.81444022     0.043543592   -0.69003707     0.028993426  
   7887000   0.053070685   -0.81409579     0.043229966   -0.69131116     0.04837144   
   7888000   0.052315114   -0.81447796     0.041293217   -0.6947627      0.03212781   
   7889000   0.053906496   -0.81423931     0.042748463   -0.69068327     0.029065584  
   7890000   0.0540686     -0.81604618     0.044388634   -0.69060697     0.0298362    
   7891000   0.053385928   -0.81422499     0.044759036   -0.68943873     0.012631818  
   7892000   0.053574183   -0.813757       0.043277411   -0.69017016     0.024096488  
   7893000   0.05533251    -0.81458848     0.042384224   -0.68925904     0.044796684  
   7894000   0.053634329   -0.81361982     0.042785515   -0.69043471     0.029355575  
   7895000   0.053855075   -0.81309439     0.043323064   -0.68904084     0.0064022774 
   7896000   0.054721032   -0.8159357      0.045151621   -0.68875548     0.010811763  
   7897000   0.053220831   -0.81232398     0.041593755   -0.69095048     0.016166219  
   7898000   0.050990335   -0.81556633     0.0432222     -0.69590798     0.015306708  
   7899000   0.05373083    -0.81541611     0.041533186   -0.69333867     0.031231948  
   7900000   0.053002467   -0.81554035     0.04420641    -0.69188154     0.031571537  
   7901000   0.055142228   -0.81385561     0.042118682   -0.68907695     0.0043954891 
   7902000   0.052657417   -0.81372948     0.042833171   -0.69196114     0.02261429   
   7903000   0.053669465   -0.81362983     0.042110581   -0.69106699     0.030405029  
   7904000   0.053887059   -0.81554935     0.042114631   -0.69265628     0.026938916  
   7905000   0.054308618   -0.81284012     0.045526487   -0.68590326     0.033280318  
   7906000   0.056289547   -0.81479215     0.042848439   -0.68756386     0.059233565  
   7907000   0.054650948   -0.81579584     0.041535745   -0.69233656     0.014865763  
   7908000   0.054833842   -0.81298868     0.043730703   -0.68706028     0.012764501  
   7909000   0.054567594   -0.8144304      0.043229389   -0.68940243     0.026468705  
   7910000   0.053223648   -0.81478837     0.043046729   -0.69195767     0.0013802586 
   7911000   0.054740486   -0.81518747     0.044487393   -0.68864233     0.037635434  
   7912000   0.051038351   -0.81467466     0.043635325   -0.6945312      0.022169532  
   7913000   0.05348159    -0.81667904     0.043432286   -0.69307612     0.033674906  
   7914000   0.05381321    -0.8137211      0.042059235   -0.69099413     0.03351214   
   7915000   0.053101602   -0.8140349      0.043936758   -0.69049713     0.021798979  
   7916000   0.055859311   -0.81266931     0.04333874    -0.68559566     0.018436911  
   7917000   0.056000748   -0.81454499     0.042057388   -0.68854068     0.027921726  
   7918000   0.056732455   -0.81369772     0.043601024   -0.68505291     0.068428232  
   7919000   0.055316723   -0.81505298     0.041949079   -0.69018235     0.061747757  
   7920000   0.054953669   -0.81336168     0.044964108   -0.68602025     0.0091321439 
   7921000   0.055261087   -0.81504866     0.043213809   -0.6889967      0.025443327  
   7922000   0.053882072   -0.81721411     0.04214566    -0.69429749     0.038633881  
   7923000   0.054730751   -0.81242644     0.041644128   -0.68873915     0.015837063  
   7924000   0.052155421   -0.81474061     0.041595942   -0.694962       0.020262406  
   7925000   0.053537393   -0.81429207     0.042377185   -0.69166061     0.00327132   
   7926000   0.055121272   -0.81416533     0.045631982   -0.68590479     0.019496043  
   7927000   0.05691244    -0.81411194     0.043996121   -0.68480223     0.018186624  
   7928000   0.053961309   -0.81523069     0.043609657   -0.69073129     0.037288619  
   7929000   0.055018947   -0.81559066     0.043865274   -0.68925021     0.042758287  
   7930000   0.054081016   -0.81510434     0.043306613   -0.69072854     0.019795415  
   7931000   0.05455915    -0.81584826     0.043789086   -0.69027325     0.03127397   
   7932000   0.053865142   -0.81267417     0.042601445   -0.68932714     0.04360724   
   7933000   0.053477912   -0.81516482     0.042581394   -0.69241831     0.044983971  
   7934000   0.053474439   -0.81366614     0.040573994   -0.69293224     0.0050901884 
   7935000   0.052045612   -0.81335888     0.044618706   -0.69072213     0.020443755  
   7936000   0.051418824   -0.81375299     0.042230432   -0.69444408     0.018889584  
   7937000   0.054850566   -0.81427475     0.041901768   -0.69015021     0.035026318  
   7938000   0.054126119   -0.81335419     0.043784675   -0.68843272     0.0082158185 
   7939000   0.055349132   -0.81413499     0.041871489   -0.68929336     0.0051005822 
   7940000   0.054929235   -0.81546571     0.041598149   -0.69152687     0.0017390687 
   7941000   0.051760661   -0.8117646      0.043933697   -0.69024        0.012230886  
   7942000   0.055417258   -0.8145354      0.042747938   -0.6887152      0.018901011  
   7943000   0.05632201    -0.81289761     0.043394676   -0.68507442     0.032859095  
   7944000   0.053219753   -0.81612187     0.042212383   -0.69413136     0.0080531802 
   7945000   0.0546721     -0.81574149     0.042047089   -0.69173916     0.011628425  
   7946000   0.054413956   -0.81591862     0.04265713    -0.69169322     0.039842018  
   7947000   0.054253446   -0.81155815     0.040779126   -0.68945135     0.021233879  
   7948000   0.052824169   -0.81185244     0.041112956   -0.69155435     0.048425019  
   7949000   0.053028373   -0.81731381     0.044191524   -0.69363105     0.011911501  
   7950000   0.055183115   -0.81550287     0.040813114   -0.69196849     0.047483301  
   7951000   0.056400828   -0.81449287     0.043399645   -0.68654657     0.039561194  
   7952000   0.053887006   -0.81689614     0.043148037   -0.69296974     0.022494714  
   7953000   0.054855335   -0.81524702     0.043515755   -0.68950135     0.015565042  
   7954000   0.054435253   -0.81410531     0.043720437   -0.68878467     0.019923281  
   7955000   0.055152479   -0.81482329     0.044614811   -0.68753313     0.02214547   
   7956000   0.054510496   -0.81452827     0.043206893   -0.68960838     0.02958059   
   7957000   0.054812859   -0.81505265     0.042685913   -0.69020049     0.030227337  
   7958000   0.053619415   -0.81404703     0.042712795   -0.690957       0.034959213  
   7959000   0.054689829   -0.81352353     0.04240105    -0.68914066     0.024818005  
   7960000   0.053794171   -0.81410298     0.042627101   -0.69083668     0.011476044  
   7961000   0.053167251   -0.81478366     0.041210911   -0.69387333     0.033280893  
   7962000   0.052436134   -0.81390832     0.042499764   -0.6928051      0.025414708  
   7963000   0.055077706   -0.81487747     0.043166883   -0.68914733     0.011993568  
   7964000   0.053713774   -0.81397692     0.041790609   -0.69166763     0.025379897  
   7965000   0.053670231   -0.81322131     0.042957436   -0.68981047     0.036639148  
   7966000   0.055310243   -0.81222848     0.043779789   -0.68553686     0.037727785  
   7967000   0.055791379   -0.81478608     0.041593153   -0.68955985     0.037478998  
   7968000   0.05568951    -0.81656449     0.042281654   -0.69080246     0.025856762  
   7969000   0.055603807   -0.81425168     0.043562588   -0.68733719     0.052866022  
   7970000   0.054846868   -0.81500447     0.041812953   -0.6909743     -0.01437175   
   7971000   0.054742073   -0.8125823      0.041602541   -0.68891963     0.019072668  
   7972000   0.054088624   -0.81520254     0.041323495   -0.69279845     0.022994364  
   7973000   0.052676192   -0.81574226     0.042270087   -0.69450887     0.042320267  
   7974000   0.054201559   -0.8163746      0.042791791   -0.69233292     0.025944502  
   7975000   0.0561098     -0.81469535     0.041483906   -0.68910104     0.030423007  
   7976000   0.055930611   -0.81537794     0.041990914   -0.68954523     0.037190802  
   7977000   0.054188102   -0.81247847     0.042867713   -0.68838104     0.029851831  
   7978000   0.054822429   -0.81557881     0.04357156    -0.68982666     0.023771732  
   7979000   0.054524588   -0.81453611     0.041449843   -0.69135215     0.022413027  
   7980000   0.055219167   -0.81416474     0.042651545   -0.68873789     0.034591741  
   7981000   0.054427388   -0.81372409     0.043953952   -0.68818173     0.0061207025 
   7982000   0.053025279   -0.81567298     0.042427804   -0.69375858     0.0034009364 
   7983000   0.05338441    -0.81556761     0.042745474   -0.69279718     0.014740168  
   7984000   0.054825465   -0.81409611     0.04380598    -0.68810499     0.011895858  
   7985000   0.054814598   -0.81365342     0.041539195   -0.68994538     0.0092692697 
   7986000   0.053794895   -0.81482714     0.045530586   -0.68865627     0.0010048907 
   7987000   0.054708588   -0.81629392     0.043551664   -0.69073232     0.023931209  
   7988000   0.053494506   -0.81476546     0.045349592   -0.68922588     0.0062038918 
   7989000   0.054316097   -0.81699902     0.04322084    -0.6923566      0.017069768  
   7990000   0.055189325   -0.81712547     0.042721949   -0.69167295     0.016365904  
   7991000   0.053220355   -0.81476376     0.041345533   -0.6936392      0.037475414  
   7992000   0.053935792   -0.81373347     0.042607901   -0.69027408     0.034084156  
   7993000   0.053534979   -0.81660581     0.042986607   -0.69336854     0.031016915  
   7994000   0.053041134   -0.81570837     0.044423264   -0.69177474     0.033525791  
   7995000   0.055124263   -0.81514275     0.043225004   -0.68928469     0.02931912   
   7996000   0.054256289   -0.81440498     0.042138347   -0.69093471     0.023609386  
   7997000   0.054462453   -0.81504436     0.044176864   -0.68922652     0.0075195646 
   7998000   0.056229576   -0.81468591     0.043247314   -0.68714865    -0.011029532  
   7999000   0.055598726   -0.81456648     0.044477924   -0.68674427     0.002588381  
   8000000   0.05777734    -0.81433349     0.044056584   -0.68366681     0.016099668  
   8001000   0.055102089   -0.8144482      0.045730361   -0.68611803     0.018311128  
   8002000   0.056029854   -0.81271798     0.042125841   -0.68660158     0.032418345  
   8003000   0.056384271   -0.81477525     0.043960477   -0.68629293     0.03439231   
   8004000   0.053932997   -0.81459776     0.044098256   -0.6896522      0.028386847  
   8005000   0.055567716   -0.81440848     0.042384073   -0.68872661     0.03062023   
   8006000   0.053644442   -0.81508166     0.046040465   -0.68862645     0.027861424  
   8007000   0.053822398   -0.81439299     0.04561027    -0.68810121     0.040589263  
   8008000   0.054494977   -0.81459506     0.041990888   -0.69091444     0.018234958  
   8009000   0.054725897   -0.81532954     0.043341905   -0.68995175     0.04648921   
   8010000   0.054644775   -0.81618684     0.044064077   -0.69020848     0.050996831  
   8011000   0.054605244   -0.81250234     0.042632999   -0.68801432     0.022056646  
   8012000   0.054988121   -0.81348435     0.043065915   -0.68798947     0.039596877  
   8013000   0.055843235   -0.81564989     0.042237195   -0.68970189     0.031210833  
   8014000   0.055391237   -0.81462538     0.042330507   -0.68926162     0.029197947  
   8015000   0.054971114   -0.81393593     0.045794617   -0.68573784     0.042895768  
   8016000   0.055954144   -0.81821578     0.04200978    -0.69232893     0.027379997  
   8017000   0.054134785   -0.81605819     0.04227657    -0.69263184     0.023661006  
   8018000   0.05547366    -0.81520728     0.043140038   -0.68891043     0.044585645  
   8019000   0.054424509   -0.81538107     0.042973911   -0.69082307     0.027971039  
   8020000   0.053005837   -0.81351942     0.040857954   -0.69320401     0.030354058  
   8021000   0.053907121   -0.81408612     0.042259463   -0.69101814     0.019457645  
   8022000   0.054398511   -0.8137026      0.042401246   -0.68975623     0.043729918  
   8023000   0.055607076   -0.81535918     0.042986987   -0.68901539     0.0121115    
   8024000   0.055443343   -0.81369975     0.04451323    -0.68607516     0.059957383  
   8025000   0.055301663   -0.81636916     0.043754399   -0.68971579     0.034195327  
   8026000   0.055775574   -0.81386601     0.0423909     -0.68786572     0.049796807  
   8027000   0.055418436   -0.81313636     0.042736252   -0.68732608     0.02531296   
   8028000   0.054544847   -0.81720307     0.042439444   -0.69299914     0.049406921  
   8029000   0.054063641   -0.81679241     0.041847129   -0.69390213     0.036011063  
   8030000   0.05453321    -0.81256178     0.041316525   -0.68949821     0.059374301  
   8031000   0.054303573   -0.8135566      0.040644814   -0.69150898     0.036804159  
   8032000   0.053611395   -0.81503838     0.043060763   -0.69161241     0.037730649  
   8033000   0.054509712   -0.81167665     0.043921461   -0.68604337     0.026556437  
   8034000   0.055001689   -0.81434706     0.043537879   -0.68835987     0.016939942  
   8035000   0.056212046   -0.81558468     0.043562896   -0.68775811     0.050380418  
   8036000   0.055673039   -0.81314972     0.042271628   -0.68742241     0.030622538  
   8037000   0.054283867   -0.81802186     0.042811753   -0.69383684     0.025657322  
   8038000   0.054598909   -0.81367648     0.042193261   -0.68963769     0.028527601  
   8039000   0.054239028   -0.8118313      0.04451919    -0.68600606     0.036308876  
   8040000   0.053686554   -0.8152695      0.042364776   -0.69242685     0.024266226  
   8041000   0.052001231   -0.81397342     0.045315377   -0.69070652     0.041474114  
   8042000   0.055193733   -0.81511104     0.044090958   -0.6882829      0.017168118  
   8043000   0.055731384   -0.81463942     0.040681435   -0.69041484     0.029190222  
   8044000   0.054156161   -0.81560816     0.042001037   -0.69242529     0.032961079  
   8045000   0.052895079   -0.81401911     0.040874787   -0.6938529      0.042570329  
   8046000   0.050920634   -0.81335263     0.042377757   -0.6946432      0.044422217  
   8047000   0.054917854   -0.81526307     0.042748086   -0.69019134     0.041955442  
   8048000   0.053641763   -0.81338124     0.042477644   -0.69049287     0.05431716   
   8049000   0.052980885   -0.81425918     0.041802013   -0.69303711     0.060790917  
   8050000   0.052057938   -0.81348988     0.040782721   -0.69467063     0.055261316  
   8051000   0.054395843   -0.81586397     0.041847428   -0.69247542     0.052876845  
   8052000   0.053183657   -0.81325886     0.041486348   -0.69204849     0.03361323   
   8053000   0.055963824   -0.81448461     0.040342805   -0.69025022     0.051770622  
   8054000   0.054592701   -0.81553413     0.043649549   -0.69004836     0.047893046  
   8055000   0.056184324   -0.81360467     0.044406615   -0.68497594     0.040360419  
   8056000   0.05480636    -0.8155722      0.045570528   -0.68784517     0.053992501  
   8057000   0.054532486   -0.81424438     0.04005119    -0.69244723     0.0076182908 
   8058000   0.057147725   -0.81448656     0.043198768   -0.68562151     0.05853438   
   8059000   0.0551713     -0.81408152     0.044258543   -0.68711942     0.052589141  
   8060000   0.055267693   -0.81435419     0.040937613   -0.69056853     0.046701968  
   8061000   0.056300787   -0.81483666     0.043046995   -0.68739297     0.067855982  
   8062000   0.055138739   -0.81475813     0.043261564   -0.68884182     0.049150109  
   8063000   0.054453428   -0.81493735     0.044017297   -0.6892926      0.018873578  
   8064000   0.054045448   -0.81477866     0.043684696   -0.69007809     0.070777252  
   8065000   0.050631669   -0.81615542     0.041816315   -0.6984406      0.023603855  
   8066000   0.051540989   -0.81584318     0.044553273   -0.69402831     0.034991479  
   8067000   0.052904452   -0.81529033     0.041412847   -0.694572       0.064493177  
   8068000   0.053863627   -0.81404863     0.041370158   -0.69193516     0.044623696  
   8069000   0.053966216   -0.81653387     0.041805424   -0.69383135     0.051908848  
   8070000   0.054614813   -0.81442401     0.04226734    -0.6902873      0.010784905  
   8071000   0.052178339   -0.81572832     0.04406047    -0.69345084     0.032908252  
   8072000   0.054276097   -0.81442874     0.041941819   -0.6911253      0.041256164  
   8073000   0.05389431    -0.81453157     0.040897965   -0.6928443      0.05177205   
   8074000   0.055404881   -0.81446068     0.039475543   -0.69193144     0.062421616  
   8075000   0.052584948   -0.81495486     0.04447674    -0.69165158     0.022450745  
   8076000   0.053654466   -0.81549326     0.043689466   -0.69137402     0.026219629  
   8077000   0.054099793   -0.81358592     0.042755729   -0.68973285     0.058334908  
   8078000   0.055506197   -0.8154278      0.044375996   -0.68784622     0.057131906  
   8079000   0.054343448   -0.81483346     0.044524116   -0.68884676     0.060651387  
   8080000   0.053512936   -0.81413381     0.042741766   -0.69117442     0.062500051  
   8081000   0.05241756    -0.81274846     0.042602196   -0.69157065     0.057465725  
   8082000   0.053938944   -0.81555749     0.045193506   -0.68950777     0.054212456  
   8083000   0.055823847   -0.8150692      0.044843807   -0.68654364     0.02064125   
   8084000   0.053427557   -0.81399633     0.044930759   -0.68897594     0.032063875  
   8085000   0.055425121   -0.81597884     0.042098035   -0.69079676     0.043180486  
   8086000   0.055907598   -0.81400034     0.042072993   -0.68812005     0.060730442  
   8087000   0.05465854    -0.81657126     0.043287137   -0.6913492      0.02371693   
   8088000   0.053094922   -0.8154348      0.041816668   -0.69402713     0.033444198  
   8089000   0.054510163   -0.81383031     0.044521816   -0.687596       0.034332228  
   8090000   0.051704127   -0.81422818     0.044024182   -0.69269785     0.059122405  
   8091000   0.053658316   -0.81401781     0.043516953   -0.69006531     0.047113199  
   8092000   0.055405218   -0.81592247     0.043852914   -0.68901535     0.075949696  
   8093000   0.053138917   -0.81439559     0.043466987   -0.69127165     0.062464701  
   8094000   0.052790213   -0.81531606     0.045662722   -0.6905191      0.050121003  
   8095000   0.054556083   -0.81297249     0.042025259   -0.6891659      0.074045383  
   8096000   0.054756652   -0.81271354     0.041076179   -0.68955537     0.046746486  
   8097000   0.054034738   -0.81356036     0.043512646   -0.6890479      0.068235254  
   8098000   0.05478499    -0.81603395     0.045754792   -0.68815469     0.058695072  
   8099000   0.05637744    -0.81388206     0.044364974   -0.68500549     0.076843162  
   8100000   0.052575191   -0.81357854     0.044717043   -0.69004959     0.037144046  
   8101000   0.052662809   -0.81490695     0.042754637   -0.69320906     0.05350951   
   8102000   0.053650138   -0.81618448     0.043233547   -0.69252764     0.045264797  
   8103000   0.053149488   -0.8166481      0.042534265   -0.69444104     0.057214129  
   8104000   0.054950725   -0.81562994     0.039828788   -0.69342824     0.046934073  
   8105000   0.053657665   -0.81452748     0.042401439   -0.69169147     0.024126386  
   8106000   0.054374212   -0.81595897     0.04441935    -0.69003093     0.026994821  
   8107000   0.052776177   -0.81396528     0.042562857   -0.69228923     0.065982212  
   8108000   0.054572691   -0.81545091     0.04236661    -0.69127808     0.040909802  
   8109000   0.054526848   -0.8165961      0.044448091   -0.69041051     0.036578277  
   8110000   0.056017556   -0.81499381     0.046649975   -0.68437171     0.034430665  
   8111000   0.054302187   -0.8136288      0.041610281   -0.69061779     0.031171439  
   8112000   0.053776245   -0.8154641      0.042685259   -0.69216652     0.06342132   
   8113000   0.05349985    -0.81543004     0.042737536   -0.6924945      0.038549623  
   8114000   0.054009861   -0.81568738     0.041964213   -0.69276064     0.022041833  
   8115000   0.0558337     -0.8173637      0.043430411   -0.69023677     0.045901836  
   8116000   0.055403228   -0.81319949     0.040435466   -0.6897128      0.05072714   
   8117000   0.057891005   -0.81473515     0.043778163   -0.6841765      0.065793673  
   8118000   0.056108366   -0.8164153      0.043626496   -0.68868056     0.068002649  
   8119000   0.055099687   -0.81510604     0.044548482   -0.68796135     0.030960954  
   8120000   0.054378494   -0.81508546     0.042795596   -0.69077474     0.040134205  
   8121000   0.05410993    -0.81360391     0.042983316   -0.68950806     0.038964686  
   8122000   0.053116805   -0.81401675     0.043180759   -0.69121219     0.047964849  
   8123000   0.055570107   -0.81411478     0.042295155   -0.68851824     0.034361152  
   8124000   0.053703071   -0.81357411     0.044440849   -0.68863062     0.032177943  
   8125000   0.053223097   -0.81342285     0.042073383   -0.69156633     0.023438951  
   8126000   0.054958311   -0.81604222     0.042089481   -0.69156846     0.029211147  
   8127000   0.054390601   -0.81533253     0.042893484   -0.69090578     0.043833155  
   8128000   0.055907812   -0.81679164     0.042714601   -0.69026942     0.064946655  
   8129000   0.054206397   -0.81369389     0.042752692   -0.68968406     0.036831654  
   8130000   0.054823013   -0.8155401      0.041770029   -0.69158861     0.045045178  
   8131000   0.056840906   -0.81559065     0.043412867   -0.68697143     0.032081267  
   8132000   0.05765712    -0.81417098     0.042353447   -0.68538765     0.032532062  
   8133000   0.056249769   -0.81642726     0.043300106   -0.68880694     0.055348352  
   8134000   0.054399421   -0.81253237     0.039106931   -0.69187895     0.053378503  
   8135000   0.053789499   -0.81340151     0.041051826   -0.69171749     0.050273934  
   8136000   0.054316552   -0.81260758     0.040457005   -0.69072831     0.044556299  
   8137000   0.053762608   -0.81262345     0.043657032   -0.68837453     0.05014796   
   8138000   0.057054594   -0.81393431     0.04289563    -0.68551201     0.072540347  
   8139000   0.054320722   -0.81316341     0.044994524   -0.68674037     0.047511322  
   8140000   0.054729262   -0.81392524     0.043426598   -0.68845772     0.051834774  
   8141000   0.055895816   -0.81208944     0.043798076   -0.68450174     0.037873203  
   8142000   0.054122504   -0.81523969     0.041915068   -0.69219324     0.020052358  
   8143000   0.051037859   -0.81574365     0.043104835   -0.69613142     0.014380304  
   8144000   0.054279869   -0.81414548     0.041864966   -0.69091324     0.016978559  
   8145000   0.052883828   -0.8138678      0.043994668   -0.69059857     0.023943515  
   8146000   0.05309467    -0.81619091     0.04235713    -0.69424316     0.044310855  
   8147000   0.053744672   -0.81496806     0.04217975    -0.69222332     0.034309945  
   8148000   0.053096296   -0.81502561     0.043307632   -0.69212492     0.060992793  
   8149000   0.052102192   -0.8123876      0.041933158   -0.69235158     0.047584475  
   8150000   0.054445263   -0.81361177     0.04321225    -0.68878432     0.033890744  
   8151000   0.054754061   -0.8145389      0.042371809   -0.69008899     0.046108283  
   8152000   0.055669304   -0.8116925      0.043718273   -0.68452415     0.040287678  
   8153000   0.05329165    -0.81173017     0.042803158   -0.68904111     0.067154467  
   8154000   0.051945598   -0.81510407     0.044715686   -0.69252026     0.049179781  
   8155000   0.054877098   -0.81343189     0.042961107   -0.68820824     0.075511016  
   8156000   0.053452531   -0.81355804     0.043374235   -0.69005674     0.067808483  
   8157000   0.054333905   -0.81615335     0.043402821   -0.69130225     0.038244024  
   8158000   0.054082234   -0.8141625      0.043840171   -0.68925132     0.080090526  
   8159000   0.05578855    -0.81487508     0.042972606   -0.68827364     0.045364976  
   8160000   0.055562843   -0.81497648     0.041745843   -0.68994015     0.051132132  
   8161000   0.056436317   -0.81213634     0.044039032   -0.68349745     0.028798474  
   8162000   0.054892142   -0.81426341     0.045649108   -0.68632921     0.026066372  
   8163000   0.05457208    -0.81308414     0.044968053   -0.68631078     0.054534071  
   8164000   0.055517512   -0.81407569     0.044442768   -0.68641038     0.046341363  
   8165000   0.055635782   -0.81444918     0.042470771   -0.68857857     0.078371717  
   8166000   0.055608679   -0.81443376     0.044625647   -0.68644891     0.043198738  
   8167000   0.052958316   -0.81325107     0.04377808    -0.69008677     0.042868565  
   8168000   0.053436473   -0.81544983     0.043831661   -0.69151517     0.040402884  
   8169000   0.056597493   -0.81441342     0.04306449    -0.68650746     0.026677991  
   8170000   0.053953004   -0.81466239     0.043911866   -0.68987324     0.018709631  
   8171000   0.05438245    -0.81427031     0.044163113   -0.68858615     0.025016696  
   8172000   0.053937763   -0.81465358     0.042273765   -0.69152537     0.020252871  
   8173000   0.056157764   -0.81543517     0.041248336   -0.69000453     0.033631117  
   8174000   0.054917796   -0.81529327     0.043218567   -0.68975115     0.026066238  
   8175000   0.053916174   -0.81428815     0.041679887   -0.69178618     0.030083897  
   8176000   0.055436827   -0.81566566     0.043890479   -0.68867359     0.04337031   
   8177000   0.053353184   -0.81309391     0.041757825   -0.69135794     0.031774004  
   8178000   0.055217097   -0.81415898     0.042139945   -0.68924683     0.038767084  
   8179000   0.053310318   -0.81593052     0.042190761   -0.69382587     0.023077239  
   8180000   0.054412579   -0.81537727     0.043577566   -0.69023349     0.043283615  
   8181000   0.053174361   -0.81550975     0.041270535   -0.69452914     0.037217766  
   8182000   0.055017222   -0.81466906     0.042950143   -0.68924632     0.048366974  
   8183000   0.054444725   -0.8139635      0.045527085   -0.68682202     0.040914726  
   8184000   0.053426785   -0.81428528     0.042986522   -0.69121028     0.018172142  
   8185000   0.054544409   -0.81534647     0.043507353   -0.69007528     0.041588413  
   8186000   0.055677232   -0.81540661     0.040622868   -0.69132178     0.03867365   
   8187000   0.054393808   -0.81427924     0.042488476   -0.69025269     0.035589609  
   8188000   0.054207209   -0.81404601     0.041182871   -0.69160479     0.047124512  
   8189000   0.053973379   -0.81296626     0.042957828   -0.68910059     0.023288726  
   8190000   0.054332199   -0.81468267     0.040962063   -0.69227489     0.045530915  
   8191000   0.055293476   -0.8132678      0.043982663   -0.68639843     0.022265695  
   8192000   0.054614362   -0.81276799     0.043519494   -0.6873798      0.047286426  
   8193000   0.054034797   -0.81450254     0.044430986   -0.68907165     0.019260954  
   8194000   0.054135702   -0.81469166     0.041381246   -0.69215925     0.064973614  
   8195000   0.053913203   -0.8137056      0.041804088   -0.69108388     0.051664088  
   8196000   0.05272257    -0.8140583      0.042564876   -0.69246059     0.028064021  
   8197000   0.054364597   -0.81453954     0.042520825   -0.69052443     0.030952563  
   8198000   0.053301481   -0.8151623      0.043421929   -0.69183973     0.015250155  
   8199000   0.053060107   -0.81525667     0.04416027    -0.69155759     0.042782418  
   8200000   0.055284641   -0.81580995     0.042493427   -0.69044306     0.0024505245 
   8201000   0.054792344   -0.81340366     0.045080858   -0.68618731     0.039966593  
   8202000   0.055064542   -0.81620062     0.046632479   -0.68702461     0.040108575  
   8203000   0.055145315   -0.81433449     0.040983587   -0.6906863      0.026903003  
   8204000   0.052741644   -0.81428469     0.043061766   -0.6921615      0.024082005  
   8205000   0.053891605   -0.81458603     0.042774853   -0.69102592     0.02570366   
   8206000   0.054234872   -0.81586307     0.043224501   -0.69133875     0.067054933  
   8207000   0.056167658   -0.81692352     0.042081894   -0.6906445      0.044362802  
   8208000   0.054464331   -0.81454141     0.043255251   -0.68964237     0.04926228   
   8209000   0.055260006   -0.81290054     0.042079633   -0.68798438     0.06045207   
   8210000   0.054926491   -0.8147266      0.042258353   -0.69013166     0.035277229  
   8211000   0.053185973   -0.81356421     0.042805354   -0.69103137     0.024825853  
   8212000   0.053951309   -0.81610359     0.042476336   -0.6927525      0.040993604  
   8213000   0.054856305   -0.81350317     0.042414927   -0.68885687     0.025698278  
   8214000   0.053757093   -0.81542296     0.044444142   -0.6903952      0.018421419  
   8215000   0.053463634   -0.81542545     0.044135734   -0.691146       0.0030726067 
   8216000   0.053315107   -0.81502573     0.041847311   -0.69325735     0.085322913  
   8217000   0.053384248   -0.81418987     0.041066223   -0.69309893     0.052027993  
   8218000   0.053483218   -0.81515634     0.041920859   -0.69306241     0.022652282  
   8219000   0.054564891   -0.8164939      0.043259965   -0.6914394      0.04473534   
   8220000   0.055595277   -0.81577856     0.04276531    -0.68967414     0.026494268  
   8221000   0.054439893   -0.81411352     0.042645606   -0.68986076     0.04251906   
   8222000   0.054066137   -0.81435321     0.043650007   -0.68965632     0.01183231   
   8223000   0.053431276   -0.81483195     0.043902334   -0.69083441     0.041184727  
   8224000   0.05332264    -0.81495854     0.043834692   -0.69119149     0.055443987  
   8225000   0.054410196   -0.81628535     0.040991461   -0.69373125     0.025240963  
   8226000   0.052884784   -0.81508257     0.04152669    -0.69427989     0.049511156  
   8227000   0.055442695   -0.81560463     0.040819896   -0.69167435     0.055983076  
   8228000   0.052833641   -0.81479269     0.041831856   -0.6937615      0.040746141  
   8229000   0.054307933   -0.81466924     0.041904154   -0.69135574     0.023423797  
   8230000   0.053779752   -0.81498078     0.043879148   -0.69048405     0.037629257  
   8231000   0.054693757   -0.8149484      0.043512541   -0.68944815     0.023498819  
   8232000   0.056661067   -0.81499724     0.041736636   -0.68832384     0.0793908    
   8233000   0.053711776   -0.81480452     0.042825486   -0.69146335     0.032606551  
   8234000   0.055023671   -0.81483454     0.044881077   -0.68747121     0.025265476  
   8235000   0.054916152   -0.81504525     0.042943724   -0.68978044     0.066763359  
   8236000   0.053622905   -0.81498082     0.041947019   -0.69265134     0.033861739  
   8237000   0.053952528   -0.81364263     0.042466375   -0.69029968     0.059326582  
   8238000   0.054469743   -0.81310489     0.041317394   -0.69013559     0.033437529  
   8239000   0.055082779   -0.8162577      0.043023039   -0.6906638      0.0050132572 
   8240000   0.05473588    -0.81401971     0.044041173   -0.68792768     0.049987289  
   8241000   0.054768313   -0.81441757     0.04408018    -0.68823792     0.052031213  
   8242000   0.054068025   -0.81511655     0.04338716    -0.69067968     0.022396277  
   8243000   0.054337822   -0.81602853     0.04303898    -0.6915354      0.0060692164 
   8244000   0.053773186   -0.81539889     0.041737206   -0.69305394     0.032521364  
   8245000   0.053020768   -0.81670644     0.042669575   -0.69455702     0.030881969  
   8246000   0.051611716   -0.81566375     0.043313127   -0.69498299     0.039983496  
   8247000   0.051819742   -0.81436915     0.043276059   -0.69341363     0.037845063  
   8248000   0.051473835   -0.81454501     0.040770772   -0.6966133      0.065322421  
   8249000   0.05387707    -0.81302453     0.040681528   -0.69157954     0.067481334  
   8250000   0.054168416   -0.81571999     0.041700593   -0.6928192      0.039644751  
   8251000   0.052258745   -0.8137581      0.042204387   -0.69321616     0.021929724  
   8252000   0.052553733   -0.81483162     0.039247647   -0.69680423     0.045128675  
   8253000   0.053392034   -0.81520218     0.042111371   -0.69305443     0.050363164  
   8254000   0.055140097   -0.81448043     0.042765687   -0.68905796     0.033127392  
   8255000   0.056222445   -0.81669565     0.042406873   -0.69000951     0.041972554  
   8256000   0.05468678    -0.8144855      0.041594098   -0.69091415     0.039570091  
   8257000   0.053752209   -0.81624512     0.042933183   -0.69273564     0.045043389  
   8258000   0.05529287    -0.81594517     0.042803359   -0.69025601     0.042848612  
   8259000   0.052834596   -0.81364444     0.043095328   -0.69134835     0.055797756  
   8260000   0.053882694   -0.81515021     0.042603287   -0.69177503     0.034289798  
   8261000   0.054869706   -0.8133192      0.042366592   -0.68870115     0.034228976  
   8262000   0.052902077   -0.81533586     0.042743065   -0.69329088     0.052263758  
   8263000   0.054758444   -0.81143703     0.043609177   -0.68574318     0.087085378  
   8264000   0.056254806   -0.81409441     0.043241525   -0.68652512     0.05731841   
   8265000   0.055420389   -0.81363293     0.04143324    -0.68912274     0.033461948  
   8266000   0.05393108    -0.8118683      0.043046037   -0.68797783     0.0078909318 
   8267000   0.053580248   -0.81549227     0.042012088   -0.69316166     0.039302877  
   8268000   0.054030371   -0.81526039     0.043979213   -0.69028791     0.021871767  
   8269000   0.053963786   -0.81270798     0.043156894   -0.68865763     0.031114946  
   8270000   0.053190577   -0.81349314     0.044556669   -0.68920208     0.043843333  
   8271000   0.054894161   -0.81466641     0.042880163   -0.68949813     0.039140196  
   8272000   0.054354665   -0.81623629     0.045199322   -0.68955757     0.055121731  
   8273000   0.052246261   -0.81378879     0.041420676   -0.69404929     0.06184699   
   8274000   0.054645937   -0.81361273     0.041134628   -0.69056208     0.037509204  
   8275000   0.052204247   -0.81662138     0.042243141   -0.69612238     0.041560736  
   8276000   0.053682972   -0.81463766     0.041897471   -0.69226768     0.024626679  
   8277000   0.052535249   -0.81636372     0.042252904   -0.69535878     0.018586714  
   8278000   0.052510032   -0.81448984     0.042977629   -0.69279798     0.0091119036 
   8279000   0.054480681   -0.81722155     0.043884196   -0.69166906     0.038540524  
   8280000   0.056022595   -0.8164387      0.042021984   -0.69043703     0.041916861  
   8281000   0.055136976   -0.81464098     0.043541629   -0.68844725     0.051790285  
   8282000   0.053634296   -0.81470035     0.04232016    -0.69198065     0.02997675   
   8283000   0.053941284   -0.81517671     0.04210838    -0.6922086      0.075041397  
   8284000   0.054214657   -0.81296069     0.045017228   -0.68667394     0.056633075  
   8285000   0.053151661   -0.81618352     0.043942421   -0.69256504     0.069642236  
   8286000   0.053088147   -0.81425036     0.042235609   -0.6924339      0.03523453   
   8287000   0.056143669   -0.81504394     0.042645986   -0.68823678     0.032109001  
   8288000   0.056124091   -0.81657577     0.043546675   -0.68889727     0.035087886  
   8289000   0.054819452   -0.81432687     0.043317825   -0.68883291     0.033519484  
   8290000   0.05572051    -0.81610308     0.041105284   -0.69147095     0.040637032  
   8291000   0.052886102   -0.81453821     0.040649997   -0.69461024     0.062280644  
   8292000   0.05244198    -0.81497617     0.042028162   -0.69433579     0.049184337  
   8293000   0.052285812   -0.81798088     0.042164288   -0.69743847     0.036303027  
   8294000   0.053822973   -0.81528148     0.042424351   -0.69217475     0.063100364  
   8295000   0.054995014   -0.81552191     0.043060712   -0.6900219      0.038833947  
   8296000   0.057404017   -0.81545522     0.042182703   -0.68722204     0.012720848  
   8297000   0.056424229   -0.81488803     0.044642551   -0.68566374     0.062661296  
   8298000   0.054456663   -0.81559581     0.041895934   -0.69206758     0.015809578  
   8299000   0.054446497   -0.81367425     0.042813665   -0.68924353     0.023753784  
   8300000   0.053498622   -0.81569726     0.043914203   -0.69158689     0.028889794  
   8301000   0.057327949   -0.81600985     0.044140039   -0.68593337     0.038431403  
   8302000   0.054690288   -0.81285921     0.043146937   -0.68772977     0.017816108  
   8303000   0.05352642    -0.81413594     0.043487358   -0.69041076     0.03739733   
   8304000   0.053873096   -0.81601578     0.045974039   -0.68928423     0.041582578  
   8305000   0.053942817   -0.81232249     0.04267572    -0.68878474     0.028488585  
   8306000   0.053202593   -0.81515621     0.046673845   -0.68872996     0.014214543  
   8307000   0.054551876   -0.81457718     0.0441677     -0.68863446     0.041961586  
   8308000   0.054095818   -0.81512171     0.044545283   -0.68948505     0.018964282  
   8309000   0.055913531   -0.81355726     0.040316187   -0.68942489     0.04859721   
   8310000   0.054519928   -0.81228634     0.043930563   -0.68662864     0.051329646  
   8311000   0.053186636   -0.81344342     0.045162295   -0.68855264     0.033089669  
   8312000   0.055437107   -0.81412292     0.044290842   -0.68673007     0.044884843  
   8313000   0.055674889   -0.81538257     0.046552193   -0.68537192     0.038854074  
   8314000   0.054383329   -0.81226248     0.042561299   -0.68817882     0.050221095  
   8315000   0.054956741   -0.81430665     0.043087702   -0.68883702     0.031365116  
   8316000   0.05384349    -0.81522609     0.042362552   -0.69215041     0.02931104   
   8317000   0.053295646   -0.81320172     0.042246677   -0.69106315     0.014132946  
   8318000   0.053821748   -0.81616099     0.042072176   -0.69340828     0.036188714  
   8319000   0.053382531   -0.81373024     0.040647908   -0.6930602      0.031991192  
   8320000   0.052658548   -0.81360607     0.044180496   -0.69048871     0.019663931  
   8321000   0.053565259   -0.81307119     0.041581123   -0.69119402     0.052895272  
   8322000   0.054671215   -0.81450029     0.041065449   -0.69148092     0.030249763  
   8323000   0.055519542   -0.81355653     0.040037803   -0.69029314     0.050133401  
   8324000   0.054338927   -0.81465787     0.043549237   -0.68965283     0.023065252  
   8325000   0.053863222   -0.81491965     0.043239402   -0.69093754     0.017715142  
   8326000   0.053407352   -0.81262353     0.041397427   -0.69116676     0.041911279  
   8327000   0.052896994   -0.81445666     0.043758982   -0.69140337     0.045096294  
   8328000   0.055392138   -0.81407635     0.042594205   -0.68844754     0.017983744  
   8329000   0.054495237   -0.81448456     0.042988479   -0.68980596     0.020756482  
   8330000   0.05287347    -0.81484813     0.042616357   -0.69297274     0.024756558  
   8331000   0.05470817    -0.81546834     0.043127871   -0.69033116     0.01963208   
   8332000   0.055074234   -0.81386481     0.043840519   -0.68746624     0.022340627  
   8333000   0.052718447   -0.81397731     0.040475722   -0.69447494     0.0059674927 
   8334000   0.05293738    -0.81479982     0.042930029   -0.69251496     0.019188654  
   8335000   0.053685287   -0.81544498     0.043334957   -0.69163405     0.027400677  
   8336000   0.055165849   -0.81609594     0.043225081   -0.69017547     0.012302898  
   8337000   0.05650686    -0.81718582     0.040906344   -0.69157387     0.045272069  
   8338000   0.052488396   -0.81567566     0.043847111   -0.69314675     0.047654664  
   8339000   0.053890408   -0.81552408     0.042452028   -0.69228859     0.04480839   
   8340000   0.054606749   -0.81523026     0.04150917    -0.69186381     0.025696928  
   8341000   0.053871721   -0.81540979     0.044932968   -0.68972137     0.024290586  
   8342000   0.055156863   -0.81437528     0.043485211   -0.68820815     0.028868892  
   8343000   0.056599418   -0.81317863     0.045547833   -0.68278644     0.021169792  
   8344000   0.052463733   -0.81660046     0.042906767   -0.69504886     0.02451372   
   8345000   0.053021437   -0.81562181     0.041856878   -0.69428409     0.026359273  
   8346000   0.051966356   -0.81682703     0.041750789   -0.69717699     0.012394009  
   8347000   0.054604243   -0.81674756     0.044379071   -0.69051497     0.0048919878 
   8348000   0.054137447   -0.81605055     0.043106476   -0.6917903      0.0021829972 
   8349000   0.054313987   -0.81592917     0.044452672   -0.69005808     0.021506035  
   8350000   0.054459515   -0.81661767     0.044537174   -0.69044393     0.025146566  
   8351000   0.055644581   -0.81605319     0.041633613   -0.69100656     0.029835218  
   8352000   0.054667666   -0.81362656     0.045264073   -0.68641389     0.011868011  
   8353000   0.055049992   -0.81483994     0.042509853   -0.68980837     0.040351226  
   8354000   0.053865983   -0.81546143     0.04397229    -0.69074229     0.025122692  
   8355000   0.054275408   -0.81366715     0.042651027   -0.68965553     0.024387393  
   8356000   0.052690207   -0.81406229     0.042084931   -0.69299304     0.028988367  
   8357000   0.053850978   -0.81394259     0.041693194   -0.69152504     0.02939833   
   8358000   0.055681626   -0.81422392     0.04340931    -0.68734605     0.021059909  
   8359000   0.056245713   -0.8152764      0.042929094   -0.68803317     0.019778907  
   8360000   0.051902605   -0.81654524     0.042826571   -0.69591499     0.036750551  
   8361000   0.055686752   -0.81436366     0.043223173   -0.68766425    -0.001067952  
   8362000   0.055014063   -0.81421692     0.04481145    -0.68693762     0.0073851721 
   8363000   0.054603738   -0.81527342     0.041789391   -0.69163126     0.010994618  
   8364000   0.052150526   -0.81137946     0.043770307   -0.68943383     0.007577201  
   8365000   0.056292094   -0.81472771     0.044293408   -0.68605064     0.019320199  
   8366000   0.053873366   -0.81698723     0.043419216   -0.6928101      0.0081836458 
   8367000   0.054930962   -0.8139133      0.041851968   -0.68971805     0.003819055  
   8368000   0.054517682   -0.814258       0.04406192    -0.68847231     0.04804888   
   8369000   0.055982981   -0.81586494     0.043655475   -0.68828917     0.024268085  
   8370000   0.053744622   -0.81314908     0.042610291   -0.68997386     0.040110497  
   8371000   0.053688462   -0.81225544     0.040911843   -0.69086286     0.027932926  
   8372000   0.055338808   -0.81607775     0.042087803   -0.69103529     0.03263292   
   8373000   0.054121038   -0.81205908     0.043050465   -0.68787944     0.012875975  
   8374000   0.054848694   -0.81520702     0.04511252    -0.68787454     0.033122823  
   8375000   0.055573957   -0.81511729     0.041373492   -0.69043664     0.030487067  
   8376000   0.055901622   -0.81427123     0.042860513   -0.68761239     0.070208805  
   8377000   0.053925467   -0.8151472      0.043931548   -0.69037964     0.0092472072 
   8378000   0.05446885    -0.81450246     0.041611264   -0.69124063     0.021587464  
   8379000   0.051873488   -0.81574172     0.042697214   -0.69528448     0.020169312  
   8380000   0.054754932   -0.81306087     0.043811582   -0.68716988     0.014305647  
   8381000   0.05578881    -0.81421996     0.043296903   -0.68729383     0.022373393  
   8382000   0.055226649   -0.81346686     0.042335681   -0.68834465     0.03943231   
   8383000   0.055398944   -0.81647479     0.041611437   -0.69181855     0.025495229  
   8384000   0.053324663   -0.81578967     0.042145416   -0.69370886     0.027690332  
   8385000   0.054528665   -0.81337719     0.042066342   -0.68957062     0.022165001  
   8386000   0.055257581   -0.81634796     0.042864353   -0.69065071     0.003571194  
   8387000   0.054209986   -0.81501793     0.04345641    -0.690299       0.016147951  
   8388000   0.053540114   -0.81630815     0.041945039   -0.69410476     0.021919935  
   8389000   0.053555451   -0.81374543     0.043893625   -0.68957046     0.0098111154 
   8390000   0.054561319   -0.81445283     0.043236857   -0.6894268      0.0029216724 
   8391000   0.053870359   -0.81634601     0.040889702   -0.6947029      0.0082666508 
   8392000   0.054635591   -0.81688637     0.043174939   -0.69181091     0.015560766  
   8393000   0.055118714   -0.81365849     0.042569227   -0.68846453    -0.002651516  
   8394000   0.054400769   -0.81553275     0.043414749   -0.69056949    -0.003410717  
   8395000   0.052296783   -0.81417601     0.042397053   -0.69338439     0.012451532  
   8396000   0.053592286   -0.81458189     0.042640614   -0.69160471     0.015689655  
   8397000   0.056906886   -0.81528449     0.043938593   -0.68604064     0.023624124  
   8398000   0.055183508   -0.81545836     0.042383502   -0.690353       0.027570688  
   8399000   0.056326866   -0.81429621     0.04143348    -0.68842694     0.024084495  
   8400000   0.054280032   -0.81490463     0.042139473   -0.69139764     0.022461627  
   8401000   0.054759546   -0.81558111     0.041769097   -0.69172569     0.022014385  
   8402000   0.053251604   -0.81279578     0.042676502   -0.69029341     0.025094067  
   8403000   0.054587046   -0.81467534     0.041368553   -0.69147904     0.020043045  
   8404000   0.05597135    -0.815457       0.040508601   -0.69104554     0.033682431  
   8405000   0.053079503   -0.81493564     0.04235262    -0.69301513     0.018800771  
   8406000   0.054308592   -0.81629439     0.042641873   -0.69224218     0.0077177129 
   8407000   0.055245235   -0.81460192     0.04274694    -0.68904059     0.021409691  
   8408000   0.055785654   -0.81503304     0.042456866   -0.68895168     0.030105828  
   8409000   0.053349919   -0.81414828     0.043099277   -0.69107576     0.015143562  
   8410000   0.053475658   -0.81381101     0.042981359   -0.69066792     0.020595531  
   8411000   0.054807993   -0.81381267     0.043695022   -0.6879587      0.014529981  
   8412000   0.054782116   -0.81564665     0.044274449   -0.68925204     0.0071387478 
   8413000   0.055254651   -0.81604415     0.042387341   -0.6908283      0.02140829   
   8414000   0.053747259   -0.81644001     0.044444912   -0.69142622     0.012314129  
   8415000   0.055745665   -0.81556709     0.042647421   -0.68935512     0.013221212  
   8416000   0.053476082   -0.81440265     0.04284657    -0.6913937      0.0010730188 
   8417000   0.054633451   -0.81420916     0.041624672   -0.69068718     0.0016610385 
   8418000   0.053327284   -0.81339033     0.046084345   -0.68736666     0.015153487  
   8419000   0.054406865   -0.81377383     0.044567462   -0.68764872     0.012091276  
   8420000   0.054433477   -0.81698491     0.042758563   -0.69262881     0.013532529  
   8421000   0.053303479   -0.81522228     0.042219975   -0.69309867    -0.0012446387 
   8422000   0.054953882   -0.81313332     0.041648189   -0.68910749     0.040078799  
   8423000   0.055382562   -0.81396831     0.043192732   -0.68775533     0.023306324  
   8424000   0.052612369   -0.81427763     0.043158535   -0.69225145     0.0038097537 
   8425000   0.052702955   -0.81544003     0.042452254   -0.69398435     0.032493278  
   8426000   0.052711561   -0.81451744     0.042319179   -0.69318193     0.015910035  
   8427000   0.054127834   -0.81553642     0.041965508   -0.69243155     0.032148919  
   8428000   0.054735885   -0.81349753     0.04400556    -0.68744111     0.023753681  
   8429000   0.055097004   -0.81459387     0.041897264   -0.69010442     0.0086276282 
   8430000   0.05718795    -0.81584364     0.042654779   -0.68746228     0.00087975004
   8431000   0.055474229   -0.81352396     0.042617866   -0.68774843     0.020889908  
   8432000   0.05295565    -0.81407888     0.042378803   -0.69231785     0.039968936  
   8433000   0.052532302   -0.81651613     0.043273761   -0.69449475     0.031658015  
   8434000   0.052916177   -0.81579275     0.041507485   -0.69496221     0.015227226  
   8435000   0.054190741   -0.81673336     0.043367509   -0.69213218     0.016861904  
   8436000   0.053822794   -0.81646127     0.04188325    -0.69389591     0.012724885  
   8437000   0.054730084   -0.813921       0.041701883   -0.69017696     0.015300682  
   8438000   0.05519613    -0.81374734     0.043661842   -0.68734472     0.013074429  
   8439000   0.053090579   -0.81368264     0.0444374     -0.68966075     0.036123365  
   8440000   0.053812778   -0.81530139     0.041703515   -0.69293079     0.019944372  
   8441000   0.053210447   -0.81611445     0.041957415   -0.69439286     0.012054828  
   8442000   0.051847171   -0.81477618     0.040465237   -0.69659037     0.0080683853 
   8443000   0.052268317   -0.8165658      0.042644509   -0.6955694      0.0060569305 
   8444000   0.053137488   -0.8169353      0.040927062   -0.69635343     0.015789897  
   8445000   0.053385369   -0.81648535     0.042576675   -0.69388229     0.0028122201 
   8446000   0.053804894   -0.81541594     0.041192243   -0.69356842     0.023737606  
   8447000   0.054514858   -0.81525694     0.041812773   -0.69172464     0.0037757798 
   8448000   0.054682623   -0.81403736     0.042026148   -0.6900402      0.025257082  
   8449000   0.052989929   -0.81388399     0.04107015    -0.69338023     0.016214844  
   8450000   0.053599341   -0.81420954     0.04394157    -0.68992083     0.029835821  
   8451000   0.054098775   -0.81269189     0.044597386   -0.68699869     0.028329446  
   8452000   0.054952904   -0.81429827     0.04206877    -0.68985332     0.02167381   
   8453000   0.05446899    -0.81417479     0.043520759   -0.68900326     0.045427869  
   8454000   0.054502918   -0.81599737     0.042474674   -0.69182106     0.016448457  
   8455000   0.051778551   -0.81433836     0.044035828   -0.69268481     0.01379303   
   8456000   0.053595174   -0.81370438     0.042352349   -0.69101113     0.01871212   
   8457000   0.055475342   -0.81408074     0.043090578   -0.68783083     0.016157992  
   8458000   0.055273793   -0.81446198     0.040604642   -0.69100014     0.023621556  
   8459000   0.055249887   -0.81398639     0.041458307   -0.68970672    -0.0047218906 
   8460000   0.056654283   -0.81393257     0.043402797   -0.68560318     0.0055453061 
   8461000   0.055711077   -0.81415689     0.042540088   -0.6881041      0.017473547  
   8462000   0.052749961   -0.81279154     0.04275779    -0.69095986    -0.00094202366
   8463000   0.054121643   -0.81468396     0.042911758   -0.69064211    -0.010071535  
   8464000   0.054926974   -0.81565523     0.043927945   -0.68938998     0.015727798  
   8465000   0.052084074   -0.81529944     0.042928461   -0.69429527     0.019491957  
   8466000   0.05307897    -0.81482063     0.042917492   -0.69233605     0.013047767  
   8467000   0.054348806   -0.81516029     0.044003774   -0.68968591     0.027800796  
   8468000   0.053401369   -0.81573301     0.042080489   -0.69360215     0.023263768  
   8469000   0.053231764   -0.81647323     0.042048972   -0.69462812    -0.0028130363 
   8470000   0.055986378   -0.81532638     0.042493541   -0.68890745     0.0046455087 
   8471000   0.055588448   -0.81575775     0.044074096   -0.68835478    -0.0020367074 
   8472000   0.055957905   -0.81391268     0.044536256   -0.68549372     0.026844574  
   8473000   0.056335381   -0.81706584     0.042578712   -0.69003858    -0.001760911  
   8474000   0.053426698   -0.81631288     0.042471459   -0.69375308    -0.012032018  
   8475000   0.054397391   -0.81460661     0.042077983   -0.69098518     0.014188594  
   8476000   0.054423342   -0.81392118     0.041214688   -0.69112415     0.0072733571 
   8477000   0.052794451   -0.81312638     0.043056097   -0.6909297     -0.0076855428 
   8478000   0.053984008   -0.81563364     0.044049245   -0.69066063     0.025685886  
   8479000   0.053796522   -0.81389452     0.043146545   -0.69010525     0.009074631  
   8480000   0.053966456   -0.81683686     0.043435464   -0.69250394    -0.0011229664 
   8481000   0.054062831   -0.81330746     0.042545673   -0.68971986     0.026827721  
   8482000   0.055015257   -0.81440788     0.042377534   -0.6895607      0.0062718078 
   8483000   0.053005025   -0.81547585     0.044200716   -0.69181889     0.020627746  
   8484000   0.053193163   -0.81339959     0.043781813   -0.68987951     0.011473254  
   8485000   0.055005237   -0.81536449     0.04373673    -0.68917313     0.023825368  
   8486000   0.053894539   -0.81413035     0.045217802   -0.6881229      0.023343801  
   8487000   0.054436764   -0.8145418      0.042981543   -0.68995779     0.0018876241 
   8488000   0.051908433   -0.81427094     0.041189599   -0.69526892     0.0063199148 
   8489000   0.054432102   -0.81696621     0.044800792   -0.69056994    -0.0028951276 
   8490000   0.057007175   -0.81388225     0.044462213   -0.68396444     0.01812429   
   8491000   0.053371413   -0.81628835     0.046040213   -0.69024266    -0.0066364839 
   8492000   0.055252224   -0.81494517     0.043897377   -0.68822292     0.0057595605 
   8493000   0.054060163   -0.8146186      0.042559993   -0.69102068     0.0019223529 
   8494000   0.054486388   -0.81650607     0.042137063   -0.69269216     0.0068328473 
   8495000   0.053735772   -0.81580657     0.041612644   -0.69364227     0.022137553  
   8496000   0.05272137    -0.81567423     0.041741436   -0.69490176     0.0073367718 
   8497000   0.055196177   -0.81554474     0.042303873   -0.69050001     0.012837394  
   8498000   0.055776574   -0.81354618     0.042461101   -0.68747419     0.0042593662 
   8499000   0.053510753   -0.81556971     0.041978468   -0.69337689     0.018983377  
   8500000   0.052807657   -0.8162782      0.043000153   -0.69411767     0.024961515  
Loop time of 2810.9 on 8 procs for 8000000 steps with 1550 atoms

Performance: 245899.697 tau/day, 2846.061 timesteps/s, 4.411 Matom-step/s
93.3% CPU use with 8 MPI tasks x 1 OpenMP threads

MPI task timing breakdown:
Section |  min time  |  avg time  |  max time  |%varavg| %total
---------------------------------------------------------------
Pair    | 433.05     | 512.63     | 613.4      | 290.6 | 18.24
Bond    | 76.354     | 87.69      | 100.64     |  93.8 |  3.12
Neigh   | 3.296      | 3.3006     | 3.3034     |   0.1 |  0.12
Comm    | 433.73     | 544.57     | 634.65     | 315.3 | 19.37
Output  | 18.222     | 18.552     | 18.845     |   4.9 |  0.66
Modify  | 1617.5     | 1619.7     | 1624.9     |   5.2 | 57.62
Other   |            | 24.42      |            |       |  0.87

Nlocal:         193.75 ave         400 max           0 min
Histogram: 1 1 0 1 1 1 1 0 1 1
Nghost:        534.125 ave         589 max         506 min
Histogram: 2 1 2 0 1 1 0 0 0 1
Neighs:              0 ave           0 max           0 min
Histogram: 8 0 0 0 0 0 0 0 0 0
FullNghs:      6913.75 ave       16529 max           0 min
Histogram: 1 1 1 2 0 1 0 1 0 1

Total # of neighbors = 55310
Ave neighs/atom = 35.683871
Ave special neighs/atom = 2.1612903
Neighbor list builds = 5970
Dangerous builds = 0

# Write data for deformation

write_restart ${Dir}/${file6_name}
write_restart /home/franvt/GitRepos/molDynLammps/polymericGels/gel-bonds-1/data/0.050.30.05500-2026-01-20-121005/${file6_name}
write_restart /home/franvt/GitRepos/molDynLammps/polymericGels/gel-bonds-1/data/0.050.30.05500-2026-01-20-121005/data.hydrogel
System init for write_restart ...
WARNING: Using a manybody potential with bonds/angles/dihedrals and special_bond exclusions (src/pair.cpp:250)
Hybrid pair style last /omp style table/omp
Last active /omp style is angle_style harmonic/omp
Total wall time: 0:49:17
