LAMMPS (22 Jul 2025)
OMP_NUM_THREADS environment is not set. Defaulting to 1 thread.
  using 1 OpenMP thread(s) per MPI task
package omp 0
using multi-threaded neighbor list subroutines
# Input Script of lammps for assembly simulation of polimeric network.
# Main code is based on: https://github.com/PipeB62/Hydrogel-Simulation
# Patchy particles are with bond style.

# Felipe Benavides modified by Fco. Vazquez

# Initialization
units lj
dimension 3
boundary p p p

# Styles of atoms and that stuff
atom_style full
bond_style harmonic
angle_style harmonic
pair_style hybrid/overlay zero 0.0 lj/cut/omp 1.12 table/omp linear 5000000 threebody/table

newton on

# Create simulaiton box
region simulation_box block -$L $L -$L $L -$L $L
region simulation_box block -9.796741 $L -$L $L -$L $L
region simulation_box block -9.796741 9.796741 -$L $L -$L $L
region simulation_box block -9.796741 9.796741 -9.796741 $L -$L $L
region simulation_box block -9.796741 9.796741 -9.796741 9.796741 -$L $L
region simulation_box block -9.796741 9.796741 -9.796741 9.796741 -9.796741 $L
region simulation_box block -9.796741 9.796741 -9.796741 9.796741 -9.796741 9.796741
# N-atom-types region-ID keyword value Is necesesary the extra/special/per/atom (# of special neighbors per atom)
create_box 4 simulation_box     bond/types 1     angle/types 2     extra/bond/per/atom 10     extra/angle/per/atom 6     extra/special/per/atom 10
Created orthogonal box = (-9.796741 -9.796741 -9.796741) to (9.796741 9.796741 9.796741)
  2 by 2 by 2 MPI processor grid

# Atom types
mass 1 1.0      # CL
mass 2 1.0      # MO
mass 3 0.1      # PA
mass 4 0.1      # PB

# Coefficients
include potential.in
# Script with the pair-wise interaction and bonds between particles

bond_coeff 1 100.0 0.45
angle_coeff 1 100.0 180
angle_coeff 2 100.0 109.4712
pair_coeff 1 3 zero 0.5
pair_coeff 1 4 zero 0.5
pair_coeff 2 3 zero 0.5
pair_coeff 2 4 zero 0.5
pair_coeff 3 3 zero 0.5
pair_coeff 1 1 lj/cut/omp 1.0 1.0 1.12
pair_coeff 2 2 lj/cut/omp 1.0 1.0 1.12
pair_coeff 1 2 lj/cut/omp 1.0 1.0 1.12
pair_coeff 3 4 table/omp sysFiles/pachTab.table POT 0.6 # sw/omp sysFiles/patchyPot.sw NULL NULL PA PB
Reading pair table potential file sysFiles/pachTab.table with DATE: 2024-07-08
WARNING: 7 of 1000000 force values in table POT are inconsistent with -dE/dr.
WARNING:  Should only be flagged at inflection points (src/pair_table.cpp:469)
pair_coeff 4 4 table/omp sysFiles/pachTab.table POT 0.6 # sw/omp sysFiles/patchyPot.sw NULL NULL PA PB
Reading pair table potential file sysFiles/pachTab.table with DATE: 2024-07-08
WARNING: 7 of 1000000 force values in table POT are inconsistent with -dE/dr.
WARNING:  Should only be flagged at inflection points (src/pair_table.cpp:469)
pair_coeff * * threebody/table swapMech.3b NULL NULL PA PB
pair_modify pair lj/cut/omp shift yes


# Molecules
include molecules.in
# Script with all molecule information and create groups for computes

# Read the molecule information
molecule CL sysFiles/molecule.patchy.CL
Read molecule template CL:
# Patchy Cross-Linker
  1 molecules
  0 fragments
  0 bodies
  5 atoms with max type 3
  4 bonds with max type 1
  6 angles with max type 2
  0 dihedrals with max type 0
  0 impropers with max type 0
molecule MO sysFiles/molecule.patchy.MO
Read molecule template MO:
# Patchy Monomer
  1 molecules
  0 fragments
  0 bodies
  3 atoms with max type 4
  2 bonds with max type 1
  1 angles with max type 1
  0 dihedrals with max type 0
  0 impropers with max type 0

# Introduce the molecules
# ID style args keyword arg
region spawn_box block -$L $L -$L $L -$L $L
region spawn_box block -9.796741 $L -$L $L -$L $L
region spawn_box block -9.796741 9.796741 -$L $L -$L $L
region spawn_box block -9.796741 9.796741 -9.796741 $L -$L $L
region spawn_box block -9.796741 9.796741 -9.796741 9.796741 -$L $L
region spawn_box block -9.796741 9.796741 -9.796741 9.796741 -9.796741 $L
region spawn_box block -9.796741 9.796741 -9.796741 9.796741 -9.796741 9.796741

# create_atoms type style args keyword values
# style_random: N seed region-ID
# keyword_mol: template-ID seed
# keyword_overlap: overlap value = only insert if at least this distance from all existing atoms
# keyword_maxtry: maxtry value = number of attempts to insert a particle before failure
create_atoms 0 random ${NCL} ${seed1} spawn_box mol CL ${seed1} overlap 1.0 maxtry 5000 #xls
create_atoms 0 random 25 ${seed1} spawn_box mol CL ${seed1} overlap 1.0 maxtry 5000 
create_atoms 0 random 25 3234 spawn_box mol CL ${seed1} overlap 1.0 maxtry 5000 
create_atoms 0 random 25 3234 spawn_box mol CL 3234 overlap 1.0 maxtry 5000 
Created 125 atoms
  using lattice units in orthogonal box = (-9.796741 -9.796741 -9.796741) to (9.796741 9.796741 9.796741)
  create_atoms CPU = 0.009 seconds
create_atoms 0 random ${NMO} ${seed2} spawn_box mol MO ${seed2} overlap 1.0 maxtry 5000 #mon
create_atoms 0 random 475 ${seed2} spawn_box mol MO ${seed2} overlap 1.0 maxtry 5000 
create_atoms 0 random 475 6321 spawn_box mol MO ${seed2} overlap 1.0 maxtry 5000 
create_atoms 0 random 475 6321 spawn_box mol MO 6321 overlap 1.0 maxtry 5000 
Created 1425 atoms
  using lattice units in orthogonal box = (-9.796741 -9.796741 -9.796741) to (9.796741 9.796741 9.796741)
  create_atoms CPU = 0.008 seconds

# Create patchy particles
group CrossLinker type 1 3
125 atoms in group CrossLinker
group Monomer type 2 4
1425 atoms in group Monomer
group Patches type 3 4
1050 atoms in group Patches
group CL type 1
25 atoms in group CL
group MO type 2
475 atoms in group MO
group PA type 3
100 atoms in group PA
group CM type 1 2
500 atoms in group CM

# Neighbor list
neighbor 1.8 bin # extra-distance style
#neigh_modify delay 0 every 1 check no
#neigh_modify exclude molecule/intra CrossLinker
#neigh_modify exclude molecule/intra Monomer

# COMPUTES

# Compute global kinetic and potential energy and temperature
compute t all temp
compute p all pressure t
compute ep all pe
compute ek all ke
variable eT equal etotal
variable eB equal ebond
variable eA equal eangle
variable eM equal emol
variable ec equal ecouple
variable eC equal econserve

# Potencial energy per pair-wise interaction
compute wcaPair all pair lj/cut/omp epair
compute patchPair all pair table/omp epair
compute swapPair all pair threebody/table epair

# Compute the pressure
compute press all pressure t ke virial
compute pressVirial all pressure t virial
compute pressVirialMod all pressure t pair bond angle

# Computes for the stress
compute cstress all stress/atom t ke pair bond angle
compute cstressVirial all stress/atom t virial
compute cstressVirialMod all stress/atom t pair bond angle
compute stress all reduce sum c_cstress[*]
compute stressVirial all reduce sum c_cstressVirial[*]
compute stressVirialMod all reduce sum c_cstressVirialMod[*]

# Displacement of the central particles
compute disp CM displace/atom
compute redDisp CM reduce ave c_disp[*] # All, because yes

# Get the number of central particles per cluster
compute clusters all aggregate/atom 0.6                             # Create the clusters
compute Nclpart CM chunk/atom c_clusters compress yes discard yes   # Get the number of clusters
compute clsize CM property/chunk Nclpart count                      # Counts the atoms in each chunk
compute idcl CM property/chunk Nclpart id                           # Get the ids of the clusters

# DUMPS and FIXES

thermo ${NsaveStress}
thermo 1000

# Save global energies and temperature
fix Energy all ave/time 1 ${Nsave} ${Nsave} c_t c_wcaPair c_patchPair c_swapPair c_ep c_ek v_eT v_ec v_eC c_p v_eB v_eA v_eM c_redDisp[*] file ${Dir}/${file1_name}
fix Energy all ave/time 1 1000 ${Nsave} c_t c_wcaPair c_patchPair c_swapPair c_ep c_ek v_eT v_ec v_eC c_p v_eB v_eA v_eM c_redDisp[*] file ${Dir}/${file1_name}
fix Energy all ave/time 1 1000 1000 c_t c_wcaPair c_patchPair c_swapPair c_ep c_ek v_eT v_ec v_eC c_p v_eB v_eA v_eM c_redDisp[*] file ${Dir}/${file1_name}
fix Energy all ave/time 1 1000 1000 c_t c_wcaPair c_patchPair c_swapPair c_ep c_ek v_eT v_ec v_eC c_p v_eB v_eA v_eM c_redDisp[*] file /home/franvt/GitRepos/molDynLammps/polymericGels/gel-bonds-1/data/0.050.30.05500-2026-01-20-143651/${file1_name}
fix Energy all ave/time 1 1000 1000 c_t c_wcaPair c_patchPair c_swapPair c_ep c_ek v_eT v_ec v_eC c_p v_eB v_eA v_eM c_redDisp[*] file /home/franvt/GitRepos/molDynLammps/polymericGels/gel-bonds-1/data/0.050.30.05500-2026-01-20-143651/system_assembly.fixf

# Save Pressure and Stress tensor
fix fixStress5 all ave/time 1 ${NsaveStress} ${NsaveStress} c_p c_press[*] c_pressVirial[*] c_pressVirialMod[*] c_stress[*] c_stressVirial[*] c_stressVirialMod[*] file ${Dir}/${file2_name}
fix fixStress5 all ave/time 1 1000 ${NsaveStress} c_p c_press[*] c_pressVirial[*] c_pressVirialMod[*] c_stress[*] c_stressVirial[*] c_stressVirialMod[*] file ${Dir}/${file2_name}
fix fixStress5 all ave/time 1 1000 1000 c_p c_press[*] c_pressVirial[*] c_pressVirialMod[*] c_stress[*] c_stressVirial[*] c_stressVirialMod[*] file ${Dir}/${file2_name}
fix fixStress5 all ave/time 1 1000 1000 c_p c_press[*] c_pressVirial[*] c_pressVirialMod[*] c_stress[*] c_stressVirial[*] c_stressVirialMod[*] file /home/franvt/GitRepos/molDynLammps/polymericGels/gel-bonds-1/data/0.050.30.05500-2026-01-20-143651/${file2_name}
fix fixStress5 all ave/time 1 1000 1000 c_p c_press[*] c_pressVirial[*] c_pressVirialMod[*] c_stress[*] c_stressVirial[*] c_stressVirialMod[*] file /home/franvt/GitRepos/molDynLammps/polymericGels/gel-bonds-1/data/0.050.30.05500-2026-01-20-143651/stress_assembly.fixf

# Save the global cluster information
fix 1 CM ave/time 1 1 ${Ndump} c_idcl c_clsize file ${Dir}/${file3_name} mode vector
fix 1 CM ave/time 1 1 1000 c_idcl c_clsize file ${Dir}/${file3_name} mode vector
fix 1 CM ave/time 1 1 1000 c_idcl c_clsize file /home/franvt/GitRepos/molDynLammps/polymericGels/gel-bonds-1/data/0.050.30.05500-2026-01-20-143651/${file3_name} mode vector
fix 1 CM ave/time 1 1 1000 c_idcl c_clsize file /home/franvt/GitRepos/molDynLammps/polymericGels/gel-bonds-1/data/0.050.30.05500-2026-01-20-143651/clust_assembly.fixf mode vector

# Save atom positions with cluster id
dump dumpID all custom ${Ndump} ${Dir}/traj/${file5_name} id mol c_clusters type x y z vx vy vz
dump dumpID all custom 1000 ${Dir}/traj/${file5_name} id mol c_clusters type x y z vx vy vz
dump dumpID all custom 1000 /home/franvt/GitRepos/molDynLammps/polymericGels/gel-bonds-1/data/0.050.30.05500-2026-01-20-143651/traj/${file5_name} id mol c_clusters type x y z vx vy vz
dump dumpID all custom 1000 /home/franvt/GitRepos/molDynLammps/polymericGels/gel-bonds-1/data/0.050.30.05500-2026-01-20-143651/traj/traj_assembly.*.dumpf id mol c_clusters type x y z vx vy vz
dump_modify dumpID pbc yes # remap atoms via periodic boundary conditions

# RUN SIMULATION

# Brownian Dynamics using Langevin Thermostat

timestep ${tstep}
timestep 0.001

fix VelVerlet all nve # Use Velocity Verlet integrator

# First elevate the temperature
fix ThermoLng all langevin 0.0 ${temp} ${damp} ${seed3} # Brownian Dynamics: langevin + nve
fix ThermoLng all langevin 0.0 0.05 ${damp} ${seed3} 
fix ThermoLng all langevin 0.0 0.05 1 ${seed3} 
fix ThermoLng all langevin 0.0 0.05 1 2010 
run ${stepsheat}
run 500000
WARNING: Using a manybody potential with bonds/angles/dihedrals and special_bond exclusions (src/pair.cpp:250)
Hybrid pair style last /omp style table/omp
Last active /omp style is angle_style harmonic/omp
Neighbor list info ...
  update: every = 1 steps, delay = 0 steps, check = yes
  max neighbors/atom: 2000, page size: 100000
  master list distance cutoff = 2.92
  ghost atom cutoff = 2.92
  binsize = 1.46, bins = 14 14 14
  7 neighbor lists, perpetual/occasional/extra = 6 1 0
  (1) pair zero, perpetual, skip from (7)
      attributes: half, newton on, omp
      pair build: skip/omp
      stencil: none
      bin: none
  (2) pair lj/cut/omp, perpetual, skip from (7)
      attributes: half, newton on, omp
      pair build: skip/omp
      stencil: none
      bin: none
  (3) pair table/omp, perpetual, skip from (7)
      attributes: half, newton on, omp
      pair build: skip/omp
      stencil: none
      bin: none
  (4) pair threebody/table, perpetual, skip from (6)
      attributes: full, newton on, omp
      pair build: skip/omp
      stencil: none
      bin: none
  (5) compute aggregate/atom, occasional, copy from (6)
      attributes: full, newton on, omp
      pair build: copy
      stencil: none
      bin: none
  (6) neighbor class addition, perpetual
      attributes: full, newton on, omp
      pair build: full/bin/omp
      stencil: full/bin/3d
      bin: standard
  (7) neighbor class addition, perpetual, half/full from (6)
      attributes: half, newton on, omp
      pair build: halffull/newton/omp
      stencil: none
      bin: none
Per MPI rank memory allocation (min/avg/max) = 19.65 | 19.65 | 19.65 Mbytes
   Step          Temp          E_pair         E_mol          TotEng         Press     
         0   0              0.00041490155  0.15480456     0.15521947    -0.21361809   
      1000   0.017876509    0              0.030955285    0.057752749   -0.0873399    
      2000   0.013939615    0              0.00033202702  0.02122796    -0.0029197643 
      3000   0.0033590418   0              0.0030852648   0.0081205769   0.026995229  
      4000   0.00036701341  0              0.0029466633   0.0034968283   0.025430898  
      5000   0.00064137453  0              0.00098857199  0.0019500131   0.013048493  
      6000   0.00077718336  0              0.00035972533  0.0015247483   0.002450137  
      7000   0.00069096179  0              0.00045140299  0.001487177   -0.002543474  
      8000   0.00074537223  0              0.00051913047  0.0016364675  -0.0033111761 
      9000   0.00081222975  0              0.00056484854  0.0017824071  -0.0021627654 
     10000   0.00091783603  0              0.00062536606  0.0020012319  -0.00054981401
     11000   0.0010404822  -5.1616387e-08  0.00067772054  0.0022373853   8.6787916e-05
     12000   0.0017075752  -0.0031917957   0.0013647913   0.00073270586  1.5088899e-06
     13000   0.0013610207  -0.0031577185   0.00097887038 -0.00013863421  0.00071969075
     14000   0.0013837385  -0.0032101766   0.00095410395 -0.00018180397  0.00035009515
     15000   0.0014498331  -0.0032167593   0.00094509228 -9.8320422e-05  0.00050379217
     16000   0.0023270255  -0.0062812656   0.0016514918  -0.0011414875   0.00042509826
     17000   0.0019621263  -0.0064488992   0.0012938743  -0.0022137343   0.00020344107
     18000   0.0017776316  -0.0064479888   0.0013463368  -0.0024369249   1.9388709e-05
     19000   0.0021486198  -0.0080026565   0.0012919477  -0.0034898584  -0.00026999954
     20000   0.0033224298  -0.014227531    0.0027333614  -0.0065137399  -0.00066881483
     21000   0.0026164039  -0.014351049    0.0017232274  -0.008705748    0.0011990056 
     22000   0.0032211317  -0.016072968    0.001766278   -0.0094781092   0.00076982657
     23000   0.0028791438  -0.017501336    0.0016803426  -0.011505064    0.0005898143 
     24000   0.0025939329  -0.01768488     0.0017199919  -0.012076499    0.0005685485 
     25000   0.0026590794  -0.018981223    0.0020909505  -0.012904226    0.00012910721
     26000   0.0027407821  -0.020575212    0.0023201038  -0.014146588   -0.00083482625
     27000   0.0029243936  -0.022285808    0.0025722619  -0.015329786   -5.0902212e-05
     28000   0.0028759949  -0.022552788    0.0019226872  -0.016318891    0.0002095556 
     29000   0.0031062589  -0.024131152    0.0024169682  -0.017057802   -0.00021292321
     30000   0.0038338101  -0.02758193     0.0031578934  -0.018677031   -0.0015389068 
     31000   0.0034407965  -0.028846876    0.0026171115  -0.021071899    0.00046325488
     32000   0.0041823666  -0.033557147    0.0035684586  -0.023719186   -0.00051053928
     33000   0.0038345295  -0.033824753    0.0025261327  -0.025550536    0.00025222466
     34000   0.0037636956  -0.035338016    0.0027032356  -0.02699288     0.0010476148 
     35000   0.0035737822  -0.035406169    0.0024698829  -0.027579072    0.00020027171
     36000   0.0054304688  -0.044511573    0.0040592351  -0.03231189     0.00027552271
     37000   0.0047832028  -0.047818923    0.0034554703  -0.037193277    0.00040679468
     38000   0.0046062334  -0.049523565    0.0031198442  -0.039498829   -0.0012996406 
     39000   0.0040361925  -0.049879225    0.0030027455  -0.040826097    0.00063223573
     40000   0.0047345799  -0.054506036    0.0036771626  -0.043731585    0.00014774488
     41000   0.0047317295  -0.057638126    0.0036595893  -0.046885521    0.00035095278
     42000   0.0048045281  -0.060911061    0.0037018537  -0.050007065   -0.00061953081
     43000   0.0049028446  -0.062139428    0.0032521543  -0.051537751   -2.7651165e-05
     44000   0.0057895474  -0.067515244    0.003780909   -0.055055616    0.00084588548
     45000   0.0047018924  -0.067525183    0.0033911253  -0.057085769    0.0014381187 
     46000   0.0050994446  -0.069088535    0.0032916939  -0.058152609   -0.00031411964
     47000   0.0055660251  -0.070844672    0.0037078326  -0.058793188    0.0013633416 
     48000   0.0060595579  -0.074020194    0.0040233564  -0.060913364    0.0019702637 
     49000   0.0074302921  -0.082912176    0.0050075799  -0.066766349    0.00024957522
     50000   0.0068878686  -0.087290852    0.0050064448  -0.071959269   -0.00018082634
     51000   0.0060664672  -0.090872845    0.0050490808  -0.076729934   -0.00047430372
     52000   0.0063853669  -0.094017562    0.0042921412  -0.08015355     0.0011170737 
     53000   0.0062403833  -0.097626803    0.0048805506  -0.083391716    0.00052970181
     54000   0.0066194386  -0.100528       0.0043465111  -0.086258736   -0.0015807027 
     55000   0.0070180963  -0.10589075     0.0047719443  -0.090598451    0.0012002955 
     56000   0.0065743397  -0.10886142     0.0041825601  -0.094823713   -0.00016180918
     57000   0.0057485313  -0.10941481     0.004278871   -0.096518709    0.00048136052
     58000   0.0062345627  -0.11108712     0.0041873095  -0.097553995    0.00049048248
     59000   0.0069458739  -0.11648212     0.005034837   -0.1010352      6.2069798e-05
     60000   0.0073421208  -0.12223959     0.0051626209  -0.10607089     0.00058670567
     61000   0.0072283647  -0.12627162     0.0047188953  -0.11071717    -0.00058596699
     62000   0.006782856   -0.1298629      0.0050010228  -0.11469416     0.0013528252 
     63000   0.0080534954  -0.1358337      0.0055403618  -0.11822089     0.00047869703
     64000   0.0069646128  -0.13742102     0.0055116805  -0.12146916     0.00011160852
     65000   0.0071256107  -0.1399756      0.0055281842  -0.12376589    -0.00073084896
     66000   0.0077480456  -0.1443732      0.0057463284  -0.1270123      0.00010751519
     67000   0.0081493957  -0.14696731     0.0061010694  -0.12865004     0.0042350026 
     68000   0.0083106975  -0.15143243     0.0055781184  -0.13339631     0.0023030811 
     69000   0.0075604692  -0.15355938     0.0051903907  -0.1370356      0.00072852808
     70000   0.0080640016  -0.15686362     0.0054644957  -0.13931092     0.0013765336 
     71000   0.0078266359  -0.15983734     0.0053529219  -0.14275204     0.0012551387 
     72000   0.0082043311  -0.16425206     0.006535402   -0.1454181      0.00087569537
     73000   0.0094432791  -0.17146006     0.0060851366  -0.15121914     0.0014228583 
     74000   0.0088771677  -0.1757564      0.0065064075  -0.15594283     0.0020668808 
     75000   0.0087305472  -0.1796185      0.0067708941  -0.15976023     0.0026128312 
     76000   0.0081662353  -0.17992033     0.0055984451  -0.16208044     0.00060814627
     77000   0.0087561155  -0.18304375     0.0057724701  -0.16414559     0.0011649254 
     78000   0.0088214179  -0.18723225     0.0067667079  -0.16724195     0.0019542479 
     79000   0.009288956   -0.19223441     0.0072230526  -0.17108692     0.0015658095 
     80000   0.0093224027  -0.19586185     0.0064892164  -0.17539805    -0.002086892  
     81000   0.0093553385  -0.20029697     0.0062317461  -0.18004127    -0.0013558199 
     82000   0.0089672167  -0.20193252     0.0063086348  -0.18218173    -0.00020087207
     83000   0.01015103    -0.20970814     0.0078063692  -0.18668505    -0.0011714609 
     84000   0.010666264   -0.21609751     0.0078068129  -0.19230162    -0.0014976934 
     85000   0.010655223   -0.22182972     0.0078512386  -0.19800596     0.0012364404 
     86000   0.0092593604  -0.22216127     0.0067555416  -0.20152565     0.0025135654 
     87000   0.0093563786  -0.22395159     0.0069887404  -0.20293734     0.00085598797
     88000   0.0089673149  -0.22392648     0.0063199131  -0.20416427     0.00082110134
     89000   0.01068372    -0.2291956      0.008229384   -0.20495097    -6.7039951e-05
     90000   0.011387451   -0.23349201     0.0074467791  -0.20897507    -0.0012783425 
     91000   0.011194809   -0.23880654     0.0081609439  -0.21386422    -0.00064402424
     92000   0.011527169   -0.24603072     0.0080620967  -0.22068902    -0.00063804078
     93000   0.0099925588  -0.24772802     0.0075607446  -0.22518811    -0.00020358591
     94000   0.0099265846  -0.24850365     0.0069926887  -0.22663069     0.00029594395
     95000   0.01081276    -0.25313508     0.0076130868  -0.22931332     0.00016123868
     96000   0.011509858   -0.25630394     0.0070579835  -0.23199231     0.00096028161
     97000   0.010666267   -0.25912198     0.0075265167  -0.23560638     0.0010892406 
     98000   0.010507067   -0.26242218     0.0079617616  -0.23870998    -0.003872571  
     99000   0.010551829   -0.26423698     0.0077680936  -0.24065136     0.0016782476 
    100000   0.01182308    -0.26992739     0.0091804119  -0.24302381    -0.0014026507 
    101000   0.012626651   -0.27686615     0.0085975759  -0.24934081    -0.0025854504 
    102000   0.01196697    -0.28067157     0.0083468204  -0.25438588     0.0010500441 
    103000   0.011693566   -0.28542236     0.0083709326  -0.25952239     0.0014532167 
    104000   0.011016892   -0.2860156      0.0077421774  -0.26175875     0.0011407117 
    105000   0.010677086   -0.28600167     0.007398932   -0.26259744     0.0025292636 
    106000   0.011174645   -0.28841037     0.0078762066  -0.26378301     0.0036365257 
    107000   0.011649096   -0.29545962     0.0093233414  -0.26867391    -0.0009949434 
    108000   0.011919328   -0.29832476     0.009097      -0.27136031    -0.0010741231 
    109000   0.01223394    -0.30161656     0.0089940973  -0.2742834      0.0015429194 
    110000   0.011566572   -0.30389489     0.0082830891  -0.27827313     5.4959559e-05
    111000   0.0120763     -0.3054219      0.0080266464  -0.27929249     0.0036590035 
    112000   0.011651081   -0.30695516     0.0079069742  -0.28158284    -0.00095989537
    113000   0.0112002     -0.30706517     0.0074007902  -0.28287492    -0.00031051695
    114000   0.012234248   -0.31159477     0.008605357   -0.28464988     0.00066777026
    115000   0.012046412   -0.31435001     0.009688356   -0.28660369    -0.00065147767
    116000   0.012076437   -0.31732333     0.0084756786  -0.29074469     0.0014886243 
    117000   0.012105855   -0.3190602      0.0086434494  -0.29226969     0.0012767829 
    118000   0.012288232   -0.3206211      0.0085986197  -0.29360203    -0.00084024562
    119000   0.014054447   -0.32626321     0.0099763588  -0.29521878    -0.00087564356
    120000   0.012914414   -0.32691583     0.0093095804  -0.29824712    -0.0023476249 
    121000   0.013142289   -0.33142476     0.0097908731  -0.30193318     0.0018871632 
    122000   0.013234609   -0.33422992     0.0087426505  -0.30564817     0.00042972682
    123000   0.013498982   -0.33800418     0.0096940768  -0.3080747      0.0018778008 
    124000   0.013028967   -0.34074778     0.01037925    -0.31083769    -6.6516278e-05
    125000   0.014464965   -0.34682648     0.009905861   -0.31523717     0.0023272586 
    126000   0.013380604   -0.34732752     0.00890102    -0.31836854    -0.00031656775
    127000   0.013328333   -0.348847       0.0092015173  -0.31966588     0.0021833539 
    128000   0.012780813   -0.34902175     0.0088019089  -0.32106099     0.003481204  
    129000   0.013576646   -0.35098704     0.0089116416  -0.32172356     0.0017630809 
    130000   0.013315178   -0.35240078     0.0096601208  -0.32278078     0.00029625229
    131000   0.013886694   -0.35485382     0.009499069   -0.32453815     0.0038826016 
    132000   0.01458883    -0.35932814     0.0099288694  -0.32753014     0.00027440465
    133000   0.014950826   -0.36252506     0.0091594372  -0.33095386     9.8774428e-05
    134000   0.013708885   -0.36298478     0.0092531523  -0.33318157     0.0017141696 
    135000   0.014702274   -0.36728967     0.010706025   -0.33454447    -0.00083491328
    136000   0.015607305   -0.37135175     0.010947291   -0.3370086     -0.00048443749
    137000   0.014510943   -0.37427232     0.010385236   -0.34213471    -0.0031246937 
    138000   0.014687518   -0.3766021      0.010357794   -0.34422724     0.0014167031 
    139000   0.015421742   -0.37983531     0.01040796    -0.34630966     0.0012957801 
    140000   0.016609253   -0.3844096      0.01140208    -0.34810971    -0.0018366126 
    141000   0.015598296   -0.38562813     0.011322564   -0.35092321    -0.00011689049
    142000   0.014775886   -0.38607724     0.010042903   -0.35388481    -0.0013497908 
    143000   0.015980998   -0.39013051     0.010329097   -0.35584539    -0.00024722132
    144000   0.01527004    -0.39310544     0.01050498    -0.35971018     0.0008768301 
    145000   0.01509305    -0.39505777     0.010454414   -0.36197838    -0.0020416265 
    146000   0.015348537   -0.396657       0.010225617   -0.36342343    -0.0024858424 
    147000   0.015294381   -0.39806794     0.010896932   -0.36424424    -0.00043361815
    148000   0.014868008   -0.39824073     0.010359674   -0.36559343     0.0012490479 
    149000   0.01595018    -0.40124624     0.011644683   -0.36569173    -0.00017727277
    150000   0.016364016   -0.4057791      0.011091934   -0.37015698     0.00062692017
    151000   0.017282079   -0.41172628     0.011694084   -0.3741258      0.003738636  
    152000   0.016802538   -0.4153277      0.011322957   -0.37881719     0.00042387449
    153000   0.018082027   -0.42190289     0.012079226   -0.38271813     0.0018401962 
    154000   0.016340703   -0.42416173     0.011812704   -0.38785378    -0.00047990022
    155000   0.015661887   -0.42571651     0.011971203   -0.39026764    -0.0014659275 
    156000   0.016420051   -0.42660275     0.010733428   -0.39125514    -0.0028753372 
    157000   0.016518721   -0.42950923     0.011353694   -0.39339344    -6.9435284e-05
    158000   0.016669749   -0.43210773     0.011405989   -0.39571325     0.005096507  
    159000   0.017937207   -0.43793414     0.012417014   -0.39862868     0.0025694888 
    160000   0.017313097   -0.44005764     0.011996708   -0.40210804     0.00065450105
    161000   0.017453265   -0.44362131     0.012087123   -0.40537118     0.0018003941 
    162000   0.016392903   -0.44562125     0.012625519   -0.40842224    -0.0014867255 
    163000   0.017037023   -0.44709817     0.011421889   -0.41013723     0.00544937   
    164000   0.016911479   -0.45311521     0.013634304   -0.41413005     0.00096408229
    165000   0.017622067   -0.45666612     0.013299889   -0.41695018     0.0019145018 
    166000   0.017120801   -0.45875273     0.012151872   -0.42093623    -2.2523172e-05
    167000   0.016726901   -0.46039683     0.012562278   -0.42276039     0.0011530584 
    168000   0.01805855    -0.46244624     0.011833367   -0.42354253     0.0005838551 
    169000   0.018511424   -0.46516402     0.012055042   -0.42535975    -0.001549996  
    170000   0.017597605   -0.46704688     0.012286835   -0.42838067    -0.00058477189
    171000   0.017436219   -0.46823697     0.012972133   -0.42912738    -0.0016677315 
    172000   0.01791094    -0.46979394     0.012057946   -0.43088692     0.0012109567 
    173000   0.017211171   -0.47109997     0.012251841   -0.43304802    -0.00023595565
    174000   0.019099938   -0.47456332     0.012588238   -0.43334366    -0.0030081511 
    175000   0.019290644   -0.47621613     0.013126331   -0.4341725      0.0019645963 
    176000   0.017712073   -0.47613606     0.012221202   -0.43736389     0.00077589673
    177000   0.018022482   -0.47987633     0.013058243   -0.4398018      0.0009853044 
    178000   0.018250037   -0.48242007     0.013102701   -0.44195997     0.002370803  
    179000   0.018490365   -0.48560189     0.013131127   -0.44475311    -0.0013993925 
    180000   0.018323411   -0.48814745     0.013240532   -0.44743954     0.001919687  
    181000   0.019283145   -0.4902868      0.012570828   -0.44880992     0.0014405039 
    182000   0.019354913   -0.49234774     0.013234929   -0.45009917     0.0060781898 
    183000   0.018722993   -0.49560726     0.012510268   -0.45503062     0.002032265  
    184000   0.019900104   -0.49912023     0.013777026   -0.45551231     0.0022404069 
    185000   0.019538933   -0.50135109     0.012804175   -0.45925742     0.00046154849
    186000   0.019903727   -0.50248339     0.012770075   -0.45987699     0.0034928384 
    187000   0.020006808   -0.50404364     0.012630221   -0.46142257     0.0027752367 
    188000   0.019536485   -0.50681783     0.013232931   -0.46429908     0.0010759982 
    189000   0.019565778   -0.5085817      0.01381674    -0.46543523     0.0022312135 
    190000   0.018673193   -0.50901423     0.01325123    -0.46777129    -0.00021092137
    191000   0.020115866   -0.51042883     0.013438901   -0.4668356      0.002742643  
    192000   0.020607968   -0.51323767     0.013200195   -0.46914547     0.0028376315 
    193000   0.019769419   -0.51372556     0.013993855   -0.47009671     0.0027293649 
    194000   0.019283436   -0.51370739     0.013769927   -0.47103097     0.0023502509 
    195000   0.019610157   -0.51395226     0.014149861   -0.47040614    -3.7081587e-05
    196000   0.020232857   -0.51547165     0.013794703   -0.47134724     0.0038603881 
    197000   0.020742264   -0.51668134     0.013975093   -0.47161292     0.0044327902 
    198000   0.021736795   -0.52217104     0.014469461   -0.47511742     0.0029062311 
    199000   0.020833529   -0.52487604     0.014560696   -0.47908521     0.0010154502 
    200000   0.019817961   -0.52736808     0.014646242   -0.48301408     0.00042672618
    201000   0.020058869   -0.52702638     0.014666695   -0.4822908      0.0021646219 
    202000   0.020435553   -0.52890491     0.014612028   -0.48365933    -0.00045670853
    203000   0.020404067   -0.52926453     0.013866352   -0.48481182     0.00056156648
    204000   0.021191561   -0.53120034     0.015448137   -0.48398537    -0.0016515186 
    205000   0.022295479   -0.53770198     0.015294173   -0.48898617     0.0036729091 
    206000   0.020843708   -0.53994219     0.015659497   -0.4930373      0.0015457719 
    207000   0.020462157   -0.53992282     0.01476885    -0.49448054    -0.00035116939
    208000   0.020876379   -0.54156691     0.014765648   -0.49550689    -0.0023325041 
    209000   0.022956925   -0.54544279     0.016156195   -0.49487342    -0.00068972119
    210000   0.021961238   -0.54591836     0.015140115   -0.49785764    -0.0013718003 
    211000   0.021806451   -0.54880855     0.015741467   -0.50037851     0.0031565737 
    212000   0.021415859   -0.54922545     0.014949297   -0.50217309     0.0041290437 
    213000   0.023291045   -0.55634052     0.015863098   -0.5055634     -0.00080434251
    214000   0.023138459   -0.55931175     0.015562608   -0.50906384    -4.2544954e-05
    215000   0.021962079   -0.56097344     0.015404049   -0.51264752     0.0028628544 
    216000   0.02206976    -0.56120937     0.014928156   -0.51319793     0.0021012427 
    217000   0.022417662   -0.56533247     0.017917328   -0.51381035    -0.00042637329
    218000   0.024200327   -0.56819372     0.015678074   -0.51623857     7.9781483e-05
    219000   0.02316416    -0.5738548      0.016745975   -0.522385       0.0017962051 
    220000   0.022810444   -0.57575435     0.016202212   -0.52535855    -0.0017230829 
    221000   0.022890243   -0.57808611     0.015927332   -0.52784557    -0.0027817206 
    222000   0.021835958   -0.57784951     0.01526525    -0.52985146     0.0012458273 
    223000   0.0224955     -0.58046993     0.0161544     -0.53059405     0.0021998156 
    224000   0.022481769   -0.58194274     0.01665666    -0.53158519    -0.0042225923 
    225000   0.022895109   -0.58325645     0.015834701   -0.53310124     0.0012278096 
    226000   0.023004734   -0.58317271     0.01566465    -0.53302322     0.0011017434 
    227000   0.022731215   -0.58301754     0.015768727   -0.53317399     0.0045300853 
    228000   0.023195505   -0.58343116     0.01580938    -0.53285097    -0.00051224582
    229000   0.023495402   -0.5845709      0.016486333   -0.5328642      0.0023036664 
    230000   0.024765228   -0.58932755     0.017504811   -0.53469886     0.00096994305
    231000   0.024532714   -0.59229914     0.017615847   -0.53790796    -0.002370861  
    232000   0.024182739   -0.59236455     0.016663316   -0.53945052     0.0013652051 
    233000   0.023453253   -0.59392158     0.017179376   -0.54158503     0.0011007003 
    234000   0.023912885   -0.59683592     0.016451243   -0.54453849     0.0013553336 
    235000   0.025448627   -0.59980855     0.017700961   -0.54395927     0.00063014387
    236000   0.024519086   -0.60318546     0.017788893   -0.54864167    -0.0027909045 
    237000   0.025796323   -0.60735292     0.017601446   -0.55108195     0.002030593  
    238000   0.025010347   -0.60934358     0.017635775   -0.55421649     0.001871887  
    239000   0.025029207   -0.61145666     0.017217819   -0.55671926     0.0018480076 
    240000   0.024362378   -0.61216366     0.016587797   -0.55905587     0.00063821615
    241000   0.023420607   -0.61182048     0.016598201   -0.56011403    -0.0019157896 
    242000   0.023915565   -0.61314507     0.016110897   -0.56118397     0.0017064743 
    243000   0.024225897   -0.61543451     0.017236457   -0.56188265     0.002120338  
    244000   0.023902515   -0.61693164     0.018081636   -0.56301937    -0.0023089493 
    245000   0.024085696   -0.61866037     0.018017879   -0.56453725    -0.0030413125 
    246000   0.024600228   -0.61868572     0.017374975   -0.56443421    -0.0017781569 
    247000   0.025072365   -0.61840973     0.017449315   -0.56337613     0.0023496587 
    248000   0.024048017   -0.61994819     0.017484455   -0.56641498     0.0031498431 
    249000   0.026067341   -0.62410068     0.018652479   -0.56637242     0.002380728  
    250000   0.025873734   -0.62420275     0.017654607   -0.56776258    -0.0018489603 
    251000   0.025794957   -0.62336972     0.017560614   -0.56714164     0.00031240998
    252000   0.025829062   -0.62597377     0.017804037   -0.56945113     0.0039643939 
    253000   0.025365538   -0.62820615     0.017539335   -0.57264305     0.00033076318
    254000   0.026104827   -0.62871269     0.018494802   -0.57108591     0.00041213163
    255000   0.027395523   -0.63076692     0.018415111   -0.57128504     0.0047429554 
    256000   0.027108184   -0.6321073      0.018452396   -0.57301886     0.00062699502
    257000   0.025613919   -0.63314303     0.01772516    -0.57702178    -0.0042382589 
    258000   0.025957762   -0.63551518     0.01828383    -0.57831983     0.0012172319 
    259000   0.025538898   -0.63693242     0.018403412   -0.58024537    -0.00079783728
    260000   0.027611081   -0.63810268     0.018337568   -0.57837521    -0.00064005565
    261000   0.027833363   -0.64196424     0.019054267   -0.58118687    -0.0021152385 
    262000   0.027324694   -0.64438944     0.018892492   -0.58453635     0.0076809039 
    263000   0.02739894    -0.64507775     0.018397496   -0.58560836    -0.00022171928
    264000   0.027031521   -0.64494227     0.018127221   -0.58629392    -0.0036738329 
    265000   0.027216873   -0.64602548     0.01951704    -0.58570947     0.0029992266 
    266000   0.028597709   -0.64644509     0.018294004   -0.58528219    -0.00056377103
    267000   0.027344892   -0.64621068     0.018530599   -0.5866892      0.00064952912
    268000   0.028194554   -0.64983708     0.017824595   -0.58974794    -0.0039131571 
    269000   0.028424179   -0.65088007     0.018336589   -0.58993472    -0.00092481715
    270000   0.026871596   -0.65108556     0.018345075   -0.59245909     0.0023552372 
    271000   0.027639966   -0.65437454     0.020396828   -0.59254451     0.0016954972 
    272000   0.027776693   -0.65657723     0.019325956   -0.59561312     0.0016256706 
    273000   0.028967736   -0.65919724     0.019710173   -0.59606349     0.0012377926 
    274000   0.027943191   -0.6596537      0.019847779   -0.59791817     0.00019012753
    275000   0.028520024   -0.66025352     0.019309111   -0.59819197     0.0078044322 
    276000   0.027491009   -0.65994112     0.019190926   -0.59954029     0.0033475353 
    277000   0.028097973   -0.65998812     0.019026973   -0.59884138     0.0023944669 
    278000   0.028920894   -0.66130548     0.01962179    -0.59833034     0.00084003454
    279000   0.029553193   -0.66493801     0.020473124   -0.6001637      0.0026891852 
    280000   0.030672026   -0.66915735     0.021406889   -0.6017721      0.0022735717 
    281000   0.030833066   -0.67350727     0.021016703   -0.60627081     0.0035185526 
    282000   0.029311592   -0.67698823     0.022286617   -0.61076259    -0.00061482481
    283000   0.028071596   -0.67687477     0.019779717   -0.61501483    -0.0018028999 
    284000   0.029014828   -0.67839834     0.019476503   -0.61542767     0.0049243417 
    285000   0.028265125   -0.67929519     0.021372741   -0.61555211     0.0031160721 
    286000   0.028997596   -0.68066042     0.01897693    -0.61821515     0.0022594911 
    287000   0.028326969   -0.68112445     0.0197053     -0.6189561     -0.004994334  
    288000   0.028256421   -0.68012468     0.019941227   -0.61782617    -0.0017674895 
    289000   0.029108531   -0.68035925     0.020386248   -0.61633837    -0.0015988751 
    290000   0.028222377   -0.68298396     0.020617479   -0.62006023     0.0035253743 
    291000   0.030402848   -0.68500766     0.019787696   -0.61964511     0.0035835482 
    292000   0.030857003   -0.6862429      0.021274206   -0.61871305     0.0056165131 
    293000   0.029904389   -0.68828531     0.020713228   -0.62274444     0.00428923   
    294000   0.029488918   -0.69022249     0.020665627   -0.62535202    -0.00031405946
    295000   0.030551848   -0.69225288     0.021478981   -0.62497569     0.0031540879 
    296000   0.030174988   -0.69268144     0.020787373   -0.62666079     0.002923642  
    297000   0.029326585   -0.69308649     0.020231549   -0.62889345    -0.0015470267 
    298000   0.029943116   -0.69249049     0.020056458   -0.62754834     0.0056107214 
    299000   0.030504698   -0.69406851     0.02018262    -0.62815836    -0.0021931229 
    300000   0.029962132   -0.6959487      0.019962467   -0.63107203     0.0021368846 
    301000   0.031152545   -0.69846361     0.020049001   -0.63171594    -0.0049620243 
    302000   0.030617126   -0.69960558     0.02114742    -0.6325621      0.0037793971 
    303000   0.030439765   -0.70225537     0.022123273   -0.6345019      0.0068211131 
    304000   0.032092764   -0.70387391     0.021682519   -0.6340833     -0.00098977691
    305000   0.030577668   -0.70560447     0.022160633   -0.63760693     0.0033886194 
    306000   0.030561542   -0.70477937     0.021892783   -0.63707385     0.005063807  
    307000   0.029795374   -0.70548355     0.021353062   -0.63946626     0.0038104482 
    308000   0.032864538   -0.71074555     0.023131489   -0.63834906     0.0024088566 
    309000   0.032124393   -0.71341114     0.022060039   -0.6431956      0.0033281839 
    310000   0.031537457   -0.71540721     0.022879663   -0.64525188    -0.0025675796 
    311000   0.031260629   -0.71920304     0.022629995   -0.64971235    -0.00093383336
    312000   0.031063861   -0.71842213     0.02115516    -0.65070124     0.0022439228 
    313000   0.031375967   -0.72048674     0.022928737   -0.65052442     0.00026145061
    314000   0.031544484   -0.72039632     0.023583258   -0.64952686     0.0024888027 
    315000   0.031830524   -0.72030389     0.021859198   -0.65072971     0.0039670114 
    316000   0.031991336   -0.7199348      0.021182322   -0.65079644     0.0011267066 
    317000   0.03344917    -0.72389362     0.021862011   -0.65189022     0.0018758249 
    318000   0.032654076   -0.72561318     0.022986113   -0.65367755    -0.00038669228
    319000   0.034243363   -0.72962897     0.02167454    -0.65662253     0.0050937766 
    320000   0.033845949   -0.73144136     0.022874749   -0.65783044     0.0030558945 
    321000   0.033682742   -0.73178865     0.022349146   -0.65894799     0.001037419  
    322000   0.032967996   -0.73425041     0.024207157   -0.66062316     0.0022982365 
    323000   0.032439417   -0.73380521     0.023172621   -0.66200485     0.00083019767
    324000   0.031944304   -0.73624526     0.022367746   -0.66599197    -0.00094961032
    325000   0.033185506   -0.73742413     0.022892886   -0.6647851     -0.003241016  
    326000   0.033071202   -0.73757299     0.024301683   -0.66369651    -0.0024950766 
    327000   0.033891342   -0.73763854     0.021704414   -0.66512991     0.0039966462 
    328000   0.033793294   -0.73885466     0.024183965   -0.66401346     0.0021618376 
    329000   0.033053836   -0.73963739     0.023651054   -0.66643757     0.0023065318 
    330000   0.033432434   -0.74169207     0.022980128   -0.66859564    -0.00088114585
    331000   0.033118879   -0.74196577     0.022687781   -0.66963172    -0.003867315  
    332000   0.035021786   -0.74482103     0.024273187   -0.66804906     0.009300461  
    333000   0.034398063   -0.74664057     0.023308303   -0.67176846     0.00025972171
    334000   0.034027123   -0.74823677     0.023610421   -0.67361859     0.0024770956 
    335000   0.035306977   -0.75208558     0.023207502   -0.67595178     0.0033711408 
    336000   0.03433279    -0.7531971      0.023755617   -0.67797552    -0.0025792392 
    337000   0.033647387   -0.75325278     0.021981937   -0.68083233     0.0019882213 
    338000   0.032748302   -0.75351496     0.022854731   -0.68156946    -0.001066574  
    339000   0.035659696   -0.75641826     0.024665032   -0.67829819     0.00083886111
    340000   0.034531199   -0.75851955     0.025205299   -0.68155087     0.0041806306 
    341000   0.034657115   -0.76115152     0.025588481   -0.6836109      0.005556734  
    342000   0.033860944   -0.76127616     0.024484364   -0.68603315     0.001773794  
    343000   0.035110951   -0.764786       0.02444624    -0.68770731     0.001767508  
    344000   0.034372275   -0.76446435     0.026007753   -0.68693145     0.0044311093 
    345000   0.035408733   -0.76378645     0.023963687   -0.68674393     0.0081968698 
    346000   0.033728932   -0.76520157     0.022703175   -0.69193764     0.0078749086 
    347000   0.032819928   -0.76438508     0.023234935   -0.69195202     0.0059458149 
    348000   0.034853531   -0.7643835      0.023575858   -0.68856108    -0.00029908459
    349000   0.035416405   -0.76664358     0.024323997   -0.68922924     0.0031557632 
    350000   0.037130232   -0.76776992     0.025105585   -0.68700492     0.0010218365 
    351000   0.036317257   -0.77030485     0.02429095    -0.69157316     0.00286792   
    352000   0.037204312   -0.77392626     0.025989649   -0.69216615     0.00065505564
    353000   0.035190808   -0.77448727     0.024477347   -0.69725776     0.0047426097 
    354000   0.037352902   -0.77703654     0.024986542   -0.69605679     0.0017843257 
    355000   0.034914722   -0.77705466     0.024445297   -0.70027107     0.00034391273
    356000   0.035155413   -0.77660474     0.026046078   -0.69785957     0.00079419225
    357000   0.035989927   -0.77709574     0.025201503   -0.69794417     0.0042290652 
    358000   0.036019036   -0.77774022     0.025544441   -0.69820208     0.0099278094 
    359000   0.03686683    -0.78118465     0.0264599     -0.69946018    -0.0010333025 
    360000   0.0369109     -0.78259421     0.026673483   -0.7005901      0.0022120317 
    361000   0.036910025   -0.78287681     0.026563738   -0.70098375     0.010407901  
    362000   0.035352404   -0.78341078     0.026180346   -0.70423604    -0.00014591287
    363000   0.036203147   -0.78364581     0.024869582   -0.70450654    -0.0031109413 
    364000   0.036116691   -0.7847667      0.025488636   -0.70513798     0.00024076925
    365000   0.037183463   -0.78603505     0.026587755   -0.70370808    -0.0010221844 
    366000   0.036927279   -0.78672405     0.025550117   -0.70581875     0.0059357305 
    367000   0.036314762   -0.78743907     0.026252477   -0.7067496     -0.0055681259 
    368000   0.037123569   -0.78695035     0.025470154   -0.70583076     0.0038358825 
    369000   0.036003718   -0.78683193     0.025583782   -0.70727741    -0.0011042578 
    370000   0.038809299   -0.78884853     0.027522468   -0.70314967     0.0033475141 
    371000   0.037107944   -0.78918317     0.026199992   -0.70735717     0.0097519116 
    372000   0.038101937   -0.78972877     0.025512693   -0.70710004     0.0084854586 
    373000   0.037345334   -0.79066919     0.025201224   -0.70948611     0.0047295964 
    374000   0.040145658   -0.79139955     0.026314331   -0.70490558     0.007825467  
    375000   0.038497743   -0.79249056     0.027529837   -0.70725136    -0.0019705628 
    376000   0.03682768    -0.79247094     0.025795508   -0.71146955     0.0060427484 
    377000   0.038007393   -0.79315073     0.025505174   -0.71067125    -0.0051973861 
    378000   0.038498304   -0.79285259     0.026922909   -0.70821948     0.0043666018 
    379000   0.03869864    -0.79406035     0.027328334   -0.70872151     0.006240328  
    380000   0.04046135    -0.79608942     0.026350414   -0.70908613     0.0052782853 
    381000   0.038017159   -0.79656993     0.026902325   -0.71267866     0.0011452211 
    382000   0.038520539   -0.79706204     0.027561719   -0.71175679     0.0073795624 
    383000   0.038588061   -0.79625236     0.026711211   -0.7116964      0.010394503  
    384000   0.038202602   -0.79557738     0.027462231   -0.71084822     0.002823555  
    385000   0.040435414   -0.79679036     0.027098694   -0.70907768     0.0024767707 
    386000   0.039527487   -0.7985245      0.027090306   -0.71218122     0.0090485497 
    387000   0.040605663   -0.80200855     0.028680945   -0.71245841     0.0054479993 
    388000   0.038226207   -0.80162848     0.027443532   -0.71688264     0.0083124279 
    389000   0.040160414   -0.8029043      0.027519357   -0.71518318     0.00011100729
    390000   0.04069518    -0.80316406     0.028396275   -0.7137644      0.0071671274 
    391000   0.040535406   -0.80188882     0.028742309   -0.71238263     0.0046992449 
    392000   0.039940687   -0.80219079     0.028796409   -0.713522       0.0054114811 
    393000   0.039374415   -0.8028443      0.02657474    -0.71724604     0.0021106701 
    394000   0.038971939   -0.8035727      0.026165617   -0.71898689     0.0051377531 
    395000   0.040199853   -0.80613361     0.028192604   -0.71768013     0.00027363045
    396000   0.040227676   -0.80486194     0.028234173   -0.71632518     0.0047996157 
    397000   0.039526768   -0.80461862     0.028787184   -0.71657954     0.006659992  
    398000   0.040461047   -0.80543858     0.028777478   -0.71600869     0.0049163933 
    399000   0.041165314   -0.80580832     0.027505937   -0.71659425     0.0054274542 
    400000   0.042279698   -0.80989948     0.029631944   -0.7168889      0.00017681181
    401000   0.040160119   -0.81175507     0.028453469   -0.72310028     0.0076852478 
    402000   0.04124627    -0.81163855     0.028361879   -0.72144719     0.0074941731 
    403000   0.040955168   -0.81447578     0.029262946   -0.72381972     0.00076737116
    404000   0.040518597   -0.81561663     0.0299195     -0.72495845     0.00091258829
    405000   0.040695087   -0.81694409     0.028537133   -0.72740371     0.0021259109 
    406000   0.041639335   -0.81734831     0.028606696   -0.72632291    -0.0013910464 
    407000   0.040140021   -0.81653316     0.028736494   -0.72762548     0.0043808408 
    408000   0.041957517   -0.81915741     0.027876447   -0.7283853      0.0033371854 
    409000   0.041769341   -0.81983317     0.029210834   -0.72800875     0.0077184107 
    410000   0.042797853   -0.82100556     0.030007193   -0.726843      -4.4208481e-05
    411000   0.041576668   -0.82131148     0.029824192   -0.72916252    -0.0021269397 
    412000   0.041800345   -0.82080522     0.028026879   -0.73011827     0.0041680552 
    413000   0.040350237   -0.82014321     0.029630472   -0.73002643    -0.0010506136 
    414000   0.041475195   -0.82096412     0.029509401   -0.72928206    -0.0012148539 
    415000   0.041353091   -0.82106342     0.029951392   -0.72912241    -0.0094699061 
    416000   0.041954346   -0.82326831     0.030261245   -0.73011615     0.005604014  
    417000   0.041486254   -0.82341238     0.030594138   -0.73062901    -0.0031031621 
    418000   0.04287844    -0.82204644     0.029936043   -0.72783423     0.0026969623 
    419000   0.043792768   -0.82247432     0.030458863   -0.72636868     0.0031897477 
    420000   0.043084656   -0.82408642     0.030590307   -0.72891083     0.001835045  
    421000   0.043382402   -0.8240018      0.029844079   -0.72912611     0.0051057781 
    422000   0.042609358   -0.82453976     0.029918977   -0.73074799    -0.00088029872
    423000   0.042991983   -0.82576814     0.029565072   -0.7317567     -0.00025058028
    424000   0.042829418   -0.82594284     0.028614184   -0.73312598     0.0036290343 
    425000   0.042160682   -0.82613861     0.031278681   -0.73165971     0.0012554496 
    426000   0.043544621   -0.8266049      0.031256986   -0.73007312     0.0028773191 
    427000   0.044245092   -0.82637816     0.029473703   -0.73057964     0.00061817424
    428000   0.042895131   -0.82679285     0.031513162   -0.7309785      0.003276318  
    429000   0.042770054   -0.8267644      0.030935091   -0.73171562     0.0016323739 
    430000   0.042601081   -0.82811228     0.031070019   -0.73318186     0.005659929  
    431000   0.042439629   -0.82892341     0.03105552    -0.73424952     0.0074155543 
    432000   0.041767214   -0.82971639     0.032065887   -0.73504011     0.00094120105
    433000   0.043759817   -0.83224197     0.032643539   -0.73400105     0.0076449459 
    434000   0.044612228   -0.83481988     0.030644567   -0.73730014     0.008428908  
    435000   0.045348936   -0.83518871     0.031196266   -0.73601293     0.005315479  
    436000   0.043968898   -0.83463688     0.030401035   -0.73832505     0.004517452  
    437000   0.044140598   -0.83463317     0.03017106    -0.73829393     0.007922038  
    438000   0.044395208   -0.83425293     0.031087517   -0.73661557     0.0013950223 
    439000   0.043049939   -0.83462827     0.030432739   -0.73966228     0.0049268817 
    440000   0.04384607    -0.83622751     0.030074931   -0.7404259      0.0048872813 
    441000   0.044314272   -0.83621086     0.030174886   -0.73960745     0.0043721823 
    442000   0.045202728   -0.83736921     0.031920815   -0.73768805     0.0050185959 
    443000   0.046321428   -0.83753606     0.032110523   -0.73598823     0.0013380946 
    444000   0.046730815   -0.8425313      0.033504599   -0.7389757      0.0062020527 
    445000   0.044131699   -0.84416882     0.032997174   -0.74501681     0.0017184224 
    446000   0.043996861   -0.84594267     0.031499864   -0.7484901      0.0067297346 
    447000   0.044422138   -0.84538418     0.030297505   -0.74849646     0.0030347542 
    448000   0.043607458   -0.84540827     0.029893196   -0.75014609     0.0074661814 
    449000   0.046156167   -0.84624183     0.030760042   -0.7462922      0.0029743006 
    450000   0.044597133   -0.84660047     0.03206748    -0.74768045    -0.00069451078
    451000   0.046018313   -0.84598676     0.031050828   -0.745953       0.0084801389 
    452000   0.046218279   -0.85008722     0.03118173    -0.7496228      0.0046863211 
    453000   0.045112585   -0.8490628      0.032570284   -0.7488673      0.0020976988 
    454000   0.044469466   -0.84985266     0.030698788   -0.75249271     0.0020361888 
    455000   0.045308454   -0.84885955     0.03241176    -0.74852895    -0.00099302658
    456000   0.045991493   -0.848769       0.032126201   -0.74770007     0.0075950032 
    457000   0.04630967    -0.85002297     0.033717764   -0.74688552     0.0018566359 
    458000   0.045685826   -0.84795148     0.034770968   -0.74469599     0.0043005035 
    459000   0.046227318   -0.84973961     0.032023372   -0.74842        0.0025322425 
    460000   0.045604165   -0.84908929     0.033104857   -0.74762232     0.0048878329 
    461000   0.045163401   -0.84874932     0.032222746   -0.74882518     0.0032418333 
    462000   0.046147147   -0.85017887     0.031004244   -0.74999856     0.0060828798 
    463000   0.048182876   -0.85051315     0.031792373   -0.7464931      0.0033869465 
    464000   0.049076089   -0.85592849     0.035671265   -0.74669058    -0.0026596666 
    465000   0.048075258   -0.85493575     0.032442935   -0.75042645     0.00092224091
    466000   0.046827865   -0.85514238     0.032784168   -0.75216173     0.010893057  
    467000   0.047239232   -0.85696173     0.033510543   -0.75263805    -0.00068681614
    468000   0.048376925   -0.85919513     0.032113748   -0.75456281     0.0011436613 
    469000   0.047015587   -0.86047272     0.033434982   -0.75655985     0.012095678  
    470000   0.046783566   -0.86316982     0.034633499   -0.75840625     0.0033123864 
    471000   0.04884796    -0.86253455     0.031523188   -0.75778669     0.00056466098
    472000   0.046411285   -0.86234623     0.03399754    -0.75877667     0.0010196972 
    473000   0.048169027   -0.86425545     0.033519897   -0.75852863     0.0022847462 
    474000   0.048839481   -0.86501827     0.034986436   -0.75681988     0.0054948745 
    475000   0.049361093   -0.86545015     0.035689641   -0.75576664     0.00075226271
    476000   0.04865342    -0.86562676     0.034878456   -0.75781526    -0.0026134489 
    477000   0.047404422   -0.86441519     0.036985926   -0.7563685      0.00056437234
    478000   0.047883503   -0.86501098     0.036024761   -0.75720731     0.0057128813 
    479000   0.049255765   -0.86842747     0.03441524    -0.76017625     0.0074194516 
    480000   0.04763886    -0.86940109     0.03542522    -0.76256368     0.0052968104 
    481000   0.049350621   -0.87074809     0.033944588   -0.76282533     0.0059851783 
    482000   0.048451558   -0.87187318     0.033564956   -0.76567778     0.0059683303 
    483000   0.048836732   -0.87045421     0.035315032   -0.76193134     0.0070396129 
    484000   0.050606115   -0.87099637     0.034784949   -0.76035122     0.011687607  
    485000   0.050028821   -0.87183735     0.035014244   -0.76182829     0.0082896182 
    486000   0.049492335   -0.87182983     0.034898269   -0.76274095     0.0042916576 
    487000   0.048662681   -0.87279509     0.03528786    -0.7645603      0.0020168735 
    488000   0.050367766   -0.87515522     0.033943921   -0.76570839    -5.9241526e-05
    489000   0.04906976    -0.8764261      0.033840102   -0.76902884     0.0028680106 
    490000   0.050795966   -0.8797455      0.034669231   -0.76893148     0.0047552594 
    491000   0.051030161   -0.88129259     0.035586444   -0.76921029     0.0088706897 
    492000   0.051453058   -0.88089403     0.036545468   -0.76721877     0.0062782584 
    493000   0.050297493   -0.88411863     0.035067896   -0.77365317     0.0045180291 
    494000   0.049643593   -0.88427682     0.033782439   -0.77607704     0.0024595586 
    495000   0.050372446   -0.88610961     0.034294465   -0.77630522    -0.00045124804
    496000   0.050722149   -0.88510902     0.03440624    -0.77466864     0.0072438472 
    497000   0.050084701   -0.88662259     0.034724883   -0.77681912     0.0074001847 
    498000   0.050885838   -0.8880117      0.035655825   -0.77607636     0.0057693789 
    499000   0.050236377   -0.88882411     0.036302169   -0.77721599     0.0080967068 
    500000   0.050667904   -0.88751498     0.035590775   -0.77597138     0.0084973095 
Loop time of 126.239 on 8 procs for 500000 steps with 1550 atoms

Performance: 342209.029 tau/day, 3960.753 timesteps/s, 6.139 Matom-step/s
92.3% CPU use with 8 MPI tasks x 1 OpenMP threads

MPI task timing breakdown:
Section |  min time  |  avg time  |  max time  |%varavg| %total
---------------------------------------------------------------
Pair    | 16.3       | 17.361     | 19.43      |  23.2 | 13.75
Bond    | 4.8846     | 5.3931     | 5.9222     |  12.8 |  4.27
Neigh   | 0.12513    | 0.12548    | 0.12585    |   0.1 |  0.10
Comm    | 12.12      | 14.787     | 16.454     |  33.1 | 11.71
Output  | 0.61734    | 0.63606    | 0.65625    |   1.5 |  0.50
Modify  | 86.363     | 86.523     | 86.673     |   1.0 | 68.54
Other   |            | 1.413      |            |       |  1.12

Nlocal:         193.75 ave         208 max         181 min
Histogram: 2 0 1 1 0 1 0 2 0 1
Nghost:         630.75 ave         699 max         561 min
Histogram: 2 0 0 0 1 2 1 1 0 1
Neighs:              0 ave           0 max           0 min
Histogram: 8 0 0 0 0 0 0 0 0 0
FullNghs:       3876.5 ave        4378 max        3483 min
Histogram: 2 1 0 0 1 1 1 1 0 1

Total # of neighbors = 31012
Ave neighs/atom = 20.007742
Ave special neighs/atom = 2.1612903
Neighbor list builds = 462
Dangerous builds = 0

unfix ThermoLng

# Now we let the system to create the polymeric network
fix ThermoLng all langevin ${temp} ${temp} ${damp} ${seed3} # Brownian Dynamics: langevin + nve
fix ThermoLng all langevin 0.05 ${temp} ${damp} ${seed3} 
fix ThermoLng all langevin 0.05 0.05 ${damp} ${seed3} 
fix ThermoLng all langevin 0.05 0.05 1 ${seed3} 
fix ThermoLng all langevin 0.05 0.05 1 2010 
run ${steps}
run 5000000
WARNING: Using a manybody potential with bonds/angles/dihedrals and special_bond exclusions (src/pair.cpp:250)
Hybrid pair style last /omp style table/omp
Last active /omp style is angle_style harmonic/omp
Per MPI rank memory allocation (min/avg/max) = 23.66 | 23.66 | 23.66 Mbytes
   Step          Temp          E_pair         E_mol          TotEng         Press     
    500000   0.050667904   -0.88751498     0.035590775   -0.77597138     0.0085830428 
    501000   0.051477819   -0.88877539     0.035863493   -0.77574499     0.0085815904 
    502000   0.05025362    -0.88903252     0.036061189   -0.77763953     0.002641541  
    503000   0.049527402   -0.88906365     0.03602067    -0.77879981    -0.0042410899 
    504000   0.049338962   -0.88820283     0.033315016   -0.78092711     0.0025655192 
    505000   0.047992196   -0.88812455     0.033949713   -0.78223299     0.0095808215 
    506000   0.051196856   -0.89085754     0.034087143   -0.78002466     0.0028283018 
    507000   0.05011883    -0.88920509     0.034768445   -0.7793069      0.0063692832 
    508000   0.050720293   -0.89074841     0.035558676   -0.77915838     0.0020844159 
    509000   0.048892448   -0.89208049     0.034581525   -0.78420761     0.0021461668 
    510000   0.050450679   -0.89201539     0.034796904   -0.78159129     0.014773335  
    511000   0.050905821   -0.89138812     0.036593166   -0.77848548     0.0094833547 
    512000   0.050458603   -0.89180576     0.036744512   -0.77942218     0.0031883486 
    513000   0.051809387   -0.89310001     0.036786023   -0.77865004     0.0035807821 
    514000   0.052761804   -0.89316899     0.035795411   -0.77828193     0.0047670757 
    515000   0.051362201   -0.89312711     0.034947536   -0.78118597     0.0030037428 
    516000   0.048385606   -0.89369026     0.035021317   -0.78613736     0.011855954  
    517000   0.048759165   -0.89302775     0.036188058   -0.78374813     0.013953946  
    518000   0.049655658   -0.89332574     0.037018713   -0.7818716      0.0011387449 
    519000   0.05041457    -0.89322534     0.034576926   -0.78307535     0.0010437915 
    520000   0.050220601   -0.89462373     0.036365859   -0.78297557     0.0099410365 
    521000   0.0480102     -0.89245476     0.035503343   -0.78498258     0.0031300684 
    522000   0.052538599   -0.8942469      0.035557777   -0.77993207     0.0044348373 
    523000   0.050974931   -0.89542372     0.035766879   -0.78324378     0.0037094595 
    524000   0.049488894   -0.89527829     0.034697408   -0.78639544     0.0030738971 
    525000   0.050456436   -0.89425283     0.035390472   -0.78322653     0.0061606252 
    526000   0.050007464   -0.89596494     0.037147598   -0.78385454     0.0040153389 
    527000   0.04855704    -0.89473615     0.037168626   -0.78477895     0.0039138273 
    528000   0.052076902   -0.89442523     0.037285318   -0.77907496     0.0082804985 
    529000   0.049440191   -0.89524251     0.035467505   -0.78566256     0.00046511701
    530000   0.050783993   -0.89449427     0.035934289   -0.78243314     0.010834201  
    531000   0.049322018   -0.89476585     0.035945302   -0.78488525     0.012109306  
    532000   0.050751879   -0.89532988     0.034630427   -0.78462075     0.00061058816
    533000   0.051180581   -0.8961749      0.036237881   -0.78321567     0.0019297037 
    534000   0.049962676   -0.895328       0.034179294   -0.78625305     0.0031175142 
    535000   0.047971823   -0.89680247     0.033518699   -0.79137246     0.0090931162 
    536000   0.049260003   -0.89712901     0.035916765   -0.78736992     0.0093591324 
    537000   0.048758104   -0.89814357     0.033632023   -0.79142157     0.0039842118 
    538000   0.048789081   -0.89980017     0.036908075   -0.78975569     0.0084484671 
    539000   0.052201452   -0.90112993     0.036061049   -0.78681722     0.0021513437 
    540000   0.051458823   -0.90124777     0.035360168   -0.78874917     0.0085744651 
    541000   0.051271215   -0.90137614     0.034936888   -0.78958205     0.0026610718 
    542000   0.052651757   -0.90306282     0.036712357   -0.78742378     0.0044533656 
    543000   0.052406093   -0.90288717     0.034842494   -0.78948626     0.0095726773 
    544000   0.053518394   -0.90620626     0.035408701   -0.79057176     0.011636834  
    545000   0.052321426   -0.90605303     0.038205258   -0.78941626     0.0031832624 
    546000   0.051035467   -0.90638604     0.035561162   -0.79432107     0.0074894708 
    547000   0.051564876   -0.90620465     0.034599023   -0.79430821     0.005773072  
    548000   0.048524704   -0.90897503     0.036091497   -0.80014343     0.0021869793 
    549000   0.050344479   -0.91015933     0.036179547   -0.79851178    -0.0041382109 
    550000   0.050175053   -0.91014646     0.034291638   -0.8006408      0.004296786  
    551000   0.050491864   -0.91309487     0.036436137   -0.8009698      0.0075173237 
    552000   0.049799137   -0.91171985     0.035547049   -0.80152229     0.01461693   
    553000   0.049423912   -0.91351613     0.035174285   -0.80425381     0.012253042  
    554000   0.051150268   -0.91298792     0.034264904   -0.80204711     0.016378956  
    555000   0.050597396   -0.91436393     0.037007369   -0.80150943     0.0050495155 
    556000   0.050271279   -0.91539266     0.036880582   -0.80315381     0.0066634327 
    557000   0.04960711    -0.91511977     0.034255603   -0.80650151     8.9488533e-05
    558000   0.049105363   -0.91444908     0.036260701   -0.80457786    -0.0046359552 
    559000   0.050554263   -0.91444627     0.03619751    -0.80246629     0.003211685  
    560000   0.050223551   -0.91624341     0.037330184   -0.8036265     -0.00029943615
    561000   0.052968311   -0.91707725     0.033985539   -0.80369051     0.00048390205
    562000   0.050311586   -0.91798904     0.035421329   -0.80714902     0.0030329309 
    563000   0.051767324   -0.91667087     0.037239011   -0.80183097     0.0028943539 
    564000   0.052117468   -0.9165777      0.03584661    -0.80260533    -0.0019313453 
    565000   0.049971      -0.91657705     0.036393452   -0.80527546     0.010326983  
    566000   0.050848077   -0.91836474     0.038165489   -0.80397634    -0.00014515968
    567000   0.049840672   -0.91700215     0.03534251    -0.80694686     0.0069392019 
    568000   0.048970278   -0.91663185     0.036538493   -0.80668533     0.0015704319 
    569000   0.0507686     -0.9186395      0.035568631   -0.8069671      0.0021326276 
    570000   0.050112727   -0.9188213      0.035154583   -0.80854612     0.018307996  
    571000   0.048260097   -0.91817736     0.036538439   -0.80929548     0.0014697914 
    572000   0.049374606   -0.91940335     0.03654266    -0.80884657    -0.0068846423 
    573000   0.049529408   -0.91878824     0.035858137   -0.80868392     0.012136923  
    574000   0.051869799   -0.919525       0.03570811    -0.80606239     0.0043756459 
    575000   0.052285947   -0.91902855     0.036573377   -0.80407686     0.0062902071 
    576000   0.049288818   -0.91938266     0.037561116   -0.80793602    -0.0036281696 
    577000   0.052607089   -0.9194692      0.037881612   -0.80272787     0.0075010107 
    578000   0.050460369   -0.92125284     0.035678395   -0.80993272     0.0064577514 
    579000   0.048451416   -0.92278798     0.036044533   -0.81411321     0.0035215169 
    580000   0.048383887   -0.92184292     0.035322096   -0.81399182    -0.0021756588 
    581000   0.049755158   -0.92225622     0.034065034   -0.8136066      0.0084293431 
    582000   0.048704601   -0.92115635     0.035921064   -0.81222551     0.0071285052 
    583000   0.051002821   -0.92207809     0.036908424   -0.80871479     0.002366798  
    584000   0.050981323   -0.92163168     0.037317945   -0.80789109     0.0039411411 
    585000   0.052222708   -0.92345262     0.034979525   -0.81018957     0.0031925556 
    586000   0.04979912    -0.92245468     0.034133742   -0.81367045     0.009566679  
    587000   0.052226777   -0.92167706     0.035689317   -0.80769812     0.0054843695 
    588000   0.051340971   -0.92287724     0.038698727   -0.80721675     0.0075761014 
    589000   0.051602871   -0.92265172     0.036704727   -0.80859263    -0.00042455814
    590000   0.050185136   -0.92351348     0.037596221   -0.81068813     0.0035703302 
    591000   0.050921833   -0.92309763     0.036163167   -0.81060099     0.0023860711 
    592000   0.051785462   -0.92397276     0.037525485   -0.80881919    -0.0016427167 
    593000   0.049744742   -0.92255075     0.035976923   -0.81200486     0.0096999201 
    594000   0.049909767   -0.92447248     0.036348294   -0.81330784     0.0093093374 
    595000   0.052576657   -0.9262611      0.036291319   -0.81115568     0.0068735126 
    596000   0.050034632   -0.92710225     0.037041489   -0.81505724    -0.00095407473
    597000   0.049643709   -0.92610559     0.035786373   -0.8159017      0.004452065  
    598000   0.049233707   -0.92522534     0.036790128   -0.81463229     0.0041331643 
    599000   0.051412551   -0.92796851     0.035680307   -0.81521913     0.0098644744 
    600000   0.051020558   -0.92947709     0.036537788   -0.81645784     0.012836472  
    601000   0.052106447   -0.93024551     0.035624457   -0.81651181     0.011858752  
    602000   0.050827883   -0.92997318     0.035406713   -0.81837383     0.006714764  
    603000   0.05104584    -0.9309782      0.037570877   -0.81688796     0.0028664563 
    604000   0.049001882   -0.92926664     0.035200037   -0.82061121     0.0077619905 
    605000   0.049470098   -0.93083681     0.035988988   -0.82069055    -0.0028604171 
    606000   0.052029524   -0.92985257     0.035595212   -0.81626343     0.0052639373 
    607000   0.050477214   -0.93099533     0.036416366   -0.81891199     0.0047438597 
    608000   0.051480419   -0.92989426     0.036251532   -0.81647192     0.0071458066 
    609000   0.049405958   -0.9321776      0.037869295   -0.82024718     0.0015009251 
    610000   0.051477534   -0.93522254     0.037548734   -0.82050732     0.0054910976 
    611000   0.051469541   -0.93357739     0.035255246   -0.82116765     0.010914609  
    612000   0.051630858   -0.93432965     0.036282511   -0.82065082    -0.0059774922 
    613000   0.051435217   -0.93456001     0.034292711   -0.82316425     0.0052910218 
    614000   0.051225094   -0.93318488     0.035990972   -0.82040584     0.0045807734 
    615000   0.050105656   -0.93385181     0.037356284   -0.82138553     0.0081511749 
    616000   0.049520893   -0.93667474     0.036924996   -0.82551633     0.0068709357 
    617000   0.04958251    -0.93821086     0.036870068   -0.82701501     0.0025931979 
    618000   0.051578672   -0.93995927     0.035527908   -0.82711327     0.0012509318 
    619000   0.051439769   -0.94217955     0.035952614   -0.82911706     0.0025817415 
    620000   0.049855937   -0.94439265     0.036291881   -0.83336512     0.00079732705
    621000   0.050237498   -0.94533303     0.037335005   -0.83269039     0.0017681635 
    622000   0.05138841    -0.94565985     0.036157577   -0.83246939     0.0057259691 
    623000   0.05152139    -0.94530729     0.03594676    -0.83212831     0.004034674  
    624000   0.050491551   -0.94600379     0.034898034   -0.8354173      0.013198594  
    625000   0.050022714   -0.94697821     0.035597523   -0.83639503     0.0032783347 
    626000   0.050840611   -0.94771014     0.035235484   -0.83626294    -0.00057267461
    627000   0.049749512   -0.94707487     0.036503891   -0.83599486     0.010178398  
    628000   0.049831927   -0.94816148     0.035580374   -0.83788144     0.0096710541 
    629000   0.05183874    -0.9480241      0.035450782   -0.83486537     0.0068909677 
    630000   0.048193574   -0.94766054     0.035606561   -0.83981026     0.0027882216 
    631000   0.050623104   -0.94714713     0.034438486   -0.83682297     0.0024278735 
    632000   0.051633214   -0.94686988     0.037467591   -0.83200243     0.0035245129 
    633000   0.051802853   -0.94680616     0.037913886   -0.83123813     0.011132136  
    634000   0.049996083   -0.94723511     0.036613307   -0.83567606     0.0029794246 
    635000   0.051098665   -0.94627738     0.037200953   -0.83247788     0.0063485907 
    636000   0.049996472   -0.94599941     0.036186593   -0.83486649     0.00081068826
    637000   0.050995472   -0.94654199     0.037822404   -0.83227573     0.0081740051 
    638000   0.051365781   -0.94729118     0.03694659    -0.83334563     0.0071155598 
    639000   0.052211613   -0.9475371      0.036574628   -0.83269558    -0.0018964714 
    640000   0.050339537   -0.94727529     0.035455542   -0.83635916     0.0023855152 
    641000   0.050061934   -0.94802941     0.035646509   -0.83733844     0.0026337017 
    642000   0.050236914   -0.94647773     0.036886659   -0.83428431     0.0056284858 
    643000   0.050687499   -0.94667967     0.037638738   -0.83305873     0.00095381435
    644000   0.050419235   -0.94695008     0.036295761   -0.83507426     0.00093238735
    645000   0.0515984     -0.94598917     0.035990808   -0.8326507      0.00085839466
    646000   0.050587967   -0.94683532     0.03373332    -0.83726901     0.0041111764 
    647000   0.05051019    -0.94652657     0.036773882   -0.83403628     0.0070069956 
    648000   0.049967295   -0.94818338     0.036909225   -0.83637157     0.0069612773 
    649000   0.050900158   -0.94761796     0.035252166   -0.83606481     0.0031350321 
    650000   0.051341931   -0.94920621     0.03758399    -0.83465901     0.0086433482 
    651000   0.051563606   -0.95176941     0.03817455    -0.83629935     0.0075632823 
    652000   0.0518682     -0.95159209     0.037878729   -0.83596126     0.0013138094 
    653000   0.05249613    -0.95230217     0.040231336   -0.83337744     0.0013844682 
    654000   0.051182348   -0.9520372      0.036271282   -0.83904193     0.0098939833 
    655000   0.049641011   -0.95146114     0.035397721   -0.84164994     0.0033167549 
    656000   0.050243877   -0.95217289     0.034320523   -0.84253518     0.011694179  
    657000   0.049515057   -0.95429968     0.0366553     -0.84341971     0.0069328622 
    658000   0.049829855   -0.95290869     0.036652694   -0.84155944     0.012803804  
    659000   0.051486015   -0.95262132     0.035574247   -0.83986787     0.011415166  
    660000   0.051706524   -0.95260449     0.038339595   -0.83675514     0.0032361899 
    661000   0.049711791   -0.95397091     0.035387134   -0.8440642      0.0065374135 
    662000   0.049595059   -0.9538559      0.036619151   -0.84289216    -0.0042136636 
    663000   0.050216894   -0.9546124      0.033809411   -0.84552624     0.0056966803 
    664000   0.051209029   -0.95567237     0.035937955   -0.84297043     0.0058536638 
    665000   0.049199911   -0.95481385     0.035095325   -0.84596628     0.0098589612 
    666000   0.048731101   -0.9561479      0.036465852   -0.84663256    -0.0036583913 
    667000   0.050435614   -0.9551271      0.035560942   -0.84396154     0.005039634  
    668000   0.050326705   -0.95697844     0.03791835    -0.84361874     0.0079683396 
    669000   0.050361011   -0.95718719     0.036062761   -0.84563165     0.01972428   
    670000   0.052520116   -0.95830465     0.036177131   -0.84339818     0.014959049  
    671000   0.051155645   -0.95936187     0.037322877   -0.84535503     0.0043178006 
    672000   0.052714344   -0.96111571     0.034727962   -0.84736725     0.011503996  
    673000   0.051975738   -0.96144361     0.03800486    -0.84552545     0.0023416021 
    674000   0.050901821   -0.96075147     0.035509499   -0.8489385     -0.0017526813 
    675000   0.050351568   -0.95990998     0.037108847   -0.8473225      0.0048736853 
    676000   0.050777232   -0.96131091     0.035908865   -0.84928534    -0.00077901239
    677000   0.051817796   -0.95966889     0.037251322   -0.84474102     0.012729756  
    678000   0.049534016   -0.96082149     0.03726479    -0.84930361    -0.0042542816 
    679000   0.05117556    -0.96101951     0.036421447   -0.84788424     0.010604884  
    680000   0.05070684    -0.95963924     0.037727069   -0.84590098     0.0064188615 
    681000   0.051775749   -0.96408949     0.037055308   -0.84942066     0.0073888537 
    682000   0.05092103    -0.96532507     0.038422049   -0.85057075     0.015826371  
    683000   0.050868828   -0.96517201     0.037438352   -0.85147965    -0.0007495828 
    684000   0.051012423   -0.96613141     0.038603983   -0.85105816     0.0060599025 
    685000   0.050305039   -0.96610255     0.037006874   -0.8536868     -0.00037963153
    686000   0.050229559   -0.9676435      0.037941616   -0.85440615     0.0019179996 
    687000   0.052493404   -0.96998029     0.036777782   -0.8545132      0.0037036077 
    688000   0.051845579   -0.96977563     0.036396438   -0.85566099    -0.0014743929 
    689000   0.051492224   -0.97062955     0.037772409   -0.85566864    -0.0007390558 
    690000   0.050993557   -0.9726133      0.037903176   -0.85826914    -0.0015184791 
    691000   0.051586918   -0.97080267     0.038738177   -0.85473404     0.00015868226
    692000   0.052246311   -0.971811       0.036034239   -0.85745785    -0.0027671346 
    693000   0.052459499   -0.97198847     0.037442809   -0.85590718     0.003165288  
    694000   0.051361224   -0.97185747     0.037311105   -0.85755424     0.0029297003 
    695000   0.051200785   -0.97136745     0.037128195   -0.85748762     0.0019933174 
    696000   0.048911891   -0.97200829     0.036343828   -0.86234396     0.0034881954 
    697000   0.051138056   -0.97186316     0.03850938    -0.85669619    -0.0018079303 
    698000   0.049395114   -0.97209569     0.037371955   -0.86067886     8.6434043e-07
    699000   0.04954907    -0.97295757     0.036970303   -0.86171162     0.00092940651
    700000   0.049982145   -0.97371983     0.035341402   -0.86345359     0.0058650394 
    701000   0.05027471    -0.97352816     0.036787527   -0.86137722     0.0024254439 
    702000   0.051130136   -0.97250093     0.036336912   -0.85951829     0.0069094642 
    703000   0.051506977   -0.97209471     0.03792777    -0.85695632     0.009052678  
    704000   0.050401915   -0.97236358     0.036445356   -0.86036413     0.006912391  
    705000   0.050765761   -0.97234695     0.038569129   -0.85767831    -0.0026151785 
    706000   0.050811923   -0.97316569     0.036210855   -0.86078613     0.00093564443
    707000   0.050356775   -0.97368528     0.035193425   -0.86300542     0.0051855078 
    708000   0.050539025   -0.97471087     0.035386201   -0.86356504     0.0029939491 
    709000   0.050930926   -0.97368865     0.036114442   -0.86122711     0.0012104226 
    710000   0.050505712   -0.97343735     0.036593522   -0.86113413     0.0063020458 
    711000   0.050114055   -0.97267535     0.036933642   -0.86061912     0.0052060549 
    712000   0.052041755   -0.97501436     0.036329129   -0.86067296     0.0060940401 
    713000   0.050056669   -0.97555492     0.037738989   -0.86277937     0.011155089  
    714000   0.05110129    -0.97655747     0.036747019   -0.86320797     0.0040952898 
    715000   0.051147176   -0.97714027     0.034589048   -0.86587995     0.0032286322 
    716000   0.050246086   -0.97802646     0.036450421   -0.86625554    -0.0029124732 
    717000   0.050296758   -0.97748639     0.036111115   -0.86597881     0.0025679934 
    718000   0.048706531   -0.98139832     0.037724099   -0.87066156     0.0024240528 
    719000   0.049770276   -0.98108339     0.037109388   -0.86936675    -0.0088591917 
    720000   0.051161569   -0.98123339     0.037074027   -0.86746652    -0.0075174048 
    721000   0.051734723   -0.98086742     0.035928722   -0.86738668     0.0015012896 
    722000   0.050299372   -0.98371158     0.036211369   -0.87209983     0.010928562  
    723000   0.050246789   -0.98337174     0.03639869    -0.87165149     0.0097008513 
    724000   0.049709742   -0.98175687     0.038345364   -0.868895      -6.5176947e-05
    725000   0.050462503   -0.98148798     0.038435169   -0.8674079     -0.0034135351 
    726000   0.050371622   -0.98421988     0.035756471   -0.87295472     0.0041958849 
    727000   0.050169712   -0.98483226     0.036015619   -0.87361063    -0.0036234318 
    728000   0.051050554   -0.98638795     0.035617132   -0.87424439    -0.0080602394 
    729000   0.050908788   -0.98627412     0.035806167   -0.87415404     0.0083349322 
    730000   0.050105914   -0.98488422     0.035858447   -0.87391539     0.0047997849 
    731000   0.051468343   -0.98676285     0.036993115   -0.87261703    -0.0013153058 
    732000   0.05039925    -0.98612907     0.036251146   -0.87432783     0.0042210839 
    733000   0.048996777   -0.98596815     0.037665155   -0.87485525    -0.00095670263
    734000   0.049467975   -0.98458278     0.035093957   -0.87533473     0.012017004  
    735000   0.051882434   -0.98628962     0.035747843   -0.87276834     0.0024712277 
    736000   0.051012691   -0.98573656     0.035865234   -0.87340166    -0.0030735215 
    737000   0.050624454   -0.98406174     0.036445171   -0.87172887    -0.0032749697 
    738000   0.050423357   -0.98528084     0.036654362   -0.87304024     0.010943093  
    739000   0.049168509   -0.98528708     0.036821685   -0.87476022     0.015018694  
    740000   0.050231894   -0.9860231      0.03708914    -0.87363473    -0.0025455709 
    741000   0.050373967   -0.98631203     0.03860903    -0.87219079     0.0019912661 
    742000   0.051304058   -0.98598648     0.03572803    -0.87335201    -0.0060866139 
    743000   0.05017719    -0.98620677     0.036573712   -0.87441583     0.001300078  
    744000   0.050846778   -0.98595236     0.036074101   -0.8736573      0.0027123403 
    745000   0.050898618   -0.98696807     0.037906257   -0.87276315     0.0015381541 
    746000   0.049205573   -0.9841505      0.0349297     -0.87546006     0.00055054659
    747000   0.048656011   -0.9852662      0.037537462   -0.87479181    -0.0011732191 
    748000   0.050104231   -0.98493291     0.037035826   -0.87278923    -0.0023960379 
    749000   0.050614211   -0.98638058     0.035787433   -0.87472081    -0.0018648631 
    750000   0.051102313   -0.98598522     0.034934123   -0.87444708     0.0023216188 
    751000   0.051654641   -0.98621166     0.036819945   -0.87195974    -0.008120626  
    752000   0.050591452   -0.98534835     0.037343497   -0.87216664    -0.00043587521
    753000   0.049517043   -0.98560786     0.036671783   -0.87470843     0.0062842028 
    754000   0.050057958   -0.98564058     0.037323553   -0.87327854    -0.0059870397 
    755000   0.050084239   -0.98524856     0.034910801   -0.87525987     0.00063913733
    756000   0.052590223   -0.98776307     0.036702721   -0.87222591    -0.0079027987 
    757000   0.050704044   -0.98934108     0.039097606   -0.87423647     0.0065482121 
    758000   0.050919179   -0.99037116     0.03705834    -0.87698333    -0.0019113237 
    759000   0.050688671   -0.98812742     0.035747692   -0.87639577     0.002069725  
    760000   0.051604419   -0.98905937     0.036299782   -0.8754029      0.0019989155 
    761000   0.051154912   -0.98978004     0.037186591   -0.87591059    -0.0071513976 
    762000   0.053610463   -0.98885489     0.037130165   -0.87136091     0.0039821537 
    763000   0.051376001   -0.99009398     0.037524911   -0.87555479    -0.00036851284
    764000   0.052026328   -0.98995544     0.036503518   -0.87546278     0.0048783966 
    765000   0.049386958   -0.99025382     0.03800848    -0.8782127      0.0097128022 
    766000   0.049823179   -0.99199936     0.036277323   -0.88103548     0.0069229418 
    767000   0.049483299   -0.99027039     0.03532069    -0.88077264     0.015959243  
    768000   0.04946312    -0.98997761     0.036843185   -0.87898761     0.010085927  
    769000   0.050898225   -0.99006017     0.035379832   -0.87838226     0.0081120453 
    770000   0.050808774   -0.99165875     0.035341734   -0.88015302    -0.0022700193 
    771000   0.049752257   -0.9924072      0.037101515   -0.88072544    -0.001279442  
    772000   0.050207703   -0.99057332     0.036230129   -0.87908022     0.010444837  
    773000   0.051862376   -0.9916175      0.037870515   -0.87600361     0.0038488905 
    774000   0.048682167   -0.99110972     0.036179682   -0.8819539      0.007246848  
    775000   0.050133983   -0.99021671     0.034714254   -0.88035       -0.0019879346 
    776000   0.049582225   -0.99089513     0.036182667   -0.8803871      0.0040452816 
    777000   0.050059347   -0.99093756     0.036716778   -0.87918021     0.004944857  
    778000   0.050159404   -0.99002696     0.038453836   -0.87638256     0.0048561815 
    779000   0.050227953   -0.99125657     0.038306642   -0.87765661     0.0059816338 
    780000   0.053465134   -0.98970496     0.037181818   -0.87237718     0.012661323  
    781000   0.052213762   -0.99139664     0.038427485   -0.87469905     0.0038798787 
    782000   0.051626358   -0.99073629     0.037672286   -0.87567443     0.0025176301 
    783000   0.050243819   -0.99154249     0.037362828   -0.87886255    -0.0085283446 
    784000   0.051315314   -0.99074859     0.040464182   -0.8733611      0.0049022985 
    785000   0.052009815   -0.99021952     0.038834363   -0.87342077     0.00649117   
    786000   0.05134       -0.98861909     0.036985819   -0.87467295     0.011037187  
    787000   0.04981144    -0.99018069     0.03645228    -0.87905946     0.0040890719 
    788000   0.050806886   -0.99025681     0.035829901   -0.87826575     0.0010528519 
    789000   0.052011157   -0.99128876     0.036397044   -0.87692531     0.010310863  
    790000   0.05038354    -0.99152792     0.037814246   -0.87818713     0.00334809   
    791000   0.051130126   -0.99068668     0.037528116   -0.87651285    -0.0031184781 
    792000   0.049682534   -0.99024784     0.038455248   -0.87731687    -0.00055680481
    793000   0.050441639   -0.99046337     0.037200171   -0.87764956     0.0021506826 
    794000   0.052158506   -0.99001        0.034441988   -0.87738073     0.002865673  
    795000   0.050993019   -0.98886895     0.036416647   -0.87601213     0.0036032267 
    796000   0.052128807   -0.99052583     0.036397844   -0.87598522    -0.0012977514 
    797000   0.049869425   -0.99135723     0.038634595   -0.87796676     0.0046231008 
    798000   0.050327411   -0.99337427     0.038300665   -0.87963119     0.0015439233 
    799000   0.050645505   -0.9930562      0.036546142   -0.88059081     0.004389145  
    800000   0.051285486   -0.99218852     0.036100736   -0.87920919     0.00086020305
    801000   0.052164729   -0.99254394     0.038086935   -0.8762604      0.0085364714 
    802000   0.049661685   -0.99155413     0.038444092   -0.87866557     0.0032224876 
    803000   0.049179617   -0.99224934     0.036566134   -0.88196137     0.0065117237 
    804000   0.05082993    -0.99234365     0.034889045   -0.8812589      0.0043942979 
    805000   0.050182294   -0.9930823      0.038886561   -0.87897087     0.0070244694 
    806000   0.049980099   -0.99367203     0.03765023    -0.88110002     0.004214525  
    807000   0.050334583   -0.99333027     0.040373633   -0.87750348    -0.0048451975 
    808000   0.051451865   -0.99374        0.038736607   -0.87787539     0.00063771925
    809000   0.05053412    -0.99194982     0.038074338   -0.8781232     -0.0047095199 
    810000   0.051985932   -0.99232339     0.038151303   -0.8762435      0.0094828049 
    811000   0.053676871   -0.99063556     0.038295382   -0.87187682     0.0048309495 
    812000   0.054560223   -0.99363529     0.038028717   -0.87381904    -0.0010593594 
    813000   0.051314855   -0.99229504     0.037874256   -0.87749816     0.0067152341 
    814000   0.051579492   -0.99222375     0.03767099    -0.87723344    -0.0013734007 
    815000   0.048278397   -0.99230953     0.037534016   -0.88240464     0.0018845195 
    816000   0.049539466   -0.9930418      0.036857158   -0.88192338     0.010643454  
    817000   0.051707615   -0.99686238     0.039707595   -0.8796434     -0.0043580662 
    818000   0.052609969   -0.99821799     0.040016059   -0.87933789     0.0038887473 
    819000   0.050970846   -1.0001682      0.036550626   -0.88721063     0.0070837176 
    820000   0.051318422   -1.0013603      0.037462887   -0.88696945     0.013198829  
    821000   0.050034471   -1.000842       0.039073752   -0.88676497     0.0038180879 
    822000   0.049916162   -0.99975334     0.036707533   -0.88821987     0.0038328406 
    823000   0.050900635   -1.0014499      0.03868861    -0.88645961    -0.0045187046 
    824000   0.051747437   -1.0001807      0.038221107   -0.88438847     0.00087972807
    825000   0.052097952   -1.0003908      0.039628609   -0.88266563     0.0093902888 
    826000   0.051836609   -1.0018644      0.038123353   -0.88603627    -0.011507007  
    827000   0.050921763   -1.0034926      0.039255842   -0.88790339    -0.001128534  
    828000   0.051962296   -1.0045345      0.039103869   -0.8875375     -0.0045567004 
    829000   0.050745709   -1.0045558      0.03897135    -0.88951498     0.0024888897 
    830000   0.050695559   -1.0048632      0.038842527   -0.89002636     0.0022460639 
    831000   0.051593824   -1.0042525      0.038658773   -0.88825287     0.0069639063 
    832000   0.052150564   -1.0079258      0.038701046   -0.89104934    -0.0022102102 
    833000   0.051546123   -1.0060114      0.038014886   -0.89072722     0.0050360575 
    834000   0.050652043   -1.0070727      0.037819222   -0.89332447     0.0048689548 
    835000   0.049320282   -1.0072869      0.038345802   -0.89500842    -0.010174701  
    836000   0.050314705   -1.0076079      0.039650624   -0.8925339     -0.0038884796 
    837000   0.051725256   -1.0078859      0.036308021   -0.89404008    -0.0074735251 
    838000   0.049423473   -1.0078354      0.038923782   -0.89482421     0.00098533924
    839000   0.051815998   -1.0083774      0.038008135   -0.89269542     0.010322469  
    840000   0.050566061   -1.0083612      0.037940345   -0.89462074     0.0028171421 
    841000   0.052048939   -1.0088129      0.037108088   -0.89368177     0.0036295312 
    842000   0.051390885   -1.0090508      0.036905699   -0.89510849     0.01006988   
    843000   0.049836128   -1.0083936      0.038307222   -0.89538046     0.0025426541 
    844000   0.052174056   -1.0091248      0.037153424   -0.89376079    -0.012974616  
    845000   0.050662187   -1.0089733      0.037728812   -0.89530025     0.0070574053 
    846000   0.050527067   -1.00864        0.03776022    -0.89513806    -0.00024519083
    847000   0.049494305   -1.0083945      0.036751304   -0.89744961    -0.0025785343 
    848000   0.050792318   -1.0083473      0.037623477   -0.89458446     0.003336836  
    849000   0.051478802   -1.0085315      0.036032195   -0.89533097     0.013253991  
    850000   0.052291682   -1.0094281      0.038384023   -0.89265719     0.0011576263 
    851000   0.051536352   -1.0079289      0.038200656   -0.8924736      0.0013629955 
    852000   0.053012408   -1.0097161      0.037343873   -0.89290493     0.0047574547 
    853000   0.051335267   -1.010097       0.03873313    -0.89441069     0.00056619363
    854000   0.053264316   -1.0112345      0.037692405   -0.89369721     0.0082159376 
    855000   0.050855425   -1.0112301      0.03799879    -0.89699734     0.01126862   
    856000   0.051802007   -1.0152264      0.039015406   -0.89855809    -0.0065842444 
    857000   0.05104685    -1.015684       0.038789491   -0.90037361     0.0014476234 
    858000   0.050964963   -1.0150736      0.036778969   -0.90189654     0.0066252449 
    859000   0.050701421   -1.0168766      0.036392328   -0.90448118    -0.0031077669 
    860000   0.049797132   -1.01592        0.038737914   -0.90253458    -6.0553084e-05
    861000   0.05098416    -1.0144894      0.037661134   -0.90040137     0.0013953632 
    862000   0.051185958   -1.015412       0.037998087   -0.90068447     0.012074288  
    863000   0.051840886   -1.0153911      0.03694092    -0.90073903     0.0049294473 
    864000   0.052517904   -1.015476       0.036127728   -0.90062219    -0.0034644226 
    865000   0.051942131   -1.0165517      0.038013798   -0.90067495    -0.0012076942 
    866000   0.050718544   -1.0148849      0.0394926     -0.89936356     0.012538995  
    867000   0.05272977    -1.0167201      0.03751993    -0.90015656    -0.0026932087 
    868000   0.050890622   -1.0154609      0.03814749    -0.90102678     0.0067082225 
    869000   0.050540731   -1.0162636      0.036258728   -0.90424265     0.0022218008 
    870000   0.050010067   -1.0164172      0.038288183   -0.90316235     0.0059269437 
    871000   0.050421769   -1.0148104      0.038522781   -0.90070378     0.0022514097 
    872000   0.05197776    -1.0162283      0.036135583   -0.90217633    -0.0026544282 
    873000   0.049901267   -1.0156624      0.037594247   -0.90326456    -0.0031093291 
    874000   0.051773739   -1.0164881      0.038998335   -0.89987924    -0.0038828383 
    875000   0.04985066    -1.0144981      0.038164857   -0.90160545     0.0044852206 
    876000   0.050839748   -1.015471       0.041118243   -0.89814233     0.0039067432 
    877000   0.052701117   -1.0150564      0.040139571   -0.89591615     0.0042783173 
    878000   0.050259307   -1.0155705      0.039408289   -0.9008219     -0.0048221533 
    879000   0.051370806   -1.0145055      0.038995825   -0.89850321     0.0079183963 
    880000   0.051239603   -1.0159928      0.03730204    -0.90188097     0.0065545714 
    881000   0.052345871   -1.0159364      0.03777058    -0.89969766     0.0017486431 
    882000   0.050807751   -1.0142928      0.04095629    -0.89717402     0.0031343893 
    883000   0.050071634   -1.0143974      0.038304051   -0.90103432    -0.0044126827 
    884000   0.050332524   -1.0152711      0.039505484   -0.90031557     0.0064910825 
    885000   0.052123365   -1.0159974      0.039538981   -0.89832378    -0.00024519091
    886000   0.050359307   -1.0156386      0.040849141   -0.89929921    -0.00066898299
    887000   0.049407273   -1.0152738      0.042287267   -0.89892348    -0.0023682789 
    888000   0.050117942   -1.0142529      0.03844026    -0.9006842     -0.001259038  
    889000   0.049583145   -1.0153024      0.039892323   -0.90108336     0.0077560451 
    890000   0.050209048   -1.0157396      0.038804075   -0.90167057     0.0048315349 
    891000   0.051657991   -1.0166049      0.039040742   -0.90012714    -0.00064494357
    892000   0.049564242   -1.0162677      0.040461822   -0.90150748     0.0019493533 
    893000   0.050819801   -1.0144059      0.039368638   -0.89885671     0.011847058  
    894000   0.05004296    -1.0176643      0.038367211   -0.90428104     0.0066716518 
    895000   0.049847073   -1.0178107      0.039872779   -0.90321555    -0.0093371965 
    896000   0.050003046   -1.0181816      0.039523881   -0.90370156    -0.00095463155
    897000   0.049525925   -1.0184568      0.039112101   -0.90510378    -0.00086600003
    898000   0.051660243   -1.0178889      0.039196797   -0.90125176     0.0027188327 
    899000   0.051079332   -1.01711        0.040421508   -0.9001189      0.0029691423 
    900000   0.050483066   -1.0178891      0.040292289   -0.90192102    -0.0044248544 
    901000   0.05375006    -1.016727       0.040126211   -0.89602775     0.015619231  
    902000   0.051873944   -1.0165055      0.04078199    -0.89796279     0.013492254  
    903000   0.050379318   -1.0182396      0.040070549   -0.9026488      0.0057962372 
    904000   0.050625452   -1.0186962      0.037563623   -0.90524341     0.003920535  
    905000   0.051092671   -1.0168889      0.039610289   -0.90068903     0.0078379839 
    906000   0.052174784   -1.0180376      0.038252594   -0.90157335    -0.006133314  
    907000   0.052281723   -1.0173472      0.039240647   -0.89973453     0.0010657842 
    908000   0.050241733   -1.0176676      0.03936371    -0.90298986     0.0074122253 
    909000   0.050843948   -1.0184096      0.038761211   -0.90343163     0.006114411  
    910000   0.050283594   -1.0181618      0.038401375   -0.90438373     0.0026883946 
    911000   0.050267493   -1.0185671      0.041500988   -0.9017135      0.00016482863
    912000   0.049632235   -1.0184426      0.040343877   -0.90369842     0.0023015181 
    913000   0.0502762     -1.0199843      0.041187713   -0.90343099    -0.012038984  
    914000   0.051047041   -1.0205276      0.038693384   -0.90531303    -0.0044847717 
    915000   0.050400301   -1.0193926      0.038196849   -0.90564405     0.0035127285 
    916000   0.049780115   -1.0199151      0.039814957   -0.90547812    -0.00011687198
    917000   0.052309653   -1.0194022      0.039728042   -0.9012603      0.0085046285 
    918000   0.050647329   -1.0189376      0.03985796    -0.90315766     0.0059306864 
    919000   0.051014764   -1.0187834      0.039254337   -0.90305628     4.4484413e-05
    920000   0.050724209   -1.0182692      0.040590405   -0.90164157     0.007456692  
    921000   0.053191442   -1.01975        0.039472178   -0.90054213     0.0041487881 
    922000   0.050123262   -1.0181188      0.039555532   -0.90342684     0.0072937555 
    923000   0.050397467   -1.0222032      0.040147847   -0.9065079      0.013990873  
    924000   0.049314593   -1.0229241      0.040691355   -0.90830862     0.00440576   
    925000   0.050483112   -1.0215636      0.041365324   -0.90452251     0.015385922  
    926000   0.049879582   -1.0212273      0.038840809   -0.90761542     0.013631757  
    927000   0.051920995   -1.021192       0.039709498   -0.9036513     -0.00097032156
    928000   0.050967378   -1.0216314      0.039542148   -0.90568751     0.008673249  
    929000   0.052120929   -1.0236103      0.039998487   -0.9054809     -0.0019262936 
    930000   0.049479255   -1.0207517      0.038605444   -0.9079753      0.006212595  
    931000   0.052362961   -1.0224835      0.038842731   -0.90514696     0.0024396078 
    932000   0.049956437   -1.0245087      0.041345628   -0.90827679     0.0023596616 
    933000   0.050417576   -1.0245012      0.039791917   -0.90913176     0.011091342  
    934000   0.05254083    -1.0252624      0.039798506   -0.90670347     0.0049651404 
    935000   0.051265562   -1.0245669      0.041396817   -0.90632134    -0.0059989786 
    936000   0.052829195   -1.0245622      0.038512637   -0.90685688     0.0037065735 
    937000   0.049462545   -1.026108       0.040701672   -0.91126041     0.0030688834 
    938000   0.052506754   -1.0280237      0.038621741   -0.91069266     0.0085831437 
    939000   0.04916574    -1.0279762      0.041394572   -0.91288059     0.0076620809 
    940000   0.050493348   -1.0269596      0.038248637   -0.91301983     0.0013887857 
    941000   0.049870854   -1.0272737      0.039163658   -0.91335197     0.0069572681 
    942000   0.051566961   -1.027442       0.039618606   -0.91052282     0.0023521234 
    943000   0.053573413   -1.0311082      0.042350799   -0.90844917    -0.0021549222 
    944000   0.05188516    -1.0313569      0.0413642     -0.91221521     0.00098635266
    945000   0.049277069   -1.0328109      0.041993288   -0.91694973     0.0077437635 
    946000   0.05094411    -1.0325837      0.039462934   -0.91675392     0.0099614624 
    947000   0.050990717   -1.0312975      0.039083424   -0.91577736     0.0063505842 
    948000   0.049775691   -1.030791       0.039500173   -0.91667542    -0.0027384398 
    949000   0.050598642   -1.0303616      0.039994856   -0.91451776    -0.0018097255 
    950000   0.050757455   -1.029371       0.039570961   -0.91371298    -0.0042355802 
    951000   0.050777576   -1.0303381      0.043039583   -0.91118131    -0.0055188962 
    952000   0.05209832    -1.0311394      0.040466374   -0.91257598     0.010194388  
    953000   0.052287763   -1.0318304      0.039522458   -0.91392695    -0.005232428  
    954000   0.050732694   -1.0299294      0.039558263   -0.91432115    -0.0040987219 
    955000   0.051115932   -1.0318528      0.03899537    -0.91623295     0.0039604438 
    956000   0.049416375   -1.0300047      0.040621715   -0.9153062      0.0096348197 
    957000   0.04926719    -1.030749       0.039348666   -0.91754722    -0.0075515826 
    958000   0.050190412   -1.0317161      0.042011199   -0.91446788     0.0031521195 
    959000   0.051308503   -1.029846       0.041699839   -0.9112331      0.0075081003 
    960000   0.052342336   -1.0305017      0.040106889   -0.911932      -0.013635987  
    961000   0.052044132   -1.0318587      0.039251475   -0.91459136     0.0022750097 
    962000   0.05155243    -1.0325902      0.041073715   -0.91423772     0.00077499901
    963000   0.051385498   -1.0320744      0.040370184   -0.91467568    -0.0066966688 
    964000   0.049498433   -1.0326167      0.038678092   -0.91973882     2.5579697e-05
    965000   0.05143589    -1.0334819      0.040637712   -0.91574011    -0.0024165525 
    966000   0.050594557   -1.0315117      0.040353306   -0.91531556     0.0039657223 
    967000   0.051122789   -1.0328136      0.040833268   -0.91534563     0.015721367  
    968000   0.05062972    -1.0329298      0.041786746   -0.91524743     0.0048601121 
    969000   0.052403334   -1.0333097      0.038933607   -0.9158218      0.0042368857 
    970000   0.050218244   -1.0331562      0.040860839   -0.91701655    -0.0036269584 
    971000   0.053020942   -1.0322751      0.039465495   -0.91332953     0.0088145844 
    972000   0.050114613   -1.0337643      0.039843238   -0.91879766     0.015061985  
    973000   0.049997731   -1.0338545      0.040260708   -0.91864553     0.01159626   
    974000   0.051124381   -1.033219       0.039620857   -0.91696105     0.0071430257 
    975000   0.049590177   -1.0326382      0.040517369   -0.91778352     0.0059533169 
    976000   0.049993601   -1.0338757      0.039861733   -0.91907196     0.011857654  
    977000   0.048994751   -1.0330194      0.039835847   -0.91973885    -0.0076742444 
    978000   0.052198561   -1.0328853      0.039091748   -0.9155462      0.0056059056 
    979000   0.053112908   -1.0313901      0.041090688   -0.91068145     0.0099284294 
    980000   0.052281864   -1.0321913      0.042803931   -0.91101518     0.00020862261
    981000   0.050677238   -1.0324094      0.039915105   -0.91652749    -0.00082130437
    982000   0.052200429   -1.0326144      0.039600592   -0.91476369     0.0077447821 
    983000   0.05102404    -1.0333304      0.038301594   -0.91854215     0.00051406473
    984000   0.050281522   -1.0329729      0.039937412   -0.91766184     0.0042113756 
    985000   0.052757148   -1.0326625      0.039572859   -0.91400501     0.019307457  
    986000   0.052035569   -1.0332418      0.039687401   -0.91555144    -0.0064369039 
    987000   0.050138884   -1.0333961      0.039062906   -0.91917338     0.0029600866 
    988000   0.05027814    -1.0320605      0.039006928   -0.91768501     0.0076369207 
    989000   0.049908738   -1.0330044      0.040273222   -0.91791639     0.007033051  
    990000   0.049952794   -1.0330644      0.039139606   -0.91904395     0.0079954699 
    991000   0.051272036   -1.0328322      0.038171687   -0.91780206     0.01516037   
    992000   0.050522635   -1.0323248      0.040145951   -0.91644379     0.0088745427 
    993000   0.051135467   -1.0318543      0.042285593   -0.91291497    -0.0027111257 
    994000   0.050932187   -1.0327844      0.039903754   -0.91653169     0.0051382175 
    995000   0.05073966    -1.0344148      0.038368252   -0.91998614     0.0026718727 
    996000   0.051460256   -1.0336401      0.041142798   -0.91535675     0.001624486  
    997000   0.051359035   -1.0341967      0.040859149   -0.91634867     0.00061104015
    998000   0.048908318   -1.0335929      0.040369245   -0.91990846    -0.0028083572 
    999000   0.051311966   -1.0344716      0.038992728   -0.9185606     -0.00076764445
   1000000   0.051287928   -1.0336049      0.037586182   -0.91913646     0.0042982986 
   1001000   0.050609687   -1.0342351      0.038866033   -0.91950351     0.0056460794 
   1002000   0.051745282   -1.0339219      0.041239687   -0.91511438    -0.0053706695 
   1003000   0.04889303    -1.0320303      0.039718703   -0.91901937     0.01294007   
   1004000   0.050482389   -1.0334268      0.040021135   -0.91773092     0.0039318862 
   1005000   0.051104809   -1.0329493      0.040447872   -0.91589367     0.002647488  
   1006000   0.049433277   -1.03255        0.040633252   -0.91781468     0.016275708  
   1007000   0.050072978   -1.032314       0.040280224   -0.91697278     0.0044394432 
   1008000   0.050037382   -1.0315196      0.0388735     -0.91763841     0.014601682  
   1009000   0.049664741   -1.0335635      0.039619746   -0.9194947      0.0098566553 
   1010000   0.050242424   -1.0340669      0.039671663   -0.91908018     0.011388679  
   1011000   0.05012518    -1.0339637      0.041639163   -0.91718527     0.0055988126 
   1012000   0.050847536   -1.0344219      0.041773778   -0.91642599     0.0062066744 
   1013000   0.051195503   -1.0338954      0.042586743   -0.91456491     0.0030291589 
   1014000   0.05083679    -1.0344338      0.040971055   -0.91725679     0.0031090851 
   1015000   0.051908957   -1.0325099      0.041170923   -0.91352577     0.013429764  
   1016000   0.051934455   -1.0338462      0.039848603   -0.91614619     0.024397474  
   1017000   0.052715825   -1.0350441      0.041627518   -0.91439382     0.0048337128 
   1018000   0.051120608   -1.0354516      0.041417042   -0.91740307     0.010796341  
   1019000   0.049710493   -1.0374539      0.041571624   -0.92136465    -0.0036330578 
   1020000   0.049579926   -1.0364698      0.040074059   -0.92207386    -0.0036510578 
   1021000   0.051507862   -1.0377723      0.043117445   -0.91744294    -0.0016245699 
   1022000   0.052857135   -1.0361896      0.040882113   -0.91607295    -0.0015552555 
   1023000   0.051121168   -1.03623        0.040892277   -0.9187054      0.010967348  
   1024000   0.051524302   -1.0349228      0.039413501   -0.9182727      0.018834339  
   1025000   0.051931362   -1.0368148      0.040485254   -0.9184828      0.018618853  
   1026000   0.052833797   -1.0352307      0.041601602   -0.91442953     0.0096569842 
   1027000   0.052336246   -1.0357613      0.040163056   -0.91714453     0.01718429   
   1028000   0.053025719   -1.0376491      0.043059989   -0.91510181     0.0040926698 
   1029000   0.052005647   -1.0375302      0.041552789   -0.91801932     0.00023591725
   1030000   0.051554818   -1.0391152      0.04064349    -0.92118939     0.0054968583 
   1031000   0.052795934   -1.0395344      0.041176051   -0.91921552     0.0040559623 
   1032000   0.05165685    -1.0399309      0.040093102   -0.9224025     -0.0040955787 
   1033000   0.051553109   -1.0399901      0.040306747   -0.92240359    -0.0083569239 
   1034000   0.051537582   -1.0402753      0.043854809   -0.91916398     0.0012671091 
   1035000   0.050410901   -1.0397546      0.041479556   -0.92270748     0.0020254109 
   1036000   0.051011043   -1.0417169      0.044810291   -0.92043938     0.0016105107 
   1037000   0.051168184   -1.040866       0.040694164   -0.92346913     0.012238013  
   1038000   0.054740532   -1.0417969      0.039499887   -0.92023914     0.010823431  
   1039000   0.050145022   -1.042929       0.042407826   -0.92535216     0.0048537812 
   1040000   0.049408388   -1.0408613      0.03835459    -0.9284419     -0.00041351093
   1041000   0.0508085     -1.0422677      0.039041886   -0.92706221    -0.0021664577 
   1042000   0.050737656   -1.0423081      0.039665964   -0.92658472    -0.0021857656 
   1043000   0.05195868    -1.0422756      0.04229054    -0.92209734    -0.0076302377 
   1044000   0.050484072   -1.0417701      0.042218988   -0.92387385     0.0034223582 
   1045000   0.050722967   -1.0427181      0.040179288   -0.92650342     0.0030364216 
   1046000   0.049052234   -1.0421285      0.039117577   -0.92948003    -0.0085377749 
   1047000   0.051031191   -1.0428537      0.04141628    -0.92493999     0.0072559344 
   1048000   0.053187452   -1.0422736      0.041314311   -0.9212296     -0.0036978161 
   1049000   0.051041199   -1.0432895      0.043247312   -0.92352976    -0.01014034   
   1050000   0.0511438     -1.0431714      0.0413829     -0.92512226     0.0022909653 
   1051000   0.050201093   -1.0433542      0.042111375   -0.92598979    -0.0081883761 
   1052000   0.049017669   -1.0440115      0.041758707   -0.92877372    -0.0088483157 
   1053000   0.05042356    -1.0452194      0.039804653   -0.9298282     -0.0038777349 
   1054000   0.052413708   -1.0458963      0.039423163   -0.9279033     -0.00037969499
   1055000   0.051231451   -1.0463662      0.040613321   -0.92895524     0.0014563013 
   1056000   0.051282571   -1.0463158      0.041625304   -0.92781628    -0.0017545726 
   1057000   0.051899535   -1.0453786      0.041153792   -0.9264257      0.0063535324 
   1058000   0.052196408   -1.0464126      0.04143204    -0.92673647     0.0030500161 
   1059000   0.053496846   -1.0474452      0.042438508   -0.92481318    -0.00051087142
   1060000   0.05168395    -1.0468361      0.040270128   -0.92909008    -0.014662211  
   1061000   0.051050725   -1.047321       0.043984582   -0.92680974    -0.015347791  
   1062000   0.052493993   -1.0474111      0.040808566   -0.92791231     0.0046552666 
   1063000   0.051625823   -1.0469876      0.040292926   -0.92930585     0.012207959  
   1064000   0.050268254   -1.0474502      0.043000301   -0.92909615     0.0071641886 
   1065000   0.050412606   -1.0487568      0.04101016    -0.9321765     -0.0049159846 
   1066000   0.05041195    -1.0483138      0.039410241   -0.93333445    -0.00053917056
   1067000   0.049471687   -1.0481661      0.041567493   -0.93243896    -0.0033057409 
   1068000   0.051583337   -1.047687       0.040520926   -0.92984099    -0.0081653628 
   1069000   0.050462538   -1.0488698      0.042165305   -0.93105954     0.016336322  
   1070000   0.051546932   -1.0500279      0.042057418   -0.93069999     4.1667065e-05
   1071000   0.050742195   -1.0518575      0.042528734   -0.9332646      0.0049856672 
   1072000   0.050795575   -1.0519106      0.043676234   -0.93209018    -0.0010511023 
   1073000   0.052345756   -1.0517848      0.042587259   -0.93072955     0.0081076317 
   1074000   0.051574525   -1.0534235      0.041986045   -0.93412555    -0.0090514656 
   1075000   0.05165663    -1.0531401      0.04100323    -0.93470188    -0.0030554251 
   1076000   0.050646037   -1.0518352      0.042127847   -0.93378733    -0.0044146152 
   1077000   0.049742687   -1.0525051      0.041164554   -0.93677461    -0.0056469858 
   1078000   0.050345825   -1.0525081      0.041192232   -0.93584583    -0.0032666893 
   1079000   0.049754631   -1.0517839      0.041340124   -0.93585997     0.0062251935 
   1080000   0.050487828   -1.0519121      0.042498422   -0.93373075    -0.0025970994 
   1081000   0.05044947    -1.0530038      0.041378124   -0.93600025     0.00080516077
   1082000   0.049504283   -1.0539556      0.043716879   -0.93603023    -0.0079576926 
   1083000   0.053537796   -1.0509163      0.038960111   -0.93170126     0.0015503918 
   1084000   0.050499439   -1.0516134      0.041645421   -0.93426767    -0.0010568265 
   1085000   0.050410476   -1.0524103      0.043410868   -0.93343249    -0.0023218791 
   1086000   0.051704685   -1.05322        0.041744387   -0.93396865    -0.0019623936 
   1087000   0.052104948   -1.0509469      0.044312551   -0.92852733    -0.00042227729
   1088000   0.050929114   -1.0517187      0.040605533   -0.93476882     0.0012119124 
   1089000   0.049728323   -1.0521247      0.043523472   -0.93405682    -0.00081553277
   1090000   0.052105152   -1.0524488      0.041690776   -0.9326507     -0.0079656096 
   1091000   0.050116067   -1.0543918      0.041067732   -0.93819847    -0.013460273  
   1092000   0.051245967   -1.052445       0.039840424   -0.93578519    -0.0085478359 
   1093000   0.052907184   -1.0532237      0.042459977   -0.93145415    -0.0018021176 
   1094000   0.052464124   -1.0520699      0.042397802   -0.93102664     0.011312817  
   1095000   0.05214574    -1.0531489      0.043556289   -0.93142445    -0.010014232  
   1096000   0.051415911   -1.0521881      0.04096772    -0.9341463     -0.0015336522 
   1097000   0.051045346   -1.0524846      0.041618665   -0.93434733     0.0062050844 
   1098000   0.051488907   -1.052619       0.041715231   -0.93372028     0.00069924325
   1099000   0.049942195   -1.0533495      0.04121657    -0.93726799    -0.0067329574 
   1100000   0.05096705    -1.0539141      0.042305953   -0.93520691     0.0024334593 
   1101000   0.051812362   -1.0501274      0.03928894    -0.93317009     0.0063009525 
   1102000   0.052225554   -1.0518818      0.042246671   -0.93134739    -0.0015146949 
   1103000   0.050664081   -1.0521083      0.040638688   -0.93552248     0.0036436454 
   1104000   0.049733562   -1.0513368      0.042282441   -0.93450211     0.0048239612 
   1105000   0.049374915   -1.0525084      0.043776524   -0.93471731     0.0024646677 
   1106000   0.05115074    -1.0538217      0.041925123   -0.93521992    -0.00029092416
   1107000   0.050293868   -1.0553241      0.041500418   -0.93843159     0.0095641154 
   1108000   0.050383554   -1.0549666      0.040101112   -0.93933894    -0.0048366727 
   1109000   0.050608384   -1.0562491      0.044784578   -0.93560091     0.0077478385 
   1110000   0.051756396   -1.0584551      0.041925467   -0.93894517    -0.00019443927
   1111000   0.051304576   -1.0583873      0.041503608   -0.9399765     -0.0036229822 
   1112000   0.051497895   -1.0582589      0.041058012   -0.94000391     0.0051270254 
   1113000   0.051597463   -1.0593014      0.042979822   -0.93897533    -0.0032912162 
   1114000   0.052755711   -1.0581527      0.043575319   -0.93549487     0.010350064  
   1115000   0.049349374   -1.0593155      0.043774938   -0.94156422     0.0089270903 
   1116000   0.052391109   -1.0589505      0.042850508   -0.937564       0.00014818652
   1117000   0.052596558   -1.0608758      0.043893067   -0.93813883    -0.0016488862 
   1118000   0.050865731   -1.0605845      0.042885532   -0.9414496      0.0011262807 
   1119000   0.052784998   -1.0614634      0.043972375   -0.93836457    -0.0026988216 
   1120000   0.051976726   -1.0621927      0.042621582   -0.94165636    -0.015572618  
   1121000   0.05049503    -1.0600625      0.041297621   -0.94307124     0.0023505009 
   1122000   0.049041008   -1.0617119      0.04520388    -0.94299401    -0.0031101306 
   1123000   0.052438375   -1.0611695      0.044685672   -0.93787698    -0.002715507  
   1124000   0.055227375   -1.0622221      0.043558208   -0.93587626     0.0032214107 
   1125000   0.052879137   -1.0620144      0.042899692   -0.93984714     0.0036197072 
   1126000   0.052350966   -1.0626493      0.043900565   -0.94027293     0.011089196  
   1127000   0.051238097   -1.0616437      0.042434711   -0.94240146     0.0051725117 
   1128000   0.050908231   -1.0629183      0.043119544   -0.94348568    -0.0043601123 
   1129000   0.050980026   -1.0634816      0.043176175   -0.9438847      0.0039615215 
   1130000   0.051212448   -1.0638528      0.041575796   -0.94550792    -0.0064032569 
   1131000   0.051233314   -1.0623275      0.043643128   -0.94188402     0.00050379718
   1132000   0.050622607   -1.0613731      0.042101783   -0.94338638     0.020999763  
   1133000   0.051934246   -1.0623617      0.041940916   -0.94256968     0.0045522444 
   1134000   0.049876669   -1.0609006      0.044072718   -0.9420611     -0.0022144536 
   1135000   0.051021234   -1.060097       0.042248348   -0.94136618     0.0021350616 
   1136000   0.051075818   -1.0624978      0.044390017   -0.94154353     0.0060345942 
   1137000   0.051010418   -1.0627947      0.043636417   -0.942692       0.0051595789 
   1138000   0.049260478   -1.0633916      0.045095414   -0.94445316     0.0047598544 
   1139000   0.053012267   -1.0635351      0.04235077    -0.94171726     0.0067423603 
   1140000   0.051233101   -1.064246       0.044221247   -0.94322467     0.0058888127 
   1141000   0.053376001   -1.0649777      0.048427875   -0.93653747    -0.0039646002 
   1142000   0.052348821   -1.0636948      0.044006975   -0.94121524    -0.0062064609 
   1143000   0.053577953   -1.0634703      0.04559981    -0.9375554     -0.0015764597 
   1144000   0.053368571   -1.0647407      0.047304888   -0.9374346     -0.00053354996
   1145000   0.052462641   -1.0638962      0.04313176    -0.94212124     0.0013255486 
   1146000   0.049450031   -1.0640426      0.046696928   -0.94321852     0.00033101668
   1147000   0.050379179   -1.0651739      0.047071781   -0.94258209    -0.00019779249
   1148000   0.051421535   -1.0637629      0.045430266   -0.94125011     0.00012924786
   1149000   0.049241982   -1.0660658      0.045770473   -0.94648        0.0019087984 
   1150000   0.051767485   -1.0661459      0.044620739   -0.94392402    -0.010930766  
   1151000   0.051245433   -1.066387       0.046474406   -0.94309408     0.0060482418 
   1152000   0.053096695   -1.0694202      0.047101181   -0.94272533    -0.0048228543 
   1153000   0.051929154   -1.0693622      0.044115819   -0.94740291     0.0056328062 
   1154000   0.051229065   -1.0695071      0.042844054   -0.949869      -0.0056788291 
   1155000   0.051939895   -1.0685108      0.043687202   -0.94696399     0.0043620183 
   1156000   0.051583712   -1.0695626      0.044048723   -0.94818821     0.004595259  
   1157000   0.051893213   -1.069693       0.046435719   -0.94546766    -0.013207681  
   1158000   0.052092912   -1.0689974      0.044714193   -0.94619427    -0.0033975071 
   1159000   0.052355318   -1.0684437      0.045560188   -0.94440123    -0.0044906032 
   1160000   0.052310101   -1.0683473      0.045138968   -0.94479385     0.0093300177 
   1161000   0.051302608   -1.0703715      0.048050171   -0.94541704     0.010774662  
   1162000   0.052935495   -1.0691127      0.045698655   -0.94406204     0.0054303136 
   1163000   0.05086229    -1.0695083      0.045683687   -0.94758044    -0.0040258424 
   1164000   0.052065616   -1.0690537      0.045046892   -0.94595874     0.0098940517 
   1165000   0.050386383   -1.0701584      0.045333161   -0.9492944      0.0039000705 
   1166000   0.052492886   -1.0696192      0.043118738   -0.94781191     0.0034861167 
   1167000   0.050576737   -1.0670684      0.043782349   -0.94746984     0.006705761  
   1168000   0.0501679     -1.0693836      0.04384348    -0.95033684     0.0046451922 
   1169000   0.050602553   -1.0693236      0.045426177   -0.94804252    -0.00038991732
   1170000   0.049483588   -1.0680028      0.044979779   -0.94884555     0.0075902138 
   1171000   0.05158623    -1.0704931      0.046353346   -0.94681031     0.0092261075 
   1172000   0.051604378   -1.0674796      0.046436113   -0.94368684     0.0065936    
   1173000   0.048683292   -1.0677177      0.044286982   -0.95045293     0.0070252637 
   1174000   0.050477175   -1.0690817      0.046041468   -0.94737331    -0.0033364995 
   1175000   0.052366793   -1.0700062      0.043230212   -0.94827643     0.0031501529 
   1176000   0.051749817   -1.0699248      0.042398648   -0.94995156    -0.0013588575 
   1177000   0.050283554   -1.0705024      0.045344545   -0.94978118    -0.004781482  
   1178000   0.052326403   -1.0695485      0.04444264    -0.94666685     0.0071460607 
   1179000   0.05296702    -1.0704657      0.04896205    -0.94210442    -0.0026204426 
   1180000   0.053300225   -1.0704609      0.047692534   -0.94286961    -0.0026971059 
   1181000   0.052985009   -1.072005       0.046216229   -0.94636257     0.0063511134 
   1182000   0.051097883   -1.0703258      0.047193877   -0.94653459     0.0049153956 
   1183000   0.052608399   -1.0706748      0.045840088   -0.94597303    -0.0067665592 
   1184000   0.051951927   -1.0734487      0.048039681   -0.94753136     0.0023599147 
   1185000   0.051106412   -1.0703753      0.043574898   -0.95019027    -0.0026703568 
   1186000   0.049188296   -1.0727741      0.047524403   -0.9515149     -0.01487858   
   1187000   0.050246002   -1.0709745      0.044698539   -0.95095556    -0.0080231906 
   1188000   0.052734663   -1.0713825      0.04544324    -0.94688826    -0.0026100756 
   1189000   0.05226189    -1.0723745      0.044793863   -0.94923835    -0.0027324868 
   1190000   0.051018702   -1.0732803      0.046467372   -0.95033422    -0.0066994629 
   1191000   0.051790553   -1.0728928      0.045397692   -0.94985943    -0.0067959179 
   1192000   0.05154347    -1.0722969      0.045496967   -0.94953462    -0.015914069  
   1193000   0.052444017   -1.0728123      0.045239143   -0.94895785    -0.009265416  
   1194000   0.051174315   -1.071171       0.047634705   -0.94682435    -0.0036549579 
   1195000   0.051269848   -1.0715834      0.048457668   -0.9462706     -0.0037350258 
   1196000   0.050078213   -1.072042       0.047210081   -0.94976304    -0.0038268115 
   1197000   0.052060692   -1.0730805      0.045512706   -0.94952717    -0.0020793724 
   1198000   0.050369818   -1.0734196      0.045584948   -0.95232866    -0.0023007428 
   1199000   0.052761119   -1.0757478      0.046296777   -0.95036039    -0.0055843677 
   1200000   0.054859348   -1.0758265      0.04921717    -0.94437342    -0.014111884  
   1201000   0.053375885   -1.0781854      0.046740122   -0.95143308    -0.018184943  
   1202000   0.052128758   -1.0800934      0.048037218   -0.95391347    -0.0076150262 
   1203000   0.051222242   -1.0789586      0.049414049   -0.95276072    -0.0031617335 
   1204000   0.053348506   -1.0818647      0.047405705   -0.95448788    -0.0061011503 
   1205000   0.053235745   -1.0796388      0.046837399   -0.95299926    -0.027149036  
   1206000   0.052413032   -1.0805173      0.047233034   -0.95471542     0.00075806489
   1207000   0.052796954   -1.0802151      0.04640395    -0.95466681     0.0024230241 
   1208000   0.051657936   -1.0804155      0.047212087   -0.95576654    -0.0055016998 
   1209000   0.051541195   -1.0796158      0.047330263   -0.95502365    -0.0043551063 
   1210000   0.051148404   -1.0802251      0.048029299   -0.95552271     0.0011580277 
   1211000   0.052177694   -1.0812856      0.048189065   -0.95488049    -0.011521964  
   1212000   0.051564497   -1.0808586      0.046843774   -0.956718      -0.010873158  
   1213000   0.05329185    -1.0796573      0.046847781   -0.95292327     0.0035640271 
   1214000   0.051914852   -1.0810143      0.045526569   -0.95766574    -0.0093997973 
   1215000   0.052218015   -1.0805924      0.047228044   -0.95508783    -0.0015671782 
   1216000   0.053216412   -1.0810856      0.045533731   -0.95577878     0.0062665747 
   1217000   0.052389147   -1.081009       0.046961602   -0.95551438    -0.0024324966 
   1218000   0.050916794   -1.0806602      0.044444854   -0.95988947     0.00070852608
   1219000   0.050350605   -1.0789916      0.044904327   -0.95861013    -0.0064551682 
   1220000   0.052557293   -1.0828904      0.048485848   -0.95561947    -0.00093178914
   1221000   0.053010261   -1.0839916      0.047485656   -0.95704187     0.014429882  
   1222000   0.055351371   -1.0844509      0.044879303   -0.95659807     0.009768793  
   1223000   0.051342723   -1.0837534      0.047084528   -0.95970452     0.010087877  
   1224000   0.052361161   -1.0833524      0.045281271   -0.95958008     0.008244076  
   1225000   0.049885093   -1.0833554      0.046383349   -0.96219265     0.010867184  
   1226000   0.050176734   -1.0843138      0.045566098   -0.96353119     0.012224848  
   1227000   0.052002537   -1.0843868      0.044091344   -0.96234196     0.0014010447 
   1228000   0.048867323   -1.0818644      0.043279182   -0.9653315     -0.00046496623
   1229000   0.049959168   -1.0820583      0.043059335   -0.9641086      0.0067663887 
   1230000   0.052035294   -1.0832982      0.047172511   -0.95812315    -0.0023489516 
   1231000   0.050970781   -1.0844727      0.046448498   -0.96161735     0.00014084506
   1232000   0.052456803   -1.0843658      0.044371188   -0.9613602     -0.0037478332 
   1233000   0.050606669   -1.0817432      0.04570921    -0.96017295    -0.019883326  
   1234000   0.052344733   -1.0827098      0.042582658   -0.96166069    -0.0089860777 
   1235000   0.052214699   -1.0834088      0.044355156   -0.96078209    -0.0093754812 
   1236000   0.051068545   -1.0835259      0.04486563    -0.96210684    -0.011195829  
   1237000   0.049413313   -1.0815073      0.044771445   -0.96266366    -0.0041406716 
   1238000   0.05183911    -1.0837983      0.044527763   -0.96156207     0.0019530045 
   1239000   0.049568183   -1.0818042      0.046450129   -0.96104981     0.00092142374
   1240000   0.050924432   -1.0824692      0.047375448   -0.95875641     0.0072567195 
   1241000   0.052238109   -1.0828691      0.045573882   -0.95898859    -0.0043444529 
   1242000   0.051549242   -1.0848726      0.04565722    -0.96194137    -0.006991172  
   1243000   0.050918567   -1.0841628      0.04610347    -0.96173075     0.0042731337 
   1244000   0.051305124   -1.0821809      0.043448262   -0.96182465     0.014225153  
   1245000   0.050967306   -1.0827835      0.045361368   -0.96102051     0.010641059  
   1246000   0.053016213   -1.0845472      0.046664717   -0.95840946     0.0051728359 
   1247000   0.05380837    -1.0838744      0.046558906   -0.95665505     0.013277454  
   1248000   0.051140581   -1.0843971      0.046968915   -0.96076679     0.0026751848 
   1249000   0.051098209   -1.0839842      0.046950006   -0.9604363      0.001863856  
   1250000   0.05215233    -1.0828411      0.044094744   -0.9605683      0.010689443  
   1251000   0.050651651   -1.0831031      0.04469094    -0.96248374    -0.001513051  
   1252000   0.051205509   -1.0824133      0.04640847    -0.95924609     7.7583153e-05
   1253000   0.05125136    -1.0824743      0.045708557   -0.95993834    -0.00044441019
   1254000   0.052010119   -1.0827938      0.047626004   -0.95720296    -0.0010739978 
   1255000   0.052639391   -1.08174        0.045699201   -0.95713261     0.012280768  
   1256000   0.050845163   -1.0834936      0.047041281   -0.96023378     0.010060499  
   1257000   0.052549754   -1.0833327      0.045696244   -0.95886264     0.0067117954 
   1258000   0.051178981   -1.0812608      0.043503726   -0.96103815     0.020888269  
   1259000   0.053204518   -1.0825379      0.048257698   -0.95452493     0.016236437  
   1260000   0.052404568   -1.0825729      0.045977128   -0.95803966     0.0083804475 
   1261000   0.050785368   -1.085283       0.044602697   -0.96455138     0.0072797349 
   1262000   0.049972739   -1.0858454      0.044462772   -0.96647184    -0.0026228435 
   1263000   0.050133795   -1.0851814      0.044860939   -0.96516833     0.0043514998 
   1264000   0.050848234   -1.0843302      0.044729219   -0.9633778     -0.0044454261 
   1265000   0.05293109    -1.0844439      0.043747213   -0.96135131     0.0076232781 
   1266000   0.049560511   -1.0853966      0.048210416   -0.96289334     0.0030410422 
   1267000   0.050346422   -1.0849046      0.044727383   -0.96470629     0.0026286273 
   1268000   0.05072256    -1.083485       0.046401043   -0.96104925     0.0011585675 
   1269000   0.051271786   -1.0849167      0.045147226   -0.9629114     -0.0038710852 
   1270000   0.052885901   -1.0829015      0.044305096   -0.95931878     0.010431994  
   1271000   0.051840113   -1.0846352      0.046369895   -0.96055534    -0.00054073837
   1272000   0.051618366   -1.0852574      0.047005918   -0.96087393    -0.0059616472 
   1273000   0.051135517   -1.0849329      0.046582711   -0.96169637    -0.003186915  
   1274000   0.049418326   -1.0860478      0.045829908   -0.96613823    -0.013912585  
   1275000   0.048693586   -1.0850892      0.044335825   -0.9677601     -0.0029865624 
   1276000   0.051510075   -1.086437       0.044669392   -0.96455238    -0.0076762772 
   1277000   0.052159146   -1.0851952      0.045261338   -0.96174565    -0.002200549  
   1278000   0.051712169   -1.0855073      0.044506616   -0.96348243     0.0051994997 
   1279000   0.051831644   -1.0853284      0.044660598   -0.96297049     0.0026664471 
   1280000   0.051135572   -1.0862975      0.046090936   -0.96355265    -0.010372962  
   1281000   0.05211083    -1.0861209      0.044487606   -0.96351747    -0.0094180005 
   1282000   0.051860668   -1.0854728      0.046858639   -0.96087333     0.0065228004 
   1283000   0.051536013   -1.0850286      0.04710458    -0.96066986     0.001835136  
   1284000   0.052684379   -1.0880765      0.045806348   -0.96329453     0.012344927  
   1285000   0.050211107   -1.0877336      0.046487818   -0.96597767     0.0060854755 
   1286000   0.051446598   -1.0866914      0.043846787   -0.96572451     0.0063678293 
   1287000   0.051556101   -1.0884049      0.046805131   -0.96431556    -0.012416122  
   1288000   0.05191158    -1.0847324      0.047482278   -0.95943295    -0.0012909444 
   1289000   0.050685034   -1.0860708      0.04628437    -0.96380791    -0.012859815  
   1290000   0.050396708   -1.0872747      0.047220263   -0.96450813    -0.0013300372 
   1291000   0.050563848   -1.0861864      0.045863191   -0.96452636     0.0023173872 
   1292000   0.050798837   -1.0866241      0.045483159   -0.96499183    -0.0041422096 
   1293000   0.050256451   -1.0866548      0.04386116    -0.96745762     0.017528467  
   1294000   0.050590309   -1.0867983      0.044981422   -0.96598035    -0.0086063754 
   1295000   0.053278959   -1.0872774      0.045918832   -0.96149171     0.0076507556 
   1296000   0.050260266   -1.0870237      0.044172737   -0.96750921     0.0072983192 
   1297000   0.052346496   -1.0875006      0.045705597   -0.96332593    -0.0025329336 
   1298000   0.053020172   -1.0871735      0.045716661   -0.96197785     0.005043731  
   1299000   0.050973238   -1.08663        0.046106671   -0.96411284    -0.00019923347
   1300000   0.051737594   -1.0851826      0.043529564   -0.96409676     0.017436672  
   1301000   0.05206368    -1.0862197      0.046658487   -0.96151604    -0.00087372063
   1302000   0.052903421   -1.0864376      0.045780911   -0.9613528      0.00044717392
   1303000   0.050611537   -1.0865096      0.047895392   -0.96274587    -0.00057376644
   1304000   0.049478424   -1.0861103      0.047228249   -0.96471232    -0.00496161   
   1305000   0.051422643   -1.0865616      0.045215044   -0.96426235     0.010303785  
   1306000   0.051380054   -1.0871532      0.045386565   -0.9647463     -0.014021329  
   1307000   0.051470198   -1.0853149      0.044737515   -0.96342188    -0.00098983878
   1308000   0.050941177   -1.0872856      0.04427597    -0.96664717    -0.0089216859 
   1309000   0.053161492   -1.0861745      0.045364228   -0.96111953    -0.011780189  
   1310000   0.053730269   -1.0868917      0.046473554   -0.95987473     0.0035751367 
   1311000   0.051240982   -1.0869296      0.044508008   -0.96560975    -0.0015095228 
   1312000   0.052443834   -1.0871331      0.045981262   -0.96253681    -0.00030805749
   1313000   0.051920835   -1.0881578      0.043230798   -0.96709603    -0.0019363259 
   1314000   0.051431075   -1.0884124      0.046113486   -0.9652021     -0.0084683037 
   1315000   0.051740953   -1.0849353      0.047716923   -0.95965698     0.0053234069 
   1316000   0.051805789   -1.0858226      0.044824956   -0.96333911    -0.0036009187 
   1317000   0.05340635    -1.0869879      0.046234094   -0.96069593    -0.0028580543 
   1318000   0.051554479   -1.0855095      0.045546688   -0.96268103     0.0066466957 
   1319000   0.050873743   -1.0878067      0.046105322   -0.96544003     0.0041695    
   1320000   0.052234418   -1.0905732      0.047480284   -0.96479188    -0.01082347   
   1321000   0.053656024   -1.090134       0.045596068   -0.96410581     0.0021606437 
   1322000   0.052390222   -1.0920262      0.044510483   -0.96898112    -0.0011023104 
   1323000   0.049068981   -1.092383       0.048658257   -0.97016874    -0.014176963  
   1324000   0.0510953     -1.0914931      0.044426651   -0.97047299     0.0012590447 
   1325000   0.051961905   -1.0914759      0.045025065   -0.96855828    -0.0033232671 
   1326000   0.050435381   -1.0893836      0.044043348   -0.96973596     0.00082814097
   1327000   0.049560711   -1.091235       0.045737803   -0.97120409    -0.0081166961 
   1328000   0.051370519   -1.0908329      0.045033649   -0.96879323    -0.0024036708 
   1329000   0.050260798   -1.0899383      0.044082644   -0.97051311    -0.010372139  
   1330000   0.050500723   -1.0916572      0.046457387   -0.96949756     0.00010450625
   1331000   0.052143579   -1.0912122      0.044133612   -0.96891364     0.0001993264 
   1332000   0.051814046   -1.0916304      0.046415468   -0.96754403     0.00093673921
   1333000   0.048935196   -1.0902546      0.044012121   -0.97288707    -0.0030093218 
   1334000   0.050272623   -1.0908971      0.044264104   -0.9712727      0.00019404862
   1335000   0.051074831   -1.0926715      0.045956326   -0.97015237    -0.0077838756 
   1336000   0.051012667   -1.0919108      0.04322203    -0.97221909    -0.0093687333 
   1337000   0.050384306   -1.0912795      0.046937366   -0.96881443     0.0060651651 
   1338000   0.050088871   -1.0908924      0.047987246   -0.96782033     0.00088640722
   1339000   0.051469027   -1.0913267      0.046729301   -0.9674437     -0.0066260709 
   1340000   0.051860246   -1.0920928      0.046468004   -0.96788464     0.0026443688 
   1341000   0.05207847    -1.0905354      0.045199068   -0.96726903     0.0057905097 
   1342000   0.051632087   -1.0917867      0.04706723    -0.96732126    -0.00033659035
   1343000   0.051307036   -1.092008       0.046327465   -0.9687696     -0.0022375186 
   1344000   0.050791853   -1.0921711      0.045536454   -0.97049602    -0.000161973  
   1345000   0.052680163   -1.0916685      0.045631664   -0.96706757    -0.0051196407 
   1346000   0.053223256   -1.0933104      0.044922369   -0.96860467    -0.012803902  
   1347000   0.051323065   -1.0930123      0.04550803    -0.97056931    -0.0038755738 
   1348000   0.05318602    -1.0945892      0.046401045   -0.96846061     0.00010901124
   1349000   0.050804194   -1.0939636      0.048038357   -0.96976807    -0.0015672449 
   1350000   0.053392543   -1.0949106      0.046344188   -0.96852929    -0.0040251816 
   1351000   0.052520331   -1.0954677      0.048494275   -0.96824373     0.0005473382 
   1352000   0.050783989   -1.0948616      0.048371014   -0.97036375    -0.0026345802 
   1353000   0.051974658   -1.0949534      0.046272068   -0.97076962    -0.0012849279 
   1354000   0.050578468   -1.0972557      0.04698534    -0.9744516     -0.0055245738 
   1355000   0.052312209   -1.0951974      0.043995134   -0.97278461    -0.006123258  
   1356000   0.051649813   -1.0949514      0.045336627   -0.97219001    -0.00030305843
   1357000   0.051147709   -1.0973938      0.045732646   -0.97498906    -0.0017202883 
   1358000   0.053001205   -1.0952765      0.048773806   -0.96705217     0.0013716879 
   1359000   0.049968999   -1.0976197      0.04786704    -0.97484748    -0.006391271  
   1360000   0.050262312   -1.0966195      0.046573796   -0.9747009      0.007646215  
   1361000   0.052562395   -1.0962866      0.04566654    -0.97182732     0.0055286409 
   1362000   0.052109043   -1.0974761      0.048426343   -0.97093658    -0.012745341  
   1363000   0.051291862   -1.0964128      0.045623295   -0.97390132    -0.018317277  
   1364000   0.050971954   -1.0967234      0.046319999   -0.97399483    -0.00092437143
   1365000   0.051714732   -1.0961149      0.043400178   -0.97519266    -0.0080062267 
   1366000   0.050602131   -1.0971012      0.044638678   -0.97660834    -0.01318065   
   1367000   0.050394197   -1.0964168      0.046115972   -0.97475833    -0.012334159  
   1368000   0.05172758    -1.0971355      0.045446447   -0.97414775    -0.0071537711 
   1369000   0.052239914   -1.0965698      0.044937204   -0.97332326    -0.010743247  
   1370000   0.05066068    -1.0973134      0.045246514   -0.97612486    -0.010763766  
   1371000   0.050393311   -1.0978486      0.046806679   -0.97550076     0.0051455699 
   1372000   0.050098672   -1.0959864      0.044535105   -0.97635182    -0.0047455001 
   1373000   0.052051029   -1.097353       0.045546236   -0.97378062    -0.0046173908 
   1374000   0.052955688   -1.0992053      0.044991322   -0.97483171    -0.0060068146 
   1375000   0.052579754   -1.0973739      0.043093641   -0.97546153    -0.0036255927 
   1376000   0.050501739   -1.0980452      0.0465798     -0.97576167    -0.00072407712
   1377000   0.050741793   -1.1006308      0.046832637   -0.97773463    -0.0088846245 
   1378000   0.051291643   -1.0976886      0.043620386   -0.97718043     0.0014518937 
   1379000   0.051390471   -1.100189       0.04561284    -0.97754015     0.0033033496 
   1380000   0.050752356   -1.0982999      0.046240438   -0.97598003    -0.0046985974 
   1381000   0.050607034   -1.100407       0.044374768   -0.98017061    -0.0012269014 
   1382000   0.050023244   -1.0996487      0.045476339   -0.97918586     0.0019549993 
   1383000   0.053032119   -1.0999638      0.045372614   -0.97509435    -0.0059397709 
   1384000   0.052342403   -1.0998167      0.045642963   -0.97571082     0.0013582483 
   1385000   0.050042401   -1.0986973      0.045712878   -0.97796922    -0.0015409672 
   1386000   0.049568065   -1.0993135      0.04293624    -0.98207309    -0.011436557  
   1387000   0.050942527   -1.0990744      0.043698324   -0.97901159    -0.0017438341 
   1388000   0.050958122   -1.1001077      0.042814958   -0.9809049      0.0071804537 
   1389000   0.049723873   -1.0994309      0.045034678   -0.97985851    -0.013545213  
   1390000   0.051860467   -1.0983454      0.044599676   -0.97600525     0.00022624757
   1391000   0.050392486   -1.0991081      0.04337956    -0.9801886      0.010436966  
   1392000   0.050998639   -1.100375       0.043915229   -0.98001119     0.015741705  
   1393000   0.050712363   -1.1015728      0.045447315   -0.98010598     0.017817543  
   1394000   0.050787836   -1.1000045      0.043725769   -0.98014617     0.012302463  
   1395000   0.050993362   -1.0998329      0.044533822   -0.97885842    -0.0018307551 
   1396000   0.051704811   -1.0981333      0.045484896   -0.97514123     0.0039624959 
   1397000   0.049327723   -1.0995776      0.045351625   -0.9802821      0.0057314391 
   1398000   0.051438297   -1.0992962      0.045769822   -0.9764187      0.00053549091
   1399000   0.052859289   -1.1000078      0.046496545   -0.97427348     0.010445468  
   1400000   0.052962117   -1.1008182      0.047578687   -0.9738476     -0.011617434  
   1401000   0.051039387   -1.1003861      0.046858187   -0.97701827     0.0017046742 
   1402000   0.051340417   -1.0991311      0.044185851   -0.97798434     0.014496378  
   1403000   0.054316216   -1.1010852      0.045313386   -0.97435001     0.011188358  
   1404000   0.050872484   -1.1006091      0.044773082   -0.97957655     0.0039914249 
   1405000   0.052687123   -1.1009834      0.045383689   -0.97662004    -0.0024211043 
   1406000   0.053234853   -1.0995075      0.045856403   -0.97385038     0.0054849732 
   1407000   0.052173847   -1.1002715      0.045766845   -0.97629441    -0.0034955106 
   1408000   0.051249993   -1.1007348      0.044306394   -0.97960305     0.0012928854 
   1409000   0.049420273   -1.1001556      0.041875328   -0.98419765     0.0031473596 
   1410000   0.05316679    -1.0989986      0.045254835   -0.974045       0.017624138  
   1411000   0.051228715   -1.1018629      0.046075234   -0.97899412     0.013688551  
   1412000   0.05193689    -1.1003732      0.044162624   -0.97835555     0.016754386  
   1413000   0.052485797   -1.1013464      0.045283281   -0.97738518     0.011218582  
   1414000   0.051495123   -1.102014       0.046483526   -0.97833762     0.010950013  
   1415000   0.051514198   -1.0981169      0.044091931   -0.97680356     0.025779234  
   1416000   0.05103501    -1.1012237      0.045537618   -0.97918295     0.0049986067 
   1417000   0.050972403   -1.0997714      0.043407326   -0.97995481     0.0077857488 
   1418000   0.051929631   -1.10168        0.044210203   -0.97962558    -6.0655687e-05
   1419000   0.051006993   -1.1000185      0.044173655   -0.97938376    -0.0012234055 
   1420000   0.050099467   -1.1006525      0.043224452   -0.98232733     0.0015502059 
   1421000   0.05216429    -1.1013022      0.044264936   -0.97884132     0.025658168  
   1422000   0.050452858   -1.1008104      0.043282584   -0.98189739     0.00039174127
   1423000   0.051219404   -1.1007859      0.043727206   -0.98027912     0.0013181547 
   1424000   0.052696731   -1.0988592      0.045028586   -0.97483647     0.014316802  
   1425000   0.053258566   -1.1026666      0.046734367   -0.97609595     0.0064215732 
   1426000   0.051887273   -1.1016551      0.044370679   -0.97950371    -0.0045729521 
   1427000   0.050001115   -1.1005219      0.045441562   -0.98012707     0.0025394216 
   1428000   0.051080605   -1.101792       0.045421597   -0.97979894    -0.0022478028 
   1429000   0.052343461   -1.1011167      0.045637631   -0.97701449    -0.0047347821 
   1430000   0.050731223   -1.0999293      0.047295415   -0.97658617     0.0038400873 
   1431000   0.05129749    -1.1013286      0.046362247   -0.97806977     0.0025298044 
   1432000   0.050895368   -1.1006411      0.04498972    -0.97935762     0.0058372105 
   1433000   0.051212979   -1.1012914      0.047433312   -0.97708815     0.002528786  
   1434000   0.049541458   -1.0994453      0.044866381   -0.98031465    -0.0014553322 
   1435000   0.050824821   -1.1001127      0.045252178   -0.97867247     0.0053549506 
   1436000   0.050180331   -1.1007501      0.045058519   -0.98046967     0.0070099534 
   1437000   0.052239887   -1.1004894      0.042489483   -0.9796906      0.00012266703
   1438000   0.049853034   -1.1000056      0.043620556   -0.98165371     0.0045665501 
   1439000   0.049159393   -1.1004619      0.045119794   -0.98165055     0.013414322  
   1440000   0.05182914    -1.100838       0.045714335   -0.97743011     0.0087357813 
   1441000   0.052519545   -1.0997525      0.044611577   -0.97641241     0.0076356782 
   1442000   0.050929349   -1.098878       0.044716035   -0.97781724    -0.0033421645 
   1443000   0.050244037   -1.1005297      0.046363251   -0.97884904     0.0032834107 
   1444000   0.05083414    -1.101968       0.044364803   -0.98140116     0.0060072791 
   1445000   0.05032544    -1.1005774      0.045643217   -0.97949477    -0.0042479577 
   1446000   0.051970238   -1.1011387      0.04709177    -0.9761419      0.0018054257 
   1447000   0.053180987   -1.1012588      0.044331554   -0.97720722    -0.0060962028 
   1448000   0.052166903   -1.1009219      0.04678231    -0.97593974     0.0021261503 
   1449000   0.048981798   -1.0998347      0.043675726   -0.98273373     0.0021324271 
   1450000   0.051482162   -1.1010192      0.043363941   -0.98048185     0.003682076  
   1451000   0.05112681    -1.1010368      0.047103018   -0.97729307    -0.0033757868 
   1452000   0.051142092   -1.1009381      0.045607758   -0.97866665     0.0035497576 
   1453000   0.051270696   -1.1002715      0.046004978   -0.97741011     0.0038006713 
   1454000   0.052639416   -1.0987099      0.044620653   -0.97518108     0.0092707362 
   1455000   0.052432253   -1.0996217      0.045818273   -0.97520575     0.0025827502 
   1456000   0.050830899   -1.0996503      0.043258001   -0.98019513     0.0085483443 
   1457000   0.050647944   -1.0994041      0.045852273   -0.9776289     -0.001015653  
   1458000   0.052464067   -1.0989894      0.047356611   -0.97298745     0.0053168159 
   1459000   0.051547446   -1.1012146      0.046935726   -0.97700755     0.0034097692 
   1460000   0.050715092   -1.1002895      0.044341129   -0.97992482    -0.0031752106 
   1461000   0.051570039   -1.1002002      0.044911504   -0.97798353     0.0099229722 
   1462000   0.052449336   -1.0987887      0.045978561   -0.97418688     0.0019602495 
   1463000   0.051486022   -1.0991706      0.045113041   -0.97687838     0.0011211635 
   1464000   0.05359413    -1.1000188      0.04604517    -0.97363431     0.0029566557 
   1465000   0.051945903   -1.1014649      0.045891614   -0.97770468     0.0041943212 
   1466000   0.051252911   -1.102445       0.044543867   -0.98107139     0.0037706427 
   1467000   0.049989234   -1.1021466      0.045057141   -0.98215402    -0.00017393088
   1468000   0.051775615   -1.1018805      0.043858158   -0.98040902     0.013757635  
   1469000   0.049683496   -1.1026443      0.04511418    -0.98305296     0.0087442551 
   1470000   0.050926122   -1.1013806      0.044825213   -0.98021553     0.013008632  
   1471000   0.05114704    -1.103555       0.043597418   -0.98328647     0.0042893143 
   1472000   0.051080276   -1.104062       0.044002729   -0.98348832     0.0068005039 
   1473000   0.052913358   -1.1032592      0.042811154   -0.98112918    -0.0065530248 
   1474000   0.051514687   -1.1056386      0.044874109   -0.98354235     0.0022158151 
   1475000   0.051832279   -1.1068287      0.045136316   -0.9839941      0.0071524612 
   1476000   0.051172709   -1.1074785      0.046913018   -0.98385591     0.0018654578 
   1477000   0.052676613   -1.1084518      0.047681974   -0.9818059      0.00025479905
   1478000   0.05265088    -1.1062841      0.046879822   -0.98047893     0.0085892243 
   1479000   0.052946299   -1.1072496      0.048035161   -0.97984619     0.00064351853
   1480000   0.05252218    -1.1082667      0.046040812   -0.98349346    -0.008549188  
   1481000   0.05131599    -1.1068476      0.045545217   -0.98437806     0.0027289323 
   1482000   0.052686257   -1.1089445      0.044630461   -0.98533561    -0.0019198163 
   1483000   0.051484097   -1.1081695      0.045702698   -0.98529049     0.004285226  
   1484000   0.051719939   -1.1089353      0.046605888   -0.98479959     0.017192261  
   1485000   0.051741047   -1.1081269      0.043253021   -0.98731243     0.010402424  
   1486000   0.051905626   -1.1073001      0.043742181   -0.98574973     0.0068889429 
   1487000   0.05181335    -1.1071842      0.045606439   -0.98390786     0.0052082607 
   1488000   0.048492568   -1.108178       0.047275572   -0.98821047    -0.0066835877 
   1489000   0.050533819   -1.1075321      0.047820629   -0.98395966    -0.0052609625 
   1490000   0.053416822   -1.1077432      0.045610283   -0.98205942     0.0054074471 
   1491000   0.053355679   -1.1091166      0.04760067    -0.98153405    -0.0067371986 
   1492000   0.051582236   -1.1079441      0.047915724   -0.9827049      0.0065946683 
   1493000   0.052823246   -1.1079001      0.043803778   -0.98491256     0.0027788475 
   1494000   0.051947392   -1.1077225      0.04317982    -0.98667186    -0.0082067064 
   1495000   0.051788611   -1.1076083      0.045031771   -0.98494375     0.0042018116 
   1496000   0.051078248   -1.1080002      0.045812131   -0.98562016     0.0040154505 
   1497000   0.053231999   -1.1076545      0.044322025   -0.98353595    -0.0036108254 
   1498000   0.052173923   -1.1062058      0.045840408   -0.98215497     0.00059736971
   1499000   0.050341783   -1.1074933      0.045282599   -0.98674676     0.0042152838 
   1500000   0.05328371    -1.106721       0.04587729    -0.98096969     0.0061481406 
   1501000   0.051862922   -1.1077484      0.046004711   -0.98399945    -0.0030741465 
   1502000   0.051135038   -1.1073114      0.046131596   -0.98452674     0.0028306719 
   1503000   0.051488536   -1.1074075      0.045527704   -0.98469683    -0.0019348063 
   1504000   0.051714746   -1.1075146      0.047028843   -0.98296366     0.0071232334 
   1505000   0.049472089   -1.1080128      0.047617656   -0.98623487    -0.0028398672 
   1506000   0.050248713   -1.108908       0.044576721   -0.98900687     0.0070252585 
   1507000   0.049000398   -1.1094562      0.045399311   -0.99060368     0.0024725437 
   1508000   0.053228137   -1.109925       0.044369526   -0.98576478     0.0035172347 
   1509000   0.052786565   -1.1099894      0.046688917   -0.98417169    -0.010738743  
   1510000   0.050923876   -1.1085788      0.045785658   -0.98645658     0.01767619   
   1511000   0.052206927   -1.1072603      0.046561433   -0.98243901     0.0060676808 
   1512000   0.051178      -1.1086386      0.04562662    -0.98629446     0.0064305781 
   1513000   0.051798357   -1.1116169      0.0454416     -0.9885279     -0.012486599  
   1514000   0.051463454   -1.1118078      0.046453467   -0.98820893     0.0019384626 
   1515000   0.051432261   -1.1143109      0.046601583   -0.99061074    -0.013347469  
   1516000   0.050767655   -1.1150867      0.046634106   -0.99235024    -0.0011371126 
   1517000   0.050149371   -1.111594       0.044385685   -0.99203281     0.0063551379 
   1518000   0.051883718   -1.1126664      0.044891535   -0.98999948     0.0066234473 
   1519000   0.050554675   -1.1113757      0.044508169   -0.99108442     0.00020603714
   1520000   0.050845304   -1.1099029      0.04457368    -0.98911051     0.011549206  
   1521000   0.052595356   -1.1121781      0.048158971   -0.98517702     0.014136493  
   1522000   0.051464178   -1.1112212      0.045295384   -0.98877939     0.0077327869 
   1523000   0.05333513    -1.1130822      0.046997358   -0.9861338     -0.0056624626 
   1524000   0.05232548    -1.1132469      0.047475065   -0.98733427     0.0039551372 
   1525000   0.052380923   -1.112827       0.047686057   -0.98662022    -0.0036004319 
   1526000   0.051113295   -1.1131499      0.046866002   -0.9896634      0.0029753318 
   1527000   0.048810255   -1.1128968      0.046763655   -0.99296503     0.0020309114 
   1528000   0.052313552   -1.1119063      0.045611625   -0.987875       0.012013427  
   1529000   0.05063754    -1.1130753      0.047433381   -0.98973459     0.0028316679 
   1530000   0.051835159   -1.1121264      0.046809731   -0.98761413    -0.0055381455 
   1531000   0.051333135   -1.1103481      0.046719545   -0.98667857     0.0010041135 
   1532000   0.051961775   -1.1143045      0.045285392   -0.99112671     0.0025380882 
   1533000   0.052298505   -1.1129371      0.048159889   -0.98638002     0.0060490799 
   1534000   0.051648918   -1.1122724      0.048010004   -0.98683901    -0.0033882906 
   1535000   0.050082184   -1.1133713      0.047044569   -0.99125196     0.0070666721 
   1536000   0.050456097   -1.1115586      0.045789725   -0.99013351     3.0767521e-05
   1537000   0.051072231   -1.1118663      0.046779976   -0.98852745     0.016483851  
   1538000   0.051682902   -1.112969       0.047680468   -0.98781419     0.0058228233 
   1539000   0.053677484   -1.1103826      0.045760153   -0.98415819     0.0028471025 
   1540000   0.049569187   -1.1127764      0.047938209   -0.99053237     0.0026764089 
   1541000   0.051606694   -1.1124663      0.048035518   -0.98707068    -0.0014715552 
   1542000   0.051251934   -1.1111402      0.045515534   -0.9887964      0.0089540859 
   1543000   0.04898365    -1.1115122      0.043772398   -0.99431174     0.018312831  
   1544000   0.052155351   -1.1129126      0.047893407   -0.98683664     0.011079213  
   1545000   0.052484178   -1.1130329      0.047138884   -0.98721849     0.011134916  
   1546000   0.051547347   -1.1116531      0.046059284   -0.98832266     0.026084287  
   1547000   0.051296366   -1.1117512      0.045261938   -0.98959436     0.018818716  
   1548000   0.050507662   -1.1108185      0.046193743   -0.98891219     0.02613494   
   1549000   0.051251253   -1.1121988      0.04718493    -0.98818659     0.0076004303 
   1550000   0.052538646   -1.1103818      0.048794248   -0.98283046    -0.00095033454
   1551000   0.052901447   -1.112881       0.048724293   -0.98485572     0.0089608212 
   1552000   0.050152245   -1.1110973      0.049455692   -0.98646182    -0.00089053847
   1553000   0.050407844   -1.1147782      0.048533117   -0.99068212     0.0022055931 
   1554000   0.051260339   -1.1145969      0.045963545   -0.99179249     0.0022617303 
   1555000   0.052106401   -1.1147282      0.048595457   -0.98802359     0.003475521  
   1556000   0.052790658   -1.1147872      0.048156985   -0.98749536     0.0033969816 
   1557000   0.053573911   -1.1166661      0.047590892   -0.98876619    -0.0019935323 
   1558000   0.051592284   -1.1156049      0.049781163   -0.98848519     0.0051973057 
   1559000   0.052153009   -1.116443       0.046115543   -0.99214839     0.005158336  
   1560000   0.051711543   -1.1166395      0.047804879   -0.99131737     0.0016430008 
   1561000   0.052688766   -1.1164274      0.045920378   -0.9915249      0.0034333703 
   1562000   0.051883867   -1.1166653      0.047773059   -0.99111667     0.0087914103 
   1563000   0.05020745    -1.1163449      0.047995032   -0.99308733    -0.0062729751 
   1564000   0.051960126   -1.1182272      0.048167429   -0.99216991    -0.0082996316 
   1565000   0.050307368   -1.1169599      0.048232173   -0.99331531    -0.0014940675 
   1566000   0.05224117    -1.1167511      0.045994379   -0.99244549     0.0015328107 
   1567000   0.051285248   -1.1190437      0.044146379   -0.99801912    -0.0012393325 
   1568000   0.048326228   -1.118502       0.046182148   -0.99987732     0.0061865225 
   1569000   0.052849946   -1.1176418      0.045503522   -0.99291447     0.0099909844 
   1570000   0.051213013   -1.1179661      0.045370445   -0.99582568     0.0093432007 
   1571000   0.051963173   -1.1174081      0.047671545   -0.99184208     0.013962459  
   1572000   0.05410114    -1.1179631      0.046705556   -0.99015823     0.0089633299 
   1573000   0.053905256   -1.1176648      0.043770386   -0.99308874     0.011080401  
   1574000   0.049823751   -1.117863       0.046086802   -0.99708877    -0.003111769  
   1575000   0.050662493   -1.1183811      0.045989017   -0.99644734     0.008731859  
   1576000   0.051224491   -1.1183296      0.042906525   -0.9986359     -0.0013698934 
   1577000   0.050247395   -1.1193919      0.047474152   -0.99659523     0.011449731  
   1578000   0.051317096   -1.118157       0.046070889   -0.99516013     0.0034170472 
   1579000   0.050549392   -1.1184341      0.04582565    -0.99683324     0.0073808464 
   1580000   0.049802492   -1.1173532      0.047241315   -0.99545637    -0.0013319327 
   1581000   0.050489315   -1.1188308      0.04692859    -0.9962171      0.00088904417
   1582000   0.05083656    -1.1181621      0.046941266   -0.9950152      0.012560432  
   1583000   0.050011081   -1.1172306      0.047739906   -0.99452247     0.0093189272 
   1584000   0.052287704   -1.1175962      0.044752984   -0.99446222     0.0066080645 
   1585000   0.049722553   -1.1190378      0.045910651   -0.99859142    -0.0008588267 
   1586000   0.049641747   -1.1161312      0.045330564   -0.9963861      0.0023988708 
   1587000   0.05118828    -1.1190954      0.04532562    -0.99703688     0.00592978   
   1588000   0.051912713   -1.1163592      0.044303717   -0.99423661     0.020724762  
   1589000   0.051449958   -1.1158496      0.04593154    -0.9927929      0.0020413641 
   1590000   0.049649693   -1.117463       0.047764725   -0.99527177     0.00044580672
   1591000   0.050419589   -1.1181052      0.047035692   -0.99548889     0.0043810689 
   1592000   0.051317619   -1.1153299      0.044263526   -0.99413961    -0.00039426676
   1593000   0.050358444   -1.117533       0.047248599   -0.99479544    -0.0015382422 
   1594000   0.053557429   -1.1173177      0.046949487   -0.99008391     0.0048770098 
   1595000   0.052417782   -1.1168302      0.045478301   -0.99277597     0.010265007  
   1596000   0.052916497   -1.1179996      0.045666382   -0.99300973    -0.0017772516 
   1597000   0.051187016   -1.1173294      0.046504339   -0.99409409    -0.0058560828 
   1598000   0.052502726   -1.1165058      0.046836483   -0.99096605     0.0066397946 
   1599000   0.052131964   -1.1172907      0.045298516   -0.99384471    -0.0020920061 
   1600000   0.051144654   -1.1168664      0.044679265   -0.9955197      0.015389868  
   1601000   0.050832882   -1.1171499      0.047000487   -0.99394923     0.0032000197 
   1602000   0.050975041   -1.1177568      0.045914925   -0.9954286      0.0098124565 
   1603000   0.051817135   -1.1181643      0.044403732   -0.99608502     0.0047590746 
   1604000   0.051169047   -1.1177115      0.044886991   -0.99612041     0.0026170124 
   1605000   0.050917745   -1.1186003      0.04546908    -0.99680385    -0.0040257225 
   1606000   0.050588189   -1.1173457      0.045724823   -0.99578752     0.0097006252 
   1607000   0.050371681   -1.1184052      0.045798466   -0.99709798     0.0056439917 
   1608000   0.05121779    -1.116718       0.045257473   -0.99468339     0.0025820708 
   1609000   0.05018001    -1.1162124      0.046593272   -0.99439769     0.0076352476 
   1610000   0.050223314   -1.1175049      0.045968353   -0.99625021     0.010721469  
   1611000   0.051174457   -1.1177508      0.044550958   -0.99648767     0.0057582766 
   1612000   0.051987775   -1.1188373      0.04452179    -0.99638418     0.024956779  
   1613000   0.049672428   -1.1179384      0.04412786    -0.99934995     0.0036256326 
   1614000   0.052152576   -1.1181469      0.045167791   -0.99480068     0.010330744  
   1615000   0.05087204    -1.1184065      0.046270012   -0.99587763    -0.0065908866 
   1616000   0.052126905   -1.1165816      0.046348719   -0.99209301     0.0010490648 
   1617000   0.049858759   -1.1177346      0.045649336   -0.99734533    -0.0035964707 
   1618000   0.051294244   -1.1198198      0.047575702   -0.99535233     0.0061265752 
   1619000   0.05094683    -1.1163149      0.046637595   -0.99330641    -0.00083080486
   1620000   0.051238303   -1.1179567      0.045400761   -0.99574805     0.0065744087 
   1621000   0.050471013   -1.1175158      0.045695359   -0.9961628      0.003956962  
   1622000   0.050782822   -1.1167741      0.044938251   -0.99571078    -0.010890825  
   1623000   0.05083392    -1.1173685      0.045174305   -0.99599252     0.003965616  
   1624000   0.05149953    -1.1183379      0.045900429   -0.99523799    -0.0050952179 
   1625000   0.053255994   -1.1176891      0.045225056   -0.99263163     0.0077960156 
   1626000   0.053292275   -1.1181903      0.046218431   -0.99208503     0.0034018198 
   1627000   0.052897229   -1.1175951      0.045628437   -0.99267198     0.017755698  
   1628000   0.051426297   -1.1179184      0.044228667   -0.99660008     0.0050851969 
   1629000   0.052125516   -1.1192005      0.045642394   -0.99542024     0.0055820048 
   1630000   0.049230534   -1.1186521      0.048196885   -0.99665708    -0.0051588806 
   1631000   0.052243178   -1.1183633      0.045759316   -0.99428978     0.0041523308 
   1632000   0.050292914   -1.1197728      0.048976235   -0.9954059     -0.00554535   
   1633000   0.051808679   -1.117983       0.046368063   -0.99395207    -0.004680821  
   1634000   0.050344881   -1.1196036      0.046936592   -0.99719838    -0.0094059711 
   1635000   0.051350489   -1.1199985      0.04768192    -0.9953405     -0.0010553202 
   1636000   0.052088196   -1.1186311      0.046847839   -0.99370141     0.0038278363 
   1637000   0.050258861   -1.1181744      0.046199775   -0.99663494     0.0087891954 
   1638000   0.051607028   -1.1202041      0.044543222   -0.9983003      0.011773017  
   1639000   0.053712087   -1.1196281      0.047738054   -0.9913739      0.0011136105 
   1640000   0.050343021   -1.119628       0.044268201   -0.99989401     0.0043638625 
   1641000   0.051513821   -1.1213962      0.046784683   -0.99739064     0.0018414221 
   1642000   0.051344346   -1.1196975      0.043805546   -0.99892515     0.0092852102 
   1643000   0.048813594   -1.1208863      0.043812178   -1.0039009     -0.0029396865 
   1644000   0.050890666   -1.1191845      0.045386315   -0.99751142     0.0029858138 
   1645000   0.050217593   -1.1174057      0.045868434   -0.99625951     0.011335918  
   1646000   0.050337584   -1.1191082      0.046199329   -0.99745124     0.003444989  
   1647000   0.050422968   -1.1217225      0.046045293   -1.0000916      0.0045421347 
   1648000   0.050217566   -1.120659       0.04630053    -0.99908074     0.013441077  
   1649000   0.053044449   -1.1210482      0.046430407   -0.9951025      0.0011849732 
   1650000   0.052193542   -1.1216825      0.046979573   -0.99646314     0.00657662   
   1651000   0.052434218   -1.1213419      0.047707772   -0.99503359    -0.0044159488 
   1652000   0.049429369   -1.1210434      0.044910691   -1.0020365     -0.0070647372 
   1653000   0.052777419   -1.1227073      0.046258474   -0.99733373     0.0028543152 
   1654000   0.051760994   -1.1218406      0.048758617   -0.99549059     0.0026048526 
   1655000   0.051941162   -1.1211596      0.048105591   -0.99519255     0.0024955798 
   1656000   0.053003647   -1.1221737      0.04868619    -0.99403331     0.010094056  
   1657000   0.05249745    -1.122396       0.04710676    -0.99659385     0.010728231  
   1658000   0.051992985   -1.1240258      0.046553189   -0.99953341    -0.01044577   
   1659000   0.049982639   -1.1228817      0.0468317     -1.0011244     -0.0062534381 
   1660000   0.050444543   -1.1241307      0.046977605   -1.0015351     -0.00061950042
   1661000   0.050453962   -1.1236761      0.047522279   -1.0005217     -0.0009036593 
   1662000   0.05169222    -1.1239229      0.048919066   -0.99751555    -0.0066696748 
   1663000   0.050421109   -1.1220046      0.046784009   -0.99963768    -0.0040106605 
   1664000   0.05208347    -1.1223744      0.04578297    -0.99851662     0.0070276459 
   1665000   0.051761414   -1.1239688      0.046943428   -0.99943334     0.0042561447 
   1666000   0.050839507   -1.1228546      0.04635498    -1.0002895      0.0042383867 
   1667000   0.052011582   -1.1217921      0.045981043   -0.99784403     0.0014822069 
   1668000   0.052059425   -1.1215863      0.047640599   -0.99590693     0.0016311508 
   1669000   0.051448027   -1.1219582      0.045805225   -0.99903073    -0.0038324545 
   1670000   0.050752861   -1.1216116      0.045318968   -1.0002124     -0.00045457623
   1671000   0.051902441   -1.122862       0.048527206   -0.99653135     0.00033710452
   1672000   0.049440294   -1.1213891      0.046666431   -1.0006101     -0.00616284   
   1673000   0.050260762   -1.1228964      0.046440415   -1.0011135      0.0048281012 
   1674000   0.050890825   -1.1225413      0.046111105   -1.0001432     -0.0079142927 
   1675000   0.05137766    -1.1228952      0.045993524   -0.99988486    -0.0037110516 
   1676000   0.04997741    -1.1214953      0.044571336   -1.0020063      0.015507931  
   1677000   0.052014944   -1.1221362      0.046230031   -0.9979341      0.010525247  
   1678000   0.049814912   -1.1230698      0.045350715   -1.0030449      0.0080452395 
   1679000   0.05219512    -1.1207204      0.043934841   -0.99854343     0.0022706896 
   1680000   0.053191523   -1.1233646      0.047471361   -0.99615743    -0.0080452606 
   1681000   0.051632173   -1.1226671      0.044621304   -1.0006475      0.0016290457 
   1682000   0.051548499   -1.121778       0.044958875   -0.9995463      0.0029023876 
   1683000   0.050858699   -1.1208166      0.044151368   -1.0004264      0.0045280891 
   1684000   0.050362648   -1.1228423      0.04611972    -1.0012274      0.0062941176 
   1685000   0.049917466   -1.121048       0.04294969    -1.0032704      0.0065619819 
   1686000   0.050031092   -1.1234773      0.043844018   -1.004635       0.0066156797 
   1687000   0.051101169   -1.1230671      0.046046056   -1.0004187     -0.00087850245
   1688000   0.051340972   -1.1231108      0.047007746   -0.99914124     0.002813986  
   1689000   0.050937169   -1.1233177      0.046862467   -1.0000988     -0.0053095113 
   1690000   0.052059611   -1.1236368      0.043586097   -1.0020117      0.013234045  
   1691000   0.052015636   -1.1229851      0.045458378   -0.99955359    -0.0017092442 
   1692000   0.049891863   -1.1215711      0.044292979   -1.0024886      0.0083974127 
   1693000   0.051626362   -1.122074       0.046906996   -0.9977774      0.011668395  
   1694000   0.052234084   -1.1222097      0.045906819   -0.99800227     0.0020300554 
   1695000   0.051683301   -1.1219657      0.045216974   -0.99927381     0.0090914963 
   1696000   0.050356167   -1.1232213      0.046366629   -1.0013692     -0.0077755253 
   1697000   0.051816487   -1.12153        0.045239452   -0.99861592     0.0012231292 
   1698000   0.051706555   -1.1221931      0.045804476   -0.99887879     0.0092292377 
   1699000   0.051657706   -1.121985       0.047865586   -0.99668289     0.0056912153 
   1700000   0.053130084   -1.1213464      0.04609149    -0.99561116     0.005231349  
   1701000   0.052051288   -1.1231247      0.046482076   -0.99861603     0.011807965  
   1702000   0.051275772   -1.1225586      0.044873341   -1.0008213      0.012545984  
   1703000   0.050562196   -1.1224797      0.044476146   -1.0022092      0.003489782  
   1704000   0.050816964   -1.1227104      0.044476005   -1.0020581      0.0038479484 
   1705000   0.050930869   -1.122621       0.046702356   -0.9995716      0.0083792719 
   1706000   0.052630679   -1.1236244      0.046319899   -0.99840937    -0.0012528518 
   1707000   0.053555796   -1.1211357      0.044057575   -0.99679625     0.0087200781 
   1708000   0.052489522   -1.1231062      0.046955255   -0.99746743     0.01487392   
   1709000   0.048907114   -1.121725       0.045656112   -1.0027555      0.00056476866
   1710000   0.050005226   -1.1233015      0.04524813    -1.0030939     -0.0041477066 
   1711000   0.053081556   -1.1225333      0.045423251   -0.99753911     0.0078055502 
   1712000   0.05148922    -1.1224154      0.046811592   -0.99841984    -0.002686931  
   1713000   0.05132659    -1.1210409      0.047195148   -0.99690558     0.012713407  
   1714000   0.052800635   -1.1220933      0.045995532   -0.99694793     0.0058456652 
   1715000   0.05140627    -1.1221154      0.04641135    -0.99864443    -0.0054011203 
   1716000   0.051620826   -1.1222742      0.047432206   -0.99746075    -0.012889018  
   1717000   0.049725197   -1.1204409      0.046640839   -0.99926039    -0.0020795127 
   1718000   0.052183711   -1.1214639      0.046797896   -0.99644091     0.0022792129 
   1719000   0.052362587   -1.1223204      0.047299564   -0.99652762     0.0067644385 
   1720000   0.052400753   -1.1226888      0.04589588    -0.99824246     0.0096537488 
   1721000   0.051639453   -1.1224025      0.045762871   -0.99923042    -0.00034550658
   1722000   0.049831024   -1.1213515      0.044317469   -1.0023357      0.0098859729 
   1723000   0.050570207   -1.1247215      0.048080496   -1.0008347     -0.0056559975 
   1724000   0.050259489   -1.1238207      0.0441572     -1.0043229      0.00040998612
   1725000   0.050851632   -1.1225076      0.044526844   -1.0017525     -0.0034243956 
   1726000   0.049423239   -1.1210868      0.045526305   -1.0014734      0.005500458  
   1727000   0.050794995   -1.1230496      0.045815198   -1.0010911      0.0057300025 
   1728000   0.050212129   -1.1213934      0.046923932   -0.99919986    -0.0052993765 
   1729000   0.051829363   -1.123244       0.045510031   -1.00004       -0.0053306129 
   1730000   0.049487033   -1.1217396      0.045643418   -1.0019135      0.0097344531 
   1731000   0.052343481   -1.1230311      0.045536342   -0.99903016     0.0062410728 
   1732000   0.051311291   -1.123737       0.046188085   -1.0006316      0.0022472631 
   1733000   0.051990012   -1.1217855      0.043768494   -1.0000823      0.008854455  
   1734000   0.050635424   -1.1223364      0.045622228   -1.0008101     -0.0094257892 
   1735000   0.051241189   -1.1234006      0.046988126   -0.99960026    -0.00025819687
   1736000   0.051966844   -1.1216721      0.044188913   -0.99958318     0.0055552736 
   1737000   0.050244909   -1.1232433      0.046495009   -1.0014296      0.00097213631
   1738000   0.05305969    -1.1214459      0.045553291   -0.99635446    -0.0089069387 
   1739000   0.049893209   -1.1227513      0.045928299   -1.0020315      0.0044254234 
   1740000   0.050793148   -1.1208684      0.045716262   -0.99901154     0.012116085  
   1741000   0.050305772   -1.1215096      0.043086111   -1.0030136      0.010055277  
   1742000   0.050429164   -1.1229337      0.045986036   -1.0013527     -0.003188492  
   1743000   0.053435537   -1.1215609      0.046319881   -0.9951394      0.0011498846 
   1744000   0.05290156    -1.1223773      0.049046634   -0.99402956     0.010570061  
   1745000   0.050883118   -1.1205052      0.047288895   -0.99694089    -0.0015631496 
   1746000   0.051186967   -1.1238675      0.047122838   -1.0000138     -0.0094647    
   1747000   0.051683201   -1.1220732      0.046640733   -0.99795771    -0.0037511118 
   1748000   0.051813172   -1.1213659      0.044572962   -0.99912334     0.0013477809 
   1749000   0.050841187   -1.1223038      0.043352563   -1.0027386      0.002010035  
   1750000   0.050934193   -1.1235641      0.044659472   -1.0025526      0.0045416584 
   1751000   0.051552745   -1.1223388      0.045736612   -0.99932292    -0.0048812711 
   1752000   0.051574775   -1.1233916      0.04465567    -1.0014237     -0.011457848  
   1753000   0.051518975   -1.1223659      0.046192514   -0.99894481    -0.0020089769 
   1754000   0.051168859   -1.1214879      0.045281251   -0.99950291    -0.0021828029 
   1755000   0.053084664   -1.1237208      0.046107365   -0.99803782    -0.008486481  
   1756000   0.050266101   -1.1218886      0.046344604   -1.0001935      0.0075953494 
   1757000   0.049375371   -1.121575       0.044496913   -1.0030628      0.0019887291 
   1758000   0.052403729   -1.1223187      0.044239811   -0.99952402    -0.0045658671 
   1759000   0.051175201   -1.1239922      0.043331406   -1.0039475      0.0038626116 
   1760000   0.051580912   -1.1233509      0.045005365   -1.0010241     -0.00046669674
   1761000   0.050067608   -1.1223553      0.043503918   -1.0037984     -0.010638522  
   1762000   0.052319034   -1.1228828      0.045626931   -0.99882794     0.0036924459 
   1763000   0.050866152   -1.124474       0.047308591   -1.0009154     -0.010028258  
   1764000   0.051713214   -1.1215315      0.045331226   -0.99868046    -0.0045712701 
   1765000   0.05109081    -1.1232243      0.044307595   -1.0023299      0.011068882  
   1766000   0.050950253   -1.1214581      0.045453122   -0.99962886     0.0091782134 
   1767000   0.052836362   -1.1227706      0.044951014   -0.99861621    -0.012199585  
   1768000   0.052711671   -1.1214225      0.044581695   -0.99782435     0.0065080778 
   1769000   0.050133056   -1.1225608      0.047700221   -0.9997095     -0.0024034139 
   1770000   0.050892695   -1.1200465      0.044278477   -0.99947825     0.0070211354 
   1771000   0.052270649   -1.1220701      0.046467814   -0.99724686     0.0070700067 
   1772000   0.051044679   -1.1227835      0.047214818   -0.99905104    -0.0040238046 
   1773000   0.052511455   -1.1216221      0.045607699   -0.99729805     0.0016862281 
   1774000   0.052592373   -1.1228433      0.048658982   -0.99534668    -0.001138142  
   1775000   0.052379013   -1.1219145      0.047363272   -0.99603336    -0.0070209402 
   1776000   0.053081485   -1.1226928      0.043457112   -0.99966488     0.0020496796 
   1777000   0.052269667   -1.1229649      0.045168461   -0.99944254    -0.013578352  
   1778000   0.050525617   -1.1231107      0.046014361   -1.0013568     -0.00046820152
   1779000   0.049574756   -1.1216553      0.045360348   -1.0019808      0.0052355928 
   1780000   0.051684525   -1.1218864      0.04402306    -1.0003865      0.0065642129 
   1781000   0.050644608   -1.1223866      0.045292525   -1.0011762     -0.0037342502 
   1782000   0.051743034   -1.1222551      0.042238717   -1.0024519      0.0017789886 
   1783000   0.050579466   -1.1226464      0.04647543    -1.0003508     -0.0084587345 
   1784000   0.051289661   -1.124066       0.045585034   -1.0015961      0.00094936008
   1785000   0.051275752   -1.1253816      0.045728014   -1.0027896     -0.0020939072 
   1786000   0.051303812   -1.1230225      0.045175673   -1.0009408      0.009714296  
   1787000   0.053018778   -1.1256468      0.049367459   -0.99680244     0.0035136366 
   1788000   0.050307967   -1.1246335      0.046018473   -1.0032017     -0.0017476777 
   1789000   0.050957383   -1.1235763      0.044017858   -1.0031717     -0.0085403921 
   1790000   0.052093268   -1.123798       0.047876164   -0.99783239    -0.0037412209 
   1791000   0.052650567   -1.1260332      0.046320922   -1.0007874      0.00051169058
   1792000   0.049257683   -1.1255895      0.045031414   -1.0067193      0.0044605106 
   1793000   0.049650526   -1.1253436      0.046044727   -1.0048711      0.0032162995 
   1794000   0.04983413    -1.1235099      0.045653819   -1.0031532      0.0067592954 
   1795000   0.051455797   -1.1255788      0.046524723   -1.0019202     -0.0035523695 
   1796000   0.050546517   -1.1243589      0.046065259   -1.0025228     -0.0077547144 
   1797000   0.05333154    -1.1245588      0.045168157   -0.99944493    -0.0029679701 
   1798000   0.052406808   -1.1247875      0.046985969   -0.99924206    -0.0080746904 
   1799000   0.050604365   -1.1247585      0.045833357   -1.0030675     -0.0019028661 
   1800000   0.053623193   -1.1248717      0.046486326   -0.99800244     0.0088321824 
   1801000   0.050144068   -1.1240465      0.044999586   -1.0038794      0.0034636789 
   1802000   0.05013205    -1.1254789      0.046053466   -1.0042758     -0.0046702319 
   1803000   0.053207427   -1.125041       0.045531693   -0.99974969    -0.0047877858 
   1804000   0.052328152   -1.1252063      0.046838241   -0.99992643    -0.0060556909 
   1805000   0.052966008   -1.1221956      0.044340107   -0.99845778     0.017568747  
   1806000   0.053017196   -1.1255992      0.047720932   -0.99840383     0.0009195753 
   1807000   0.052555948   -1.1246152      0.048866268   -0.99696592     0.0069289322 
   1808000   0.051657291   -1.124375       0.046580342   -1.0003587      0.0028100184 
   1809000   0.049509528   -1.1250661      0.047534122   -1.0033156     -0.011258618  
   1810000   0.052235394   -1.1242129      0.046457417   -0.99945292     0.0035485581 
   1811000   0.049320368   -1.1234837      0.045384769   -1.0041661     -0.002237648  
   1812000   0.048697357   -1.1245628      0.046709941   -1.004854       0.0025655894 
   1813000   0.050711987   -1.1250805      0.046693003   -1.0023686      0.0017416624 
   1814000   0.048294498   -1.1255565      0.043737973   -1.0094235     -0.0087477048 
   1815000   0.049656648   -1.1262114      0.046101123   -1.0056734     -0.007476861  
   1816000   0.048938697   -1.1267372      0.046377168   -1.0069993      0.0039823871 
   1817000   0.05093336    -1.1236618      0.044397386   -1.0029137      0.0005637019 
   1818000   0.050097244   -1.12477        0.045967217   -1.0037054      0.010898865  
   1819000   0.050113231   -1.1255834      0.045837428   -1.0046247     -0.0012267988 
   1820000   0.052093148   -1.1242037      0.046891902   -0.99922246     0.018600025  
   1821000   0.052248261   -1.1243784      0.048261063   -0.99779547     0.0037848656 
   1822000   0.051440718   -1.1248755      0.046151833   -1.0016123     -0.014142696  
   1823000   0.0535377     -1.1270528      0.046133122   -1.0006649     -0.0043801327 
   1824000   0.052515574   -1.1226914      0.045046043   -0.99892277     0.0017515052 
   1825000   0.05001836    -1.1242425      0.045560911   -1.0037024      0.0064026492 
   1826000   0.050178271   -1.1244807      0.04562313    -1.0036387      0.0015069235 
   1827000   0.05287035    -1.1245478      0.044195432   -1.0010981      0.01423922   
   1828000   0.050902814   -1.1249075      0.045214935   -1.0033876      0.0044262996 
   1829000   0.05154449    -1.125085       0.044974941   -1.0028432      0.0076185322 
   1830000   0.051459908   -1.1240942      0.044599665   -1.0023544      0.0082539665 
   1831000   0.052660981   -1.1245395      0.046728252   -0.99887076     0.0056282123 
   1832000   0.052022645   -1.123552       0.048641411   -0.99692693     0.0028729385 
   1833000   0.051655286   -1.1242689      0.045614711   -1.0012212      0.0020345147 
   1834000   0.051410129   -1.124661       0.045075177   -1.0025204      0.00053586256
   1835000   0.050516576   -1.1254689      0.047034522   -1.0027084     -0.0024610933 
   1836000   0.050552181   -1.1272915      0.047462978   -1.0040492      0.0038166494 
   1837000   0.051856467   -1.1261686      0.044699868   -1.0037343     -0.0065355675 
   1838000   0.051081328   -1.1243311      0.044675992   -1.0030826      0.0038891553 
   1839000   0.050843112   -1.1247908      0.046167821   -1.0024075      0.0018766396 
   1840000   0.05073306    -1.1247917      0.045316636   -1.0034246      0.0063596445 
   1841000   0.052176427   -1.1237225      0.045753846   -0.99975451     0.0027632638 
   1842000   0.052135781   -1.1245955      0.047199714   -0.99924256     0.0091062949 
   1843000   0.050850632   -1.1243869      0.044914239   -1.0032459     -0.010828576  
   1844000   0.050759336   -1.1254123      0.045960186   -1.0033622      0.0027808415 
   1845000   0.050681815   -1.1251477      0.045809483   -1.0033646     -0.0014712206 
   1846000   0.051213678   -1.1241396      0.044989335   -1.0023793      0.00013428876
   1847000   0.054478391   -1.1251701      0.04515729    -0.99834797    -0.0087807744 
   1848000   0.052501574   -1.124802       0.047501249   -0.9985992      0.0046484096 
   1849000   0.051224997   -1.1248371      0.045756009   -1.0022931     -0.0032158287 
   1850000   0.050741844   -1.1245652      0.045620761   -1.0028808      0.0086087819 
   1851000   0.051153452   -1.1249175      0.045763855   -1.002473      -0.0016180134 
   1852000   0.051203559   -1.125026       0.045582353   -1.0026879      0.0014748461 
   1853000   0.051645711   -1.1256654      0.045498558   -1.0027483      0.0021735127 
   1854000   0.049526535   -1.1247072      0.044469944   -1.0059954      0.0012449317 
   1855000   0.050945618   -1.1256328      0.045025757   -1.0042379      0.0083395969 
   1856000   0.051724008   -1.1237994      0.043835579   -1.0024279      0.0023513305 
   1857000   0.050916523   -1.1242282      0.044394356   -1.0035083      0.005818283  
   1858000   0.051509383   -1.1245728      0.044783046   -1.0025755      0.0071632228 
   1859000   0.050800081   -1.1263059      0.045742292   -1.0044126     -0.0058286038 
   1860000   0.053072041   -1.1248469      0.045667383   -0.99962283    -0.0017166406 
   1861000   0.051123306   -1.1238526      0.047504299   -0.99971281     0.0043354097 
   1862000   0.051248118   -1.124362       0.045057336   -1.0024821      0.014409508  
   1863000   0.05023588    -1.1240834      0.045367725   -1.0034105      0.0017102019 
   1864000   0.0500819     -1.1250119      0.046075148   -1.0038624     -0.0059051964 
   1865000   0.051576311   -1.1254871      0.044195999   -1.0039765     -0.00082331542
   1866000   0.050766939   -1.124469       0.044352103   -1.0040156     -0.0065802491 
   1867000   0.050731897   -1.1255796      0.045639075   -1.0038918      0.0038158866 
   1868000   0.050837      -1.1266394      0.044580629   -1.0058525      0.005372603  
   1869000   0.049935491   -1.1239513      0.042717317   -1.006379       0.00481284   
   1870000   0.050739744   -1.1242944      0.045004473   -1.0032294      0.010268139  
   1871000   0.05169458    -1.1255161      0.046650696   -1.0013736      0.0076702977 
   1872000   0.050467829   -1.1236845      0.044736083   -1.0032955     -0.0012348854 
   1873000   0.049583668   -1.1254014      0.046161322   -1.0049126      0.0072679481 
   1874000   0.050235758   -1.1260241      0.046859132   -1.00386        6.3040471e-05
   1875000   0.050294028   -1.1239387      0.045811018   -1.0027354      0.012691274  
   1876000   0.051635861   -1.1271548      0.048039187   -1.0017118     -0.0056640657 
   1877000   0.051325207   -1.1259425      0.046658558   -1.0023458      0.0036668909 
   1878000   0.050338966   -1.1256987      0.046775233   -1.0034637      0.00063115012
   1879000   0.052077152   -1.1266726      0.048029294   -1.0005779     -0.0093892961 
   1880000   0.052746474   -1.1240286      0.046959176   -0.99800076     0.005468888  
   1881000   0.051733972   -1.123401       0.04745894    -0.99839121     0.0062981927 
   1882000   0.05002318    -1.1232196      0.047219998   -1.0010132      0.0084673242 
   1883000   0.051645509   -1.125154       0.04604216    -1.0016936     -0.0086566981 
   1884000   0.05076137    -1.1253295      0.047495727   -1.0017408      0.0029521937 
   1885000   0.05120812    -1.1262271      0.046550266   -1.0029142      0.0079844549 
   1886000   0.051406643   -1.1259483      0.046449665   -1.0024384      0.0065776585 
   1887000   0.051610436   -1.1266028      0.045079733   -1.0041574      0.00040571838
   1888000   0.051814402   -1.1261636      0.045723528   -1.0027686      0.0084139767 
   1889000   0.051100202   -1.123129       0.044826947   -1.0017012      0.010486026  
   1890000   0.050720215   -1.1243098      0.048658885   -0.99961963     0.012509357  
   1891000   0.052289038   -1.1253948      0.045996169   -1.0010157      0.022739533  
   1892000   0.051522033   -1.1255391      0.044914929   -1.003391       0.011945757  
   1893000   0.052120998   -1.1237829      0.044650527   -1.0010013      0.025453004  
   1894000   0.051586931   -1.1245901      0.043454415   -1.0038052      0.0010186113 
   1895000   0.050904436   -1.1246119      0.046927583   -1.0013769      0.0021648011 
   1896000   0.050109922   -1.1249687      0.045395365   -1.0044569      0.0084977939 
   1897000   0.048725067   -1.1231007      0.045386241   -1.004674       0.013897276  
   1898000   0.051708605   -1.1267901      0.043975303   -1.0053019      0.015894583  
   1899000   0.049773342   -1.124559       0.045969174   -1.003978       0.0068524137 
   1900000   0.050607911   -1.1253092      0.045850008   -1.0035963      0.0076124505 
   1901000   0.051157362   -1.1252034      0.045231759   -1.0032851      0.013891211  
   1902000   0.051581938   -1.1250853      0.044572166   -1.0031901      0.023848382  
   1903000   0.053110923   -1.1251605      0.048439122   -0.99710642    -0.0063732019 
   1904000   0.051496083   -1.1245793      0.047289634   -1.0000954     -0.0042393373 
   1905000   0.051251709   -1.1256236      0.04791254    -1.0008831      0.00041459973
   1906000   0.052111141   -1.1258628      0.046581465   -1.0011651      0.00037463321
   1907000   0.053226587   -1.1258723      0.047976201   -0.99810771    -0.0098251303 
   1908000   0.051745364   -1.1243695      0.049537882   -0.99726363     0.01485032   
   1909000   0.051105286   -1.1240319      0.045463167   -1.0019602      0.0043557729 
   1910000   0.051162919   -1.1244322      0.044758879   -1.0029785      0.005529995  
   1911000   0.051076481   -1.1253964      0.046470449   -1.0023607      0.0090744845 
   1912000   0.051370432   -1.1248705      0.042822029   -1.0050425      0.00041459195
   1913000   0.050645876   -1.1246957      0.044222213   -1.0045537      0.021998991  
   1914000   0.052448556   -1.125543       0.045396232   -1.0015247      0.0028987725 
   1915000   0.05152591    -1.1255785      0.046585151   -1.0017544      0.00084105582
   1916000   0.050423782   -1.1265612      0.046143734   -1.0048306     -0.0054180306 
   1917000   0.051716997   -1.1273921      0.04583906    -1.0040276      0.0085394536 
   1918000   0.04996308    -1.12648        0.046791604   -1.0047921      0.0021408339 
   1919000   0.050945941   -1.1258047      0.047247105   -1.002188       0.011562866  
   1920000   0.050874532   -1.1278232      0.045377884   -1.0061827      0.00085053616
   1921000   0.051423238   -1.1289342      0.048074457   -1.0037747     -0.0038190301 
   1922000   0.050327913   -1.1262492      0.047902126   -1.0029039      0.0003597013 
   1923000   0.050777776   -1.1270258      0.047042249   -1.003866      -0.0061256165 
   1924000   0.051375443   -1.1279099      0.047644676   -1.0032518      0.0019136013 
   1925000   0.049641523   -1.1291426      0.048381102   -1.0063472      0.0026345151 
   1926000   0.050075493   -1.1273901      0.048548434   -1.0037769      0.012309637  
   1927000   0.050736193   -1.1276659      0.048695373   -1.0029153      0.0064686783 
   1928000   0.051187718   -1.1280261      0.047590207   -1.0037039      0.0026115513 
   1929000   0.050342947   -1.1275912      0.048911816   -1.0032137     -0.0085199469 
   1930000   0.049686922   -1.1243795      0.045668675   -1.0042285      0.0074533712 
   1931000   0.050961966   -1.1278109      0.050233079   -1.0011842     -0.001074803  
   1932000   0.05123104    -1.1273633      0.047494972   -1.0030713      0.0063827351 
   1933000   0.051600265   -1.1275333      0.045234175   -1.0049486     -0.0055851971 
   1934000   0.05188978    -1.1284058      0.046971214   -1.0036502      0.014457783  
   1935000   0.050677644   -1.1275219      0.046208618   -1.0053459      0.00068968692
   1936000   0.050869196   -1.1258782      0.04614532    -1.0034783      0.004171037  
   1937000   0.05295133    -1.1279446      0.048689401   -0.99987949    -0.0041963539 
   1938000   0.050653026   -1.125677       0.050807972   -0.99893849     0.013679713  
   1939000   0.053250315   -1.1260253      0.048280452   -0.99792089    -0.0037255703 
   1940000   0.054397887   -1.126831       0.045764787   -0.99952203    -0.011893772  
   1941000   0.050799967   -1.1246781      0.046594318   -1.001933       0.010880334  
   1942000   0.051459569   -1.1287539      0.047365215   -1.0042492      0.0027261782 
   1943000   0.051459681   -1.1266807      0.047499043   -1.0020419      0.0059502406 
   1944000   0.051179682   -1.1256977      0.048455841   -1.0005218      0.00014608009
   1945000   0.050479148   -1.1250102      0.049836061   -0.99950429     0.01423251   
   1946000   0.051864858   -1.1268373      0.047481635   -1.0016085      0.0004731869 
   1947000   0.051189612   -1.1262419      0.047015431   -1.0024916     -0.00096540324
   1948000   0.051814572   -1.1272635      0.047239083   -1.0023527      0.013906355  
   1949000   0.05237805    -1.1271033      0.047170737   -1.0014162      0.0032412533 
   1950000   0.051084129   -1.1283357      0.048520781   -1.0032381      0.0017879387 
   1951000   0.050398484   -1.1284606      0.046292765   -1.0066189      0.0086570896 
   1952000   0.05040011    -1.1266572      0.047127403   -1.0039784      0.010498378  
   1953000   0.052641543   -1.1279735      0.047313713   -1.0017484      0.0045219437 
   1954000   0.051214003   -1.1270951      0.048673798   -1.0016499      0.0067139287 
   1955000   0.052374188   -1.1269872      0.047412126   -1.0010645      0.011131974  
   1956000   0.051732328   -1.1276812      0.047265779   -1.002867       0.010487619  
   1957000   0.050902943   -1.1266605      0.045023009   -1.0053323      0.0066798243 
   1958000   0.052170604   -1.1256263      0.046118929   -1.0013019      0.0045996334 
   1959000   0.052996856   -1.1283853      0.049771855   -0.99916942     0.004530135  
   1960000   0.050775014   -1.1293055      0.047570563   -1.0056215      0.0035704695 
   1961000   0.051434445   -1.1292788      0.0493195     -1.0028574      0.0056006189 
   1962000   0.050443711   -1.1291037      0.048110839   -1.0053762     -0.00026890275
   1963000   0.050163503   -1.1304157      0.046432678   -1.0087863     -0.0069399274 
   1964000   0.051143789   -1.1310696      0.046347242   -1.0080562     -0.0062746794 
   1965000   0.051868965   -1.1301231      0.047408432   -1.0049614     -0.0017233322 
   1966000   0.049477235   -1.1274819      0.046255215   -1.0070588      0.0089002903 
   1967000   0.052447492   -1.1295303      0.048077577   -1.0028322      0.012640649  
   1968000   0.051880409   -1.1287064      0.046855476   -1.0040805      0.0062523707 
   1969000   0.051617042   -1.1286142      0.047590123   -1.0036484     -0.013899425  
   1970000   0.050246757   -1.1283633      0.046206066   -1.0068358      0.01066624   
   1971000   0.050905789   -1.1297996      0.047942048   -1.0055481      0.0017197036 
   1972000   0.052709897   -1.1286766      0.045204172   -1.0044586      0.0099640126 
   1973000   0.050755296   -1.1286892      0.047331576   -1.0052738     -0.0099801223 
   1974000   0.050382561   -1.1285434      0.046438768   -1.0065796      0.011963052  
   1975000   0.052006312   -1.1302589      0.047010143   -1.0052896      0.0054092861 
   1976000   0.050893777   -1.1280912      0.044332249   -1.0074676      0.008152769  
   1977000   0.050766574   -1.1270399      0.045703779   -1.0052354      0.010569579  
   1978000   0.052994466   -1.1280742      0.047273184   -1.0013606      0.0028764884 
   1979000   0.05086068    -1.1302107      0.0497457     -1.0042232      0.002179082  
   1980000   0.049796846   -1.1276567      0.045559816   -1.0074498     -0.0091269714 
   1981000   0.052512744   -1.1280943      0.047258586   -1.0021174      0.0061976417 
   1982000   0.050143019   -1.1305512      0.04889648    -1.0064887     -0.0040038394 
   1983000   0.051018137   -1.1300596      0.048166429   -1.0054153     -0.0059000527 
   1984000   0.051438032   -1.1283127      0.046505201   -1.0047002      0.010368535  
   1985000   0.051465141   -1.1286982      0.046906172   -1.0046441      0.0069035538 
   1986000   0.051700652   -1.1289047      0.04820916    -1.0031946     -0.0050012488 
   1987000   0.050455925   -1.1287064      0.050561691   -1.0025096      0.00084834155
   1988000   0.050850958   -1.13116        0.048947266   -1.0059855     -0.010026534  
   1989000   0.051607727   -1.1281174      0.044558667   -1.0061971     -0.00046984231
   1990000   0.052994297   -1.1295951      0.048828968   -1.001326       0.0055905655 
   1991000   0.053195704   -1.1280114      0.047576466   -1.0006929      0.0031459425 
   1992000   0.05069351    -1.1292686      0.046438214   -1.0068392     -0.0028432674 
   1993000   0.049435323   -1.1294076      0.046150854   -1.0091516     -0.004460297  
   1994000   0.050719273   -1.1283906      0.049064504   -1.0032962      0.0018700834 
   1995000   0.050538203   -1.1286696      0.049258729   -1.0036525     -0.0023534745 
   1996000   0.048387838   -1.1273937      0.046814806   -1.008044       0.0052455603 
   1997000   0.052454878   -1.1296064      0.047579884   -1.0033949     -0.0020314072 
   1998000   0.050180849   -1.1286881      0.048527224   -1.0049381     -0.00033195516
   1999000   0.051958289   -1.1306318      0.047656975   -1.0050876      0.0037404939 
   2000000   0.053266603   -1.1294244      0.046772478   -1.0028035      0.0088012655 
   2001000   0.050110791   -1.1300008      0.048761168   -1.006122      -0.0055277199 
   2002000   0.050722678   -1.1309526      0.048592049   -1.0063256      0.0090479158 
   2003000   0.050994771   -1.1303533      0.048075863   -1.0058346      0.00112537   
   2004000   0.052358422   -1.1291344      0.045958907   -1.0046886      0.026364493  
   2005000   0.051015928   -1.1286824      0.045595573   -1.0066123      0.015470629  
   2006000   0.050184544   -1.1294288      0.046871683   -1.0073289      0.01683904   
   2007000   0.051512012   -1.1293899      0.046103641   -1.0060681     -0.00038895781
   2008000   0.053502386   -1.1286882      0.045099138   -1.0033873      0.012903966  
   2009000   0.05186901    -1.1299372      0.049297623   -1.0028863      0.012440183  
   2010000   0.050464894   -1.1295403      0.047107376   -1.0067844      0.013406533  
   2011000   0.049149489   -1.1295019      0.044211262   -1.011614       0.0084341665 
   2012000   0.050769985   -1.1290632      0.046274585   -1.0066827      0.0070930563 
   2013000   0.049382675   -1.1275504      0.046177568   -1.0073466      0.014924015  
   2014000   0.051584709   -1.1280538      0.045657264   -1.0050694      0.0063281332 
   2015000   0.049789124   -1.1285063      0.047578697   -1.0062921      0.0082320173 
   2016000   0.050075167   -1.126847       0.044481797   -1.0073009      0.0092538627 
   2017000   0.052662598   -1.1309752      0.049070098   -1.0029622      0.010548743  
   2018000   0.051314583   -1.1277807      0.048410193   -1.0024483     -0.0023875434 
   2019000   0.051762774   -1.1286865      0.048759986   -1.0023325      0.003282832  
   2020000   0.052213801   -1.1298778      0.046648961   -1.0049586      0.0043114337 
   2021000   0.05125809    -1.1286932      0.046129789   -1.0057258      0.0022611143 
   2022000   0.050802886   -1.1279797      0.048162246   -1.0036623      0.015745607  
   2023000   0.052253657   -1.1287057      0.046954251   -1.0034215      0.0082862412 
   2024000   0.0521985     -1.1288031      0.047178362   -1.0033775      0.0059771116 
   2025000   0.050339078   -1.1289393      0.046438843   -1.0070406      0.0083835389 
   2026000   0.050953842   -1.1282975      0.048365442   -1.0035506     -0.0033187156 
   2027000   0.051913425   -1.1295291      0.046154514   -1.0055546     -0.003699201  
   2028000   0.050944246   -1.1295567      0.0485111     -1.0046786      0.0064191301 
   2029000   0.051966431   -1.1283539      0.046344416   -1.0041101      0.013241561  
   2030000   0.051779168   -1.127089       0.045732114   -1.0037383      0.0046823048 
   2031000   0.050786186   -1.129888       0.047144478   -1.0066134      0.0090233958 
   2032000   0.050948073   -1.1297694      0.047037854   -1.0063588     -0.0026283388 
   2033000   0.051055693   -1.1284079      0.045697273   -1.0061765      0.016863133  
   2034000   0.049786016   -1.1284348      0.04512136    -1.0086826      0.007258235  
   2035000   0.051953445   -1.1303985      0.046451688   -1.0060669      0.0048698207 
   2036000   0.051734096   -1.1309463      0.048766746   -1.0046285      0.0017742055 
   2037000   0.0491078     -1.1318644      0.048887476   -1.0093628      0.0073344463 
   2038000   0.050867547   -1.1289308      0.04781534    -1.0048634      0.019591426  
   2039000   0.050799659   -1.1295738      0.045036368   -1.0083871     -0.0036451929 
   2040000   0.051901227   -1.1317133      0.047699281   -1.0062124     -0.0025298349 
   2041000   0.050402513   -1.1299375      0.046498226   -1.0078843      0.00080170342
   2042000   0.051265308   -1.1302513      0.046494373   -1.0069086      0.017747663  
   2043000   0.049780427   -1.1302714      0.045205229   -1.0104437      0.008633497  
   2044000   0.05141186    -1.1310231      0.046003555   -1.0079515     -0.0023067718 
   2045000   0.05140455    -1.1305917      0.045916991   -1.0076176      0.016777302  
   2046000   0.051983128   -1.131441       0.047869261   -1.0056474      0.010589449  
   2047000   0.050997726   -1.1314037      0.046878868   -1.0080776      0.016546619  
   2048000   0.051312808   -1.1317847      0.047270894   -1.0075942      0.022369312  
   2049000   0.050736101   -1.1310038      0.046673066   -1.0082757      0.01490406   
   2050000   0.051985285   -1.1312124      0.047294247   -1.0059905      0.010998376  
   2051000   0.050055821   -1.1308655      0.047555926   -1.0082743      0.017982038  
   2052000   0.052297221   -1.1319577      0.045612392   -1.0079501      0.0065608569 
   2053000   0.054341439   -1.1310835      0.048539958   -1.001084       0.014097395  
   2054000   0.052509394   -1.1308655      0.048100511   -1.0040517      0.013108647  
   2055000   0.052728666   -1.1299848      0.045445144   -1.0054977      0.0040245624 
   2056000   0.052015568   -1.1325057      0.048561828   -1.0059708      0.010698842  
   2057000   0.05004984    -1.132456       0.048275399   -1.0091542     -0.00023152694
   2058000   0.051160684   -1.1315631      0.047983511   -1.0068881      0.0022109636 
   2059000   0.052173923   -1.1316193      0.047427447   -1.0059815      0.014987582  
   2060000   0.04992474    -1.1307039      0.04729116    -1.008574       0.012615828  
   2061000   0.050231374   -1.13347        0.048496967   -1.0096746     -0.0021550772 
   2062000   0.052205641   -1.132429       0.047117889   -1.0070532      0.0092112232 
   2063000   0.051768021   -1.1313292      0.047926703   -1.0058006      0.014398843  
   2064000   0.053680327   -1.1326355      0.047840098   -1.0043268      0.010176793  
   2065000   0.050157489   -1.1318974      0.04895349    -1.0077562      0.006892159  
   2066000   0.051817785   -1.132916       0.045284382   -1.0099551      0.0086317118 
   2067000   0.051823464   -1.1324152      0.046222593   -1.0085076      0.015151656  
   2068000   0.05160419    -1.1306194      0.047776022   -1.0054871      0.0054623759 
   2069000   0.052332767   -1.1310915      0.047386444   -1.0052565      0.01219501   
   2070000   0.051710289   -1.1325292      0.049004981   -1.0060089      0.0039364311 
   2071000   0.054371467   -1.1318539      0.049337208   -1.0010121      0.016280064  
   2072000   0.052891835   -1.1299494      0.046808642   -1.0038542     -0.00011357185
   2073000   0.053305474   -1.1316627      0.048482387   -1.0032737     -0.0019277538 
   2074000   0.051505787   -1.1297276      0.04792596    -1.0045928      0.014496625  
   2075000   0.052338978   -1.1324282      0.048227034   -1.0057433      0.016517637  
   2076000   0.05194678    -1.1304993      0.047242802   -1.0053866      0.018155212  
   2077000   0.051886065   -1.1321186      0.046900454   -1.0074392      0.007119293  
   2078000   0.050616397   -1.1319325      0.047579054   -1.0084778      0.0010038657 
   2079000   0.049947687   -1.1314614      0.046552149   -1.010036       0.011587283  
   2080000   0.051201989   -1.1322573      0.049161205   -1.0063426     -0.0026588013 
   2081000   0.051109304   -1.1309092      0.046239395   -1.0080553      0.0018835346 
   2082000   0.052646116   -1.1302044      0.045408978   -1.0058772      0.0096103493 
   2083000   0.050557273   -1.1304069      0.047637845   -1.0069821      0.01340769   
   2084000   0.052150236   -1.129017       0.045639256   -1.0052028      0.0079183732 
   2085000   0.050440069   -1.131587       0.047787112   -1.0081886     -0.00029134661
   2086000   0.049362453   -1.1293206      0.045565582   -1.0097591      0.01335282   
   2087000   0.050151972   -1.1304914      0.047339872   -1.0079721      0.0048119254 
   2088000   0.051614459   -1.1307254      0.046476117   -1.0068775      0.0099083309 
   2089000   0.052230488   -1.1303904      0.047329468   -1.0047657      0.0082625146 
   2090000   0.052674876   -1.1309126      0.047011946   -1.0049394      0.0044642813 
   2091000   0.050875001   -1.1318875      0.049043621   -1.0065806      0.010392816  
   2092000   0.052178018   -1.1310037      0.04437412    -1.0084131      0.014016721  
   2093000   0.053301065   -1.1313081      0.046042071   -1.0053661      0.018270887  
   2094000   0.050162167   -1.1304317      0.04654507    -1.0086919      0.00075837184
   2095000   0.051642254   -1.1317628      0.045990583   -1.0083588     -6.6435044e-06
   2096000   0.05201361    -1.1294661      0.046818589   -1.0046774      0.0075353969 
   2097000   0.051096765   -1.1300294      0.044242584   -1.0091912      0.0045412916 
   2098000   0.050991065   -1.130713       0.043724497   -1.0105513      0.017949249  
   2099000   0.052013047   -1.1314109      0.047676444   -1.0057653      0.011639709  
   2100000   0.051121501   -1.1302577      0.045176132   -1.0084488      0.02452828   
   2101000   0.053057911   -1.1297729      0.0470447     -1.0031927      0.015915977  
   2102000   0.052014362   -1.1297284      0.045671529   -1.0060857      0.023712602  
   2103000   0.05267737    -1.1315372      0.048131806   -1.0044403      0.0077523996 
   2104000   0.051511097   -1.1299785      0.047792444   -1.0049692      0.010179623  
   2105000   0.052568884   -1.1299096      0.046721793   -1.0043853     -0.0031989387 
   2106000   0.050309956   -1.1300861      0.047972251   -1.0066976      0.0050230435 
   2107000   0.051204894   -1.1300135      0.049097186   -1.0041585     -0.0014758106 
   2108000   0.052091938   -1.1302142      0.046628857   -1.0054979      0.0025584793 
   2109000   0.051758334   -1.1303914      0.045729812   -1.0070742      0.0080344369 
   2110000   0.051274079   -1.1310611      0.047989237   -1.0062104      0.024730985  
   2111000   0.051180699   -1.1315452      0.048622759   -1.0062009      0.013281015  
   2112000   0.051477491   -1.1317214      0.047869346   -1.0066856      0.010152346  
   2113000   0.049953343   -1.1313754      0.045585936   -1.0109078      0.015245147  
   2114000   0.05015887    -1.1324819      0.048380013   -1.0089121      0.0098556454 
   2115000   0.051517886   -1.1337956      0.046094094   -1.0104745      0.026058487  
   2116000   0.051532915   -1.1342222      0.047302538   -1.0096701      0.010605333  
   2117000   0.050349519   -1.1321831      0.047008065   -1.0096995      0.014967368  
   2118000   0.050534194   -1.1311534      0.045148135   -1.0102528      0.01766861   
   2119000   0.048566713   -1.1324713      0.046100734   -1.0135675      0.0091194146 
   2120000   0.050716091   -1.1340253      0.048898402   -1.0091019      0.004836665  
   2121000   0.050993821   -1.1319944      0.0464816     -1.0090714      0.011617084  
   2122000   0.051406337   -1.1332957      0.046811777   -1.0094242     -0.00034965348
   2123000   0.051547284   -1.133414       0.047423673   -1.0087193      0.0086018466 
   2124000   0.050268435   -1.1344933      0.048362476   -1.0107768     -0.0015917643 
   2125000   0.050403631   -1.1326434      0.048895763   -1.0081909      0.013559777  
   2126000   0.053087195   -1.1334859      0.047260268   -1.0066462      0.023030035  
   2127000   0.050127573   -1.1315616      0.045596685   -1.0108221      0.015887002  
   2128000   0.051949832   -1.1327746      0.045741126   -1.009159       0.0076472126 
   2129000   0.051994598   -1.132284       0.04663784    -1.0077046      0.01151399   
   2130000   0.050293196   -1.1328561      0.048102139   -1.0093628      0.0042548277 
   2131000   0.052341775   -1.1341461      0.047219766   -1.0084643      0.0065161298 
   2132000   0.052367765   -1.1328222      0.04545876    -1.0088624      0.0026349233 
   2133000   0.053911681   -1.1323935      0.04673415    -1.004844       0.0075739826 
   2134000   0.051978019   -1.1330151      0.047000485   -1.0080979      0.0022321917 
   2135000   0.051762086   -1.1331919      0.047265717   -1.0083331      0.0020657358 
   2136000   0.049208185   -1.1333104      0.047433842   -1.0121119     -0.0031306997 
   2137000   0.050953039   -1.1332442      0.049009892   -1.007854      -0.010070117  
   2138000   0.051912084   -1.1321088      0.046637715   -1.0076532      0.0099262257 
   2139000   0.052222881   -1.1331176      0.044584994   -1.0102488      0.0019867386 
   2140000   0.049720633   -1.1338554      0.04671956    -1.012603       0.0018560121 
   2141000   0.051438694   -1.1327185      0.047340816   -1.0082694      0.00054021979
   2142000   0.05268247    -1.133632       0.047786756   -1.0068726      0.010762598  
   2143000   0.051239079   -1.133968       0.047583607   -1.0095753      0.011246039  
   2144000   0.052652392   -1.133122       0.043622563   -1.0105718      0.01012186   
   2145000   0.050510861   -1.1338211      0.048552566   -1.0095512      0.01979211   
   2146000   0.051328014   -1.1323412      0.04586655    -1.0095323      0.0030225878 
   2147000   0.053348175   -1.1332873      0.046308466   -1.0070082      0.011664676  
   2148000   0.05235915    -1.1336392      0.048612298   -1.0065388     -0.0014257759 
   2149000   0.05074112    -1.1340051      0.045093088   -1.0128494      0.0085194783 
   2150000   0.052372166   -1.1335286      0.046595384   -1.0084257     -0.001703709  
   2151000   0.053428871   -1.1334102      0.046475292   -1.0068433     -0.0001529971 
   2152000   0.05293392    -1.1327101      0.044947026   -1.0084134      0.0016253571 
   2153000   0.050208313   -1.1343016      0.048107      -1.0109307      0.0077147163 
   2154000   0.0504383     -1.1344402      0.04613334    -1.0126982      0.011133277  
   2155000   0.049847014   -1.1337764      0.045920474   -1.0131336     -0.0019929951 
   2156000   0.049947734   -1.1323263      0.047484078   -1.009969       0.0031577469 
   2157000   0.05012653    -1.1315126      0.045410211   -1.0109611      0.0074208785 
   2158000   0.050724692   -1.1320563      0.045026365   -1.0109919      0.0089843218 
   2159000   0.050896538   -1.1325372      0.045118416   -1.0111232      0.0050029309 
   2160000   0.05017991    -1.1323055      0.044866242   -1.012218       0.015003006  
   2161000   0.048952798   -1.1317383      0.048001166   -1.0103553      0.0086941916 
   2162000   0.051199136   -1.1335141      0.048805574   -1.0079593      0.0043618672 
   2163000   0.051531975   -1.1325428      0.046019761   -1.0092749      0.014060226  
   2164000   0.050227526   -1.1352545      0.048429827   -1.011532      -0.00017040204
   2165000   0.05289922    -1.1321344      0.048192712   -1.0046441      0.0064349223 
   2166000   0.052314877   -1.1329971      0.048193208   -1.0063822      0.0039855823 
   2167000   0.051432873   -1.1329456      0.045800447   -1.0100456      0.011650371  
   2168000   0.051121712   -1.131335       0.048673219   -1.0060287      0.016146225  
   2169000   0.051975498   -1.1326823      0.04863969    -1.0061297      0.0016358697 
   2170000   0.051786658   -1.1317421      0.047904681   -1.0062076      0.0093430722 
   2171000   0.04951663    -1.1319757      0.04635983    -1.0113888      0.011036742  
   2172000   0.050176056   -1.1317703      0.047162989   -1.0093918      0.012839345  
   2173000   0.052151186   -1.133633       0.049183487   -1.0062732      0.0090617244 
   2174000   0.051000214   -1.1332916      0.048540024   -1.0083006      0.002052521  
   2175000   0.051333235   -1.1337841      0.049041251   -1.0077927      0.010597734  
   2176000   0.052398184   -1.1344918      0.046796915   -1.0091483      0.00052594993
   2177000   0.051153406   -1.131253       0.047661342   -1.0069111      0.0052166466 
   2178000   0.050765948   -1.1334738      0.047925945   -1.0094481     -0.0031259858 
   2179000   0.052002121   -1.1324799      0.048199336   -1.0063278     -0.00073350858
   2180000   0.050933692   -1.1304115      0.044039076   -1.0100211      0.00043243106
   2181000   0.052336336   -1.133769       0.048099959   -1.0072152      0.0052913166 
   2182000   0.052393605   -1.1352344      0.050299182   -1.0063956      0.002859904  
   2183000   0.050621569   -1.1351794      0.048031092   -1.011265       0.0032797377 
   2184000   0.050996873   -1.1350998      0.04788282    -1.010771      -0.0013465152 
   2185000   0.052553939   -1.1362678      0.048636822   -1.0088509      0.0061595288 
   2186000   0.051500263   -1.1352528      0.049435318   -1.0086169     -0.00091622327
   2187000   0.050072615   -1.1348478      0.045999038   -1.0137883      0.0047053488 
   2188000   0.051209931   -1.1350293      0.049680882   -1.0085831     -0.012212701  
   2189000   0.052119911   -1.1363456      0.047751583   -1.0104646     -0.0023349635 
   2190000   0.050548797   -1.1345077      0.0476753     -1.0110581     -0.0069893192 
   2191000   0.050860972   -1.1347666      0.050004964   -1.0085194      0.00053233917
   2192000   0.050660071   -1.1344679      0.048624248   -1.0099026     -0.0020703845 
   2193000   0.051084858   -1.133735       0.047419604   -1.0097375     -0.0024919243 
   2194000   0.051005587   -1.1351449      0.048070228   -1.0106156      0.004138367  
   2195000   0.051217975   -1.1343641      0.049152257   -1.0084345      5.5197531e-05
   2196000   0.049603638   -1.1356956      0.04836416    -1.012974      -0.0047064473 
   2197000   0.050958539   -1.1358355      0.046797929   -1.012649      -0.0026516189 
   2198000   0.051058851   -1.1349521      0.048161241   -1.010252       0.0044591751 
   2199000   0.050822794   -1.1354127      0.048186693   -1.011041      -0.011586339  
   2200000   0.05162195    -1.1350901      0.049064184   -1.008643       0.010184262  
   2201000   0.050629852   -1.1334418      0.0479314     -1.0096147      0.00010548141
   2202000   0.05057294    -1.1337429      0.047606407   -1.010326       0.012588197  
   2203000   0.050202531   -1.1325363      0.052008364   -1.0052727     -0.0066972847 
   2204000   0.053436089   -1.1349704      0.04677589    -1.0080921      0.0065496081 
   2205000   0.050387082   -1.1333051      0.049356997   -1.0084162      0.001379341  
   2206000   0.051931793   -1.13432        0.048802779   -1.0076698     -0.0025929822 
   2207000   0.051583082   -1.1358257      0.048440577   -1.0100604     -0.0005347594 
   2208000   0.052465538   -1.1354572      0.047617335   -1.0091923      0.011556431  
   2209000   0.053715641   -1.1372081      0.049141126   -1.0075455     -0.0083121224 
   2210000   0.052305768   -1.1347331      0.049343493   -1.0069816      0.0016936071 
   2211000   0.050369369   -1.1359964      0.049903625   -1.0105875     -0.0031797236 
   2212000   0.050418963   -1.1328491      0.04775421    -1.0095152      0.0028110083 
   2213000   0.050744396   -1.1367835      0.049145498   -1.0115706     -0.0049963438 
   2214000   0.050000933   -1.1352261      0.047031671   -1.0132414     -0.0057360061 
   2215000   0.051107769   -1.1361738      0.048446998   -1.0111146     -0.0015404774 
   2216000   0.052632898   -1.1341915      0.048936721   -1.0063564      0.011101942  
   2217000   0.052511368   -1.1348085      0.049896771   -1.0061955      0.002891177  
   2218000   0.052071637   -1.1343938      0.049806324   -1.0065304     -0.0023490893 
   2219000   0.052285917   -1.1336887      0.048238046   -1.0070724      0.005526316  
   2220000   0.051630871   -1.1361933      0.050156742   -1.0086402     -0.0087924716 
   2221000   0.050352013   -1.1340966      0.045864272   -1.0127531     -0.0024032653 
   2222000   0.05008564    -1.1344679      0.047508275   -1.0118796     -0.00075613697
   2223000   0.051097558   -1.1325488      0.046081249   -1.0098707      0.0090781421 
   2224000   0.052678095   -1.1342417      0.047086165   -1.0081894      0.0026926571 
   2225000   0.051544624   -1.1355481      0.047196835   -1.0110842      0.0053425996 
   2226000   0.054026994   -1.1345633      0.046265263   -1.0073098      0.0044248116 
   2227000   0.051413801   -1.133872       0.046870684   -1.0099304     -0.0014801207 
   2228000   0.05196664    -1.1357131      0.049378105   -1.0084353      0.0062527635 
   2229000   0.051319573   -1.1344367      0.047727506   -1.0097795      0.0013293454 
   2230000   0.049081096   -1.1347565      0.046636015   -1.0145463      0.0026862737 
   2231000   0.049820973   -1.1353991      0.049152663   -1.0115632      0.0053145181 
   2232000   0.051070893   -1.1341004      0.048714216   -1.0088293     -0.0071173168 
   2233000   0.051580174   -1.1351336      0.047425103   -1.0103882      0.0017464308 
   2234000   0.051258264   -1.1350116      0.049315382   -1.0088584     -0.00029414906
   2235000   0.05085124    -1.1338628      0.048025339   -1.0096098     -0.017496209  
   2236000   0.05271654    -1.1330132      0.047140666   -1.0068487      0.0023891731 
   2237000   0.052623168   -1.1370568      0.04962574    -1.0085473      0.00036493566
   2238000   0.051462228   -1.1349884      0.047293331   -1.0105515     -0.00033677978
   2239000   0.052305073   -1.133918       0.046845908   -1.0086651      0.0060563617 
   2240000   0.051776705   -1.1337255      0.048067206   -1.0080433      0.0052725791 
   2241000   0.05112724    -1.1345965      0.04662379    -1.0113314     -0.0019624011 
   2242000   0.051161463   -1.1356266      0.048505157   -1.0104288     -0.0074690732 
   2243000   0.05357655    -1.13531        0.049577295   -1.0054197     -0.0033904135 
   2244000   0.052178877   -1.1347819      0.049999249   -1.0065649     -0.0053267154 
   2245000   0.051362738   -1.1333463      0.044925127   -1.0114268      0.0076942411 
   2246000   0.050798755   -1.1347813      0.046042548   -1.0125897     -0.00036344527
   2247000   0.049749697   -1.135714       0.047638946   -1.0134987     -0.010407769  
   2248000   0.050234939   -1.1340591      0.047804468   -1.0109509     -0.00044503077
   2249000   0.05091659    -1.1344522      0.045158891   -1.0129677     -0.0032161108 
   2250000   0.05139003    -1.1350174      0.044695044   -1.0132871      0.0031003489 
   2251000   0.049606918   -1.1345769      0.049603053   -1.0106115     -0.0023774796 
   2252000   0.053020276   -1.1334435      0.046266639   -1.0076977      0.00016106253
   2253000   0.050517989   -1.1343743      0.044977454   -1.0136688      0.00039071789
   2254000   0.047839731   -1.1343811      0.048805611   -1.0138622     -0.0041878914 
   2255000   0.05154893    -1.1342248      0.046150313   -1.010801      -0.0047930108 
   2256000   0.052899204   -1.1336705      0.048452799   -1.0059201      0.0067212655 
   2257000   0.050867406   -1.133779       0.049562104   -1.0079651     -0.010208028  
   2258000   0.049938575   -1.1342189      0.048476515   -1.0108829     -0.012226914  
   2259000   0.049544858   -1.1333231      0.045678518   -1.0133753      0.0023139437 
   2260000   0.051460653   -1.133955       0.047966568   -1.0088473      0.0012732221 
   2261000   0.049931438   -1.1358381      0.047278281   -1.013711      -0.0032587121 
   2262000   0.051740561   -1.1335531      0.045506509   -1.0104858      0.001497767  
   2263000   0.051029263   -1.1352651      0.047676788   -1.0110938     -0.013186029  
   2264000   0.051768158   -1.1351226      0.046848997   -1.0106714      0.0011307163 
   2265000   0.050527427   -1.1326072      0.046834849   -1.0100301      0.0051767587 
   2266000   0.050439438   -1.1341615      0.047529581   -1.0110215     -0.002773818  
   2267000   0.052686042   -1.1339678      0.045195814   -1.0097939      0.012517209  
   2268000   0.052322928   -1.1321734      0.0459338     -1.0078059      0.0055570397 
   2269000   0.052591959   -1.1345305      0.046356784   -1.0093367     -0.0090994231 
   2270000   0.052695493   -1.134803       0.047302704   -1.008508      -0.0040950418 
   2271000   0.052641333   -1.1353962      0.048735756   -1.0077494      0.0019782423 
   2272000   0.051378172   -1.1347939      0.046669555   -1.0111068      0.0049594789 
   2273000   0.049361515   -1.1351229      0.046606733   -1.0145217     -0.0015648692 
   2274000   0.051648563   -1.1350568      0.048013692   -1.0096202     -0.0056155205 
   2275000   0.049656029   -1.134473       0.045144884   -1.0148921     -0.010666969  
   2276000   0.05012402    -1.1334406      0.047496761   -1.0108063      0.012794438  
   2277000   0.050803436   -1.1342313      0.047845905   -1.0102294      0.00058473613
   2278000   0.051231276   -1.1334802      0.046053874   -1.010629       0.006838135  
   2279000   0.051715022   -1.1343826      0.04348412    -1.013376       0.010927838  
   2280000   0.050804497   -1.1349189      0.045129618   -1.0136317     -0.0028366832 
   2281000   0.050486666   -1.1332152      0.046661492   -1.0108725     -0.0017279469 
   2282000   0.05089173    -1.1341879      0.047556804   -1.0103427      0.0019589871 
   2283000   0.051993299   -1.1335435      0.046661617   -1.0089422      0.0052304657 
   2284000   0.052588293   -1.1347043      0.048655028   -1.0072178      0.0053953268 
   2285000   0.050004346   -1.1355404      0.048106869   -1.0124754     -0.0027697016 
   2286000   0.050991957   -1.1339873      0.047244188   -1.0103045      0.0061453725 
   2287000   0.052712675   -1.1356906      0.049702257   -1.0069703     -0.010701268  
   2288000   0.052865361   -1.1341234      0.048022689   -1.0068539     -0.010955683  
   2289000   0.048782365   -1.1341158      0.046919584   -1.0140699     -0.0051264754 
   2290000   0.051072521   -1.1361942      0.045582136   -1.0140527      0.0040429454 
   2291000   0.04977156    -1.1335676      0.047084384   -1.0118741      0.0083406033 
   2292000   0.050310087   -1.1336759      0.048025483   -1.010234       0.0053673323 
   2293000   0.050372381   -1.1330244      0.047854254   -1.0096604      0.018455293  
   2294000   0.05111809    -1.1341499      0.048448201   -1.009074      -0.00433881   
   2295000   0.049532156   -1.1331513      0.047858173   -1.0110428      0.013418715  
   2296000   0.051279246   -1.1344808      0.046842198   -1.0107694      0.0037142412 
   2297000   0.051017186   -1.1345581      0.046347324   -1.0117343      0.00019386452
   2298000   0.052194215   -1.1336166      0.048292671   -1.0070831      0.0051030309 
   2299000   0.051959719   -1.1342993      0.049082448   -1.0073275     -0.0025386982 
   2300000   0.051624605   -1.1340697      0.047734805   -1.008948       0.0004002886 
   2301000   0.050844546   -1.1344115      0.048386048   -1.0098079     -0.0029678105 
   2302000   0.053249901   -1.1356742      0.047688064   -1.0081628     -0.0060294441 
   2303000   0.0511096     -1.1318492      0.044345573   -1.0108887      0.0035933383 
   2304000   0.051760099   -1.1343272      0.047931779   -1.0088054      0.0088097456 
   2305000   0.051425517   -1.1352377      0.045463518   -1.0126856      0.0039961408 
   2306000   0.051104762   -1.1347522      0.045865916   -1.0122786      0.0085918804 
   2307000   0.05181352    -1.1329159      0.044337361   -1.0109084      0.0065041189 
   2308000   0.052040952   -1.1343385      0.046684587   -1.0096428      0.015210728  
   2309000   0.052564538   -1.1339831      0.04809882    -1.0070884      0.0039760669 
   2310000   0.052158436   -1.1325345      0.047744858   -1.0066024      0.0079127514 
   2311000   0.052739433   -1.1349339      0.04847101    -1.0074048      0.0024547448 
   2312000   0.052094004   -1.1352811      0.045399784   -1.0117907      0.0046483337 
   2313000   0.050605239   -1.1335617      0.045221374   -1.0124814      0.0019608644 
   2314000   0.051876289   -1.1347605      0.045637753   -1.0113585      0.0018935234 
   2315000   0.052930033   -1.133529       0.048057258   -1.0061279      0.0054088461 
   2316000   0.050702668   -1.1345024      0.049155921   -1.0093415      0.0017533885 
   2317000   0.051770745   -1.1334044      0.047786193   -1.0080122     -0.0025480334 
   2318000   0.051186677   -1.1337441      0.04572587    -1.0112878      0.0059558282 
   2319000   0.051029688   -1.1326998      0.045769973   -1.0104347     -0.0027857065 
   2320000   0.050483158   -1.1351601      0.047471327   -1.0120129      0.014229314  
   2321000   0.050615175   -1.1347514      0.04855874    -1.0103189     -0.0018943552 
   2322000   0.048892563   -1.1340516      0.045032402   -1.0157276      0.0032158029 
   2323000   0.049166659   -1.1351013      0.047614841   -1.013784       0.0056491018 
   2324000   0.05256548    -1.1345383      0.045022187   -1.0107188      0.011364772  
   2325000   0.05114311    -1.134506       0.04772726    -1.0101135      0.0083046412 
   2326000   0.05197867    -1.1339442      0.047422156   -1.0086043     -0.0009217733 
   2327000   0.052080894   -1.1345638      0.046491103   -1.0100017      0.0098928303 
   2328000   0.051241625   -1.132898       0.04796343    -1.0081218     -0.0019915697 
   2329000   0.053670611   -1.1324965      0.046532843   -1.0055097      0.017004495  
   2330000   0.052814593   -1.1328893      0.046367057   -1.0073515      0.004771561  
   2331000   0.052440858   -1.1350112      0.049114534   -1.0072861      0.00039262809
   2332000   0.050589565   -1.1354817      0.048686677   -1.0109596      0.0087608878 
   2333000   0.052865355   -1.1347286      0.047662059   -1.0078197      0.0013314456 
   2334000   0.050813479   -1.1351426      0.046606469   -1.0123651      0.0077012243 
   2335000   0.049584728   -1.1319815      0.045150558   -1.0125018     -0.00023274797
   2336000   0.053211237   -1.1352326      0.047061727   -1.0084055      0.012465774  
   2337000   0.050916967   -1.138749       0.048363466   -1.0140594     -0.0029231128 
   2338000   0.050374425   -1.1372383      0.045802792   -1.0159226      0.003444296  
   2339000   0.050608744   -1.1349385      0.045462742   -1.0136116      0.014275722  
   2340000   0.053239557   -1.136862       0.048549979   -1.0085042      0.0076278452 
   2341000   0.05174488    -1.1359204      0.048605102   -1.009748       0.0067305192 
   2342000   0.052524855   -1.1363222      0.04756144    -1.0100243      0.012910397  
   2343000   0.05192605    -1.1377205      0.049519353   -1.0103623     -0.0084676545 
   2344000   0.051743783   -1.1368814      0.046789072   -1.0125267      0.00045781526
   2345000   0.050803043   -1.136743       0.048389233   -1.0121983      0.0034908442 
   2346000   0.053122732   -1.1349978      0.049398299   -1.0059668      0.0017550176 
   2347000   0.050421762   -1.1359929      0.050863743   -1.0095453     -0.0021958323 
   2348000   0.052525887   -1.1366433      0.047595483   -1.0103098     -0.0046072738 
   2349000   0.052022299   -1.1368072      0.05033746    -1.0084866     -0.00095697521
   2350000   0.051202753   -1.1367454      0.047949701   -1.0120411      0.0064587736 
   2351000   0.052217488   -1.136295       0.046731699   -1.0112876      0.00066051663
   2352000   0.051810779   -1.1374683      0.049156142   -1.0106461      0.0116423    
   2353000   0.050864956   -1.1346487      0.046298865   -1.0121016      0.0037793756 
   2354000   0.051315261   -1.1343983      0.047546584   -1.0099285      0.0031797743 
   2355000   0.050510217   -1.1354784      0.048376279   -1.0113857      0.0034570849 
   2356000   0.052069096   -1.1367453      0.047485324   -1.0112067      0.0082834744 
   2357000   0.051505467   -1.1368725      0.046821255   -1.0128429      0.003951764  
   2358000   0.052847357   -1.137385       0.049312687   -1.0088524     -0.0005165459 
   2359000   0.052961875   -1.1359634      0.049529113   -1.0070427      0.016259917  
   2360000   0.052303067   -1.1368574      0.048840402   -1.009613       0.010138846  
   2361000   0.052484917   -1.137726       0.046488629   -1.0125608      0.0074398415 
   2362000   0.052110155   -1.1368495      0.04813259    -1.0106021      0.0008259521 
   2363000   0.051712894   -1.138127       0.049234472   -1.0113732      0.015155244  
   2364000   0.051015411   -1.1377489      0.047199996   -1.0140751     -0.0047684877 
   2365000   0.050871531   -1.1377482      0.048878871   -1.0126112      0.0034854008 
   2366000   0.049905713   -1.1357212      0.048856493   -1.0120545      0.0083322052 
   2367000   0.051066351   -1.1368846      0.048756391   -1.0115781     -0.0017638407 
   2368000   0.051685919   -1.1360602      0.047619189   -1.0109622     -0.0027514709 
   2369000   0.050995561   -1.1381906      0.048563859   -1.0131827     -0.0028724168 
   2370000   0.051478855   -1.1381334      0.049387927   -1.011577      -0.0038628885 
   2371000   0.05044345    -1.1374713      0.048252105   -1.0136028      0.0010080074 
   2372000   0.051168097   -1.138168       0.04790203    -1.0135633      4.7432955e-05
   2373000   0.051532821   -1.1385031      0.046810265   -1.0144435     -0.00226384   
   2374000   0.052139813   -1.1364752      0.050177949   -1.008138      -0.0065801971 
   2375000   0.052088579   -1.1367811      0.049635861   -1.0090628     -0.0073643584 
   2376000   0.051650662   -1.1351047      0.049263036   -1.0084156     -0.0023123424 
   2377000   0.051437373   -1.1360186      0.048456624   -1.0104557     -0.0042142895 
   2378000   0.052965775   -1.1375544      0.048563366   -1.0095936      0.003215152  
   2379000   0.053029303   -1.1365138      0.047374408   -1.0096468      0.0039451448 
   2380000   0.051465017   -1.1377758      0.051268412   -1.0093597     -0.012729225  
   2381000   0.053440845   -1.1373169      0.052016294   -1.005191       0.010267178  
   2382000   0.054519037   -1.1382735      0.04851196    -1.0080358     -0.0037075879 
   2383000   0.051543849   -1.1385154      0.050178153   -1.0110713      0.0052034389 
   2384000   0.051208699   -1.136708       0.049934852   -1.0100096      0.0017722796 
   2385000   0.051018666   -1.1362441      0.049064696   -1.0107008      0.0085553604 
   2386000   0.050449272   -1.1375626      0.047635734   -1.0143018      0.004657324  
   2387000   0.05118325    -1.1374803      0.047118075   -1.0136369     -0.0025770622 
   2388000   0.05221506    -1.1356622      0.049341628   -1.0080485      0.017365122  
   2389000   0.051670344   -1.1370282      0.049450756   -1.0101219      0.0092628466 
   2390000   0.051249753   -1.1374314      0.04833091    -1.0122755      0.0017436434 
   2391000   0.054003213   -1.136185       0.047803689   -1.0074288      0.0083251748 
   2392000   0.052010267   -1.1369793      0.050177837   -1.0088364     -0.0027717356 
   2393000   0.050355624   -1.1367766      0.047287492   -1.0140044      0.0077437157 
   2394000   0.05186641    -1.1373035      0.049661125   -1.0098929      0.00093727339
   2395000   0.050289118   -1.1360463      0.049690003   -1.0109713      0.00051410943
   2396000   0.049705336   -1.1376552      0.049015605   -1.0141297      0.0011847408 
   2397000   0.049535863   -1.1394392      0.05084156    -1.0143418      0.01011139   
   2398000   0.052167673   -1.1375724      0.047284055   -1.0120873     -0.0030295177 
   2399000   0.051863329   -1.1384623      0.048249064   -1.0124684     -0.015254799  
   2400000   0.050586128   -1.1385836      0.050053888   -1.0126995      0.0088346103 
   2401000   0.050729018   -1.1384125      0.048724881   -1.0136432      0.001660383  
   2402000   0.052260141   -1.137868       0.045695968   -1.0138324      0.004332078  
   2403000   0.050316438   -1.1388781      0.048010898   -1.0154412      0.002363894  
   2404000   0.051869191   -1.1369552      0.046410289   -1.0127914      0.0048687604 
   2405000   0.051216121   -1.1376814      0.048141792   -1.012765       0.010250929  
   2406000   0.051142347   -1.1381601      0.046442174   -1.0150539      0.0092593467 
   2407000   0.049928877   -1.138136       0.048016966   -1.0152741      0.0062291174 
   2408000   0.052755006   -1.1378986      0.046624777   -1.0121924      0.0082380021 
   2409000   0.051949004   -1.1381656      0.048124836   -1.0121675      0.0011216819 
   2410000   0.052566422   -1.1379888      0.050433728   -1.0087563      0.0038222967 
   2411000   0.05110504    -1.1346292      0.048627087   -1.009394       0.011680686  
   2412000   0.05318957    -1.1378989      0.048699251   -1.0094667      0.010881068  
   2413000   0.052702921   -1.1370659      0.048664906   -1.0093976      0.0043827386 
   2414000   0.051458246   -1.1361129      0.046404388   -1.0125709     -0.0077841639 
   2415000   0.050010255   -1.1359613      0.048781908   -1.0122124      0.0037415899 
   2416000   0.050907629   -1.1389685      0.047362041   -1.0152942      0.0051683257 
   2417000   0.049744215   -1.1372862      0.046396799   -1.0163212      0.0095208423 
   2418000   0.051753365   -1.1374261      0.049203955   -1.0106422      0.0076297024 
   2419000   0.051039874   -1.1373002      0.049029028   -1.0117608      0.003252646  
   2420000   0.049271986   -1.1376494      0.045365631   -1.0184235      0.0041392338 
   2421000   0.051594175   -1.1368755      0.047819229   -1.0117149     -0.00064124575
   2422000   0.049545914   -1.1360849      0.048553753   -1.0132602      0.0035578381 
   2423000   0.050548294   -1.1376584      0.046762975   -1.0151219      0.00045884698
   2424000   0.051587865   -1.1377701      0.046487652   -1.0139506      0.0039829088 
   2425000   0.051039385   -1.1385817      0.047438098   -1.0146339     -0.0028224326 
   2426000   0.051410243   -1.1364393      0.048108339   -1.0112653      0.0072976525 
   2427000   0.052020428   -1.136866       0.048454603   -1.0104311      0.00078144549
   2428000   0.053629865   -1.1389398      0.04838834    -1.0101586      0.00098070169
   2429000   0.05108121    -1.1380679      0.04837352    -1.013122       0.010579739  
   2430000   0.052601071   -1.1378637      0.047990239   -1.0110228      0.00054437045
   2431000   0.052447      -1.1375503      0.047690603   -1.0112399     -0.0044425937 
   2432000   0.052858881   -1.1371408      0.047173337   -1.0107303      0.017515184  
   2433000   0.053678197   -1.1358789      0.046238672   -1.0091749      0.020782085  
   2434000   0.052703504   -1.1365225      0.048067384   -1.0094509      0.019050817  
   2435000   0.053200273   -1.1375924      0.047387719   -1.0104557      0.0095198902 
   2436000   0.051655287   -1.1373933      0.047754408   -1.0122059      0.012765866  
   2437000   0.050375908   -1.1379199      0.047842932   -1.0145618      0.0053838536 
   2438000   0.050707448   -1.1365334      0.048402903   -1.0121184      0.010633147  
   2439000   0.051467292   -1.1379643      0.047473598   -1.0133396      0.017333701  
   2440000   0.050975282   -1.1379217      0.047435455   -1.0140726      0.0052788221 
   2441000   0.052227332   -1.1371734      0.048757517   -1.0101254      0.013628393  
   2442000   0.050762749   -1.1362872      0.050606612   -1.0095856     -0.0019134102 
   2443000   0.053285846   -1.1408668      0.047034259   -1.0139554      0.0012013587 
   2444000   0.051715014   -1.1377586      0.049007525   -1.0112286      0.005056406  
   2445000   0.050903285   -1.1399283      0.049603131   -1.0140195      0.008333993  
   2446000   0.051388728   -1.1387373      0.048641098   -1.0130628      0.021649224  
   2447000   0.052152037   -1.1405759      0.049563532   -1.0128348      0.00040764571
   2448000   0.051249235   -1.1394253      0.05079213    -1.0118089      0.011681116  
   2449000   0.050173798   -1.1394288      0.048268739   -1.015948       0.0025980019 
   2450000   0.052532775   -1.1400355      0.047967785   -1.0133194      0.016767618  
   2451000   0.051276085   -1.1409125      0.050672474   -1.0133756      0.0045984451 
   2452000   0.051649745   -1.1387602      0.048955866   -1.0123797      0.022950578  
   2453000   0.052517977   -1.1413211      0.050710164   -1.0118848     -0.011010121  
   2454000   0.053549151   -1.1400717      0.046993809   -1.012806       0.00055978569
   2455000   0.052594074   -1.1392505      0.048360791   -1.0120495      0.0039613428 
   2456000   0.051045848   -1.1397002      0.048848258   -1.0143326      0.0060412875 
   2457000   0.051820839   -1.1383504      0.047619074   -1.0130502      0.0046533769 
   2458000   0.052996782   -1.1404012      0.046550162   -1.0144072      0.00040706017
   2459000   0.050775129   -1.1400002      0.047600851   -1.0162858      0.0073311728 
   2460000   0.051434178   -1.1393738      0.047724444   -1.0145478      0.0079836717 
   2461000   0.050519135   -1.1387884      0.046240694   -1.0168179      0.0050415705 
   2462000   0.051041624   -1.1392367      0.047652568   -1.015071       0.0028157633 
   2463000   0.053397088   -1.1378627      0.047027146   -1.0107916      0.0042902266 
   2464000   0.051498543   -1.1396514      0.050305961   -1.0121475      0.0065453632 
   2465000   0.051805412   -1.1397058      0.048736953   -1.0133108      0.0030610149 
   2466000   0.053101293   -1.1407563      0.048248491   -1.0129073      0.00025579617
   2467000   0.049363961   -1.1393178      0.049475497   -1.0158442      0.017420762  
   2468000   0.04925522    -1.1407841      0.048697054   -1.0182518     -0.0050313204 
   2469000   0.050594091   -1.1398225      0.047935298   -1.0160451      0.0083695284 
   2470000   0.049798561   -1.1396767      0.046085198   -1.0189419      0.0026827281 
   2471000   0.051458455   -1.1418121      0.04665693    -1.0180173     -0.011591653  
   2472000   0.050761688   -1.140631       0.04779899    -1.0167386      0.00017866222
   2473000   0.052757659   -1.1381261      0.048718962   -1.0103217      0.0073324802 
   2474000   0.051823769   -1.1398417      0.048920674   -1.0132355     -0.0041959501 
   2475000   0.052365422   -1.1391265      0.048421194   -1.0122079     -0.0062252767 
   2476000   0.053303553   -1.1403482      0.048481584   -1.0119628      0.011098775  
   2477000   0.052063552   -1.1381386      0.050333271   -1.0097604     -0.0047231768 
   2478000   0.051184257   -1.1399785      0.048687762   -1.0145639     -0.002077451  
   2479000   0.052234483   -1.1391421      0.047761083   -1.0130798      0.0032259128 
   2480000   0.051242625   -1.1404248      0.047750802   -1.0158596      0.0082230274 
   2481000   0.051377055   -1.137238       0.045307914   -1.0149143      0.0036426177 
   2482000   0.052676378   -1.1369829      0.046055657   -1.0119637      0.0047217259 
   2483000   0.051564318   -1.1385427      0.049343311   -1.0119028      0.0049343534 
   2484000   0.051883953   -1.1387169      0.048526926   -1.0124143     -0.0001800711 
   2485000   0.051102986   -1.139634       0.048704833   -1.0143242     -0.0034378723 
   2486000   0.051454277   -1.1381795      0.04715133    -1.0138966     -0.00070180016
   2487000   0.052282033   -1.1410436      0.047245232   -1.0154259      0.0051960738 
   2488000   0.052024584   -1.1374103      0.048003356   -1.0114204      0.020090154  
   2489000   0.052943987   -1.1378952      0.04805634    -1.0104741      0.011868427  
   2490000   0.051197233   -1.1373213      0.048969167   -1.0116059      0.0070010254 
   2491000   0.052473449   -1.138311       0.046989588   -1.012662       0.01558655   
   2492000   0.05219715    -1.139552       0.047067954   -1.0142388      0.0059330111 
   2493000   0.0518975     -1.1390147      0.04681693    -1.0144017      0.0095289691 
   2494000   0.051910085   -1.1404994      0.048271711   -1.0144128      0.0049134425 
   2495000   0.050360737   -1.1390458      0.048296045   -1.0152574     -0.0020456874 
   2496000   0.052461055   -1.1395288      0.047455834   -1.0134321      0.0038410676 
   2497000   0.050807435   -1.1403958      0.049165494   -1.0150683     -0.0037145766 
   2498000   0.051005288   -1.1391656      0.047944144   -1.0147629      0.0076607427 
   2499000   0.051264295   -1.1389786      0.047664485   -1.0144673      0.010223839  
   2500000   0.049140159   -1.139874       0.049449114   -1.0167622     -0.013618784  
   2501000   0.050791811   -1.1401198      0.048990197   -1.014991      -0.0019379222 
   2502000   0.050923395   -1.1393907      0.048094759   -1.0149601      0.015857725  
   2503000   0.052200358   -1.14119        0.04924186    -1.0136981      0.0051206766 
   2504000   0.05030473    -1.1402143      0.04739036    -1.0174156      0.00013437788
   2505000   0.051054208   -1.1389143      0.045866597   -1.0165158     -0.0017987072 
   2506000   0.052054875   -1.139475       0.04906386    -1.0123792     -0.0042021362 
   2507000   0.053134617   -1.1384262      0.04909935    -1.0096763      0.013223543  
   2508000   0.049093378   -1.1394332      0.046792615   -1.019048       0.0048703728 
   2509000   0.052305773   -1.1364506      0.049010445   -1.0090321      0.024153252  
   2510000   0.053036359   -1.1388317      0.04841532    -1.0109131      0.0050615734 
   2511000   0.052640201   -1.1409177      0.050134055   -1.0118743      0.0038896477 
   2512000   0.051639576   -1.1396336      0.050318231   -1.0119059     -0.0099015349 
   2513000   0.052314353   -1.1386878      0.047558282   -1.0127086     -0.008283508  
   2514000   0.052658439   -1.1401619      0.049922874   -1.0113023     -0.00085948384
   2515000   0.051824      -1.1399127      0.049826849   -1.0124        -0.0054705171 
   2516000   0.052536885   -1.141427       0.048515658   -1.0141569      0.00060099345
   2517000   0.049861389   -1.1390755      0.047556265   -1.0167755     -0.0063037642 
   2518000   0.050923542   -1.139196       0.047996471   -1.0148635      0.0053813833 
   2519000   0.052371539   -1.1381142      0.046650529   -1.0129571      0.012212817  
   2520000   0.053610015   -1.1406201      0.048241085   -1.0120159     -0.013454206  
   2521000   0.05138225    -1.1395393      0.049317934   -1.0131977      0.0079848877 
   2522000   0.052392672   -1.1388522      0.047881815   -1.0124321      0.0015481469 
   2523000   0.052290365   -1.1395301      0.048384108   -1.012761       0.0083445516 
   2524000   0.051310645   -1.1398337      0.049314811   -1.0136025     -0.0015184251 
   2525000   0.050802722   -1.1386143      0.04845705    -1.0140024     -0.0097006975 
   2526000   0.050291223   -1.138673       0.048926402   -1.0143585      0.0030985142 
   2527000   0.051866112   -1.139542       0.047620265   -1.0141728      0.0078064176 
   2528000   0.051952307   -1.1403174      0.047065953   -1.0153733      0.0014474876 
   2529000   0.051144686   -1.1404144      0.04637183    -1.0173751      0.0059859049 
   2530000   0.052133553   -1.1395241      0.04876566    -1.0126086      0.01013436   
   2531000   0.05351409    -1.1396081      0.048904538   -1.0104843      0.0099910404 
   2532000   0.052307604   -1.141864       0.050796087   -1.0126572     -0.005056741  
   2533000   0.050696191   -1.1382896      0.048854854   -1.0134395      0.0049371221 
   2534000   0.052370316   -1.1389463      0.050452703   -1.0099888      0.0052773421 
   2535000   0.052585902   -1.1402462      0.048758173   -1.0126601     -0.0022698723 
   2536000   0.052334138   -1.1401576      0.049805313   -1.0119017      0.0061816425 
   2537000   0.053361276   -1.1372614      0.048518345   -1.0087528      0.0041176804 
   2538000   0.052944009   -1.1388583      0.04711113    -1.0123824      0.0066233404 
   2539000   0.052413161   -1.1393683      0.050307479   -1.0104918      0.0047024031 
   2540000   0.052764198   -1.138191       0.048646458   -1.0104493     -0.0026674316 
   2541000   0.050931478   -1.1395081      0.048530818   -1.0146294      0.017178215  
   2542000   0.049844488   -1.141783       0.048440438   -1.018624      -0.0057774672 
   2543000   0.050440278   -1.1390064      0.047678736   -1.0157161      0.0023669394 
   2544000   0.051364964   -1.1390738      0.0477161     -1.01436       -0.0042501312 
   2545000   0.05256206    -1.1405235      0.0505071     -1.0112242      0.0066496714 
   2546000   0.053036143   -1.1382947      0.048207577   -1.0105842      0.0044236866 
   2547000   0.051676307   -1.1380234      0.047904444   -1.0126545     -0.0089006148 
   2548000   0.05167786    -1.1388562      0.048177495   -1.0132119      0.005335723  
   2549000   0.052169947   -1.1417118      0.052140033   -1.0113674      0.0022817839 
   2550000   0.052710275   -1.1411401      0.051016063   -1.0111096     -0.0032566972 
   2551000   0.051328474   -1.1387582      0.047360691   -1.0144544      0.020234314  
   2552000   0.052089454   -1.1397865      0.046884724   -1.014818       0.0095422887 
   2553000   0.052040012   -1.1380805      0.04790026    -1.0121706      0.0077837861 
   2554000   0.053119696   -1.1387959      0.047657708   -1.0115101      0.01958011   
   2555000   0.05170123    -1.1392136      0.049676433   -1.0120354      0.013553664  
   2556000   0.051136647   -1.1395249      0.048844008   -1.0140254      0.00099230056
   2557000   0.052341962   -1.140143       0.048304049   -1.0133766     -0.0049399974 
   2558000   0.049427676   -1.1389094      0.046659411   -1.0181563      0.0054767689 
   2559000   0.051131434   -1.1390852      0.046017326   -1.0164202      0.011394768  
   2560000   0.051458556   -1.1399328      0.049539185   -1.0132556      0.0014420868 
   2561000   0.051617837   -1.1400708      0.052035855   -1.0106581      0.018771425  
   2562000   0.051721255   -1.1402376      0.049955943   -1.0127498      0.014879007  
   2563000   0.050898246   -1.1414877      0.051109776   -1.0140798     -0.0056855271 
   2564000   0.050457124   -1.138252       0.046636651   -1.0159785      0.010948523  
   2565000   0.049793242   -1.1402399      0.048143174   -1.0174551     -0.010741174  
   2566000   0.050920851   -1.138678       0.048826097   -1.0135199      0.01026465   
   2567000   0.051893729   -1.1390836      0.047264155   -1.0140291     -0.0007843353 
   2568000   0.051877018   -1.137566       0.048052909   -1.0117478      0.0030446809 
   2569000   0.052442795   -1.1379975      0.047028153   -1.0123559     -0.0049814601 
   2570000   0.053548961   -1.1399366      0.049134343   -1.0105306     -0.005347174  
   2571000   0.053637726   -1.1404282      0.050115654   -1.0099079      0.0035223519 
   2572000   0.051442823   -1.1403613      0.04848227    -1.0147646     -0.013313621  
   2573000   0.051620294   -1.1393823      0.046780744   -1.0152211      0.0075412846 
   2574000   0.050242684   -1.1401769      0.050512516   -1.014349       0.012705114  
   2575000   0.051611521   -1.1398487      0.048739614   -1.0137417     -0.01218919   
   2576000   0.050917122   -1.1389542      0.048247149   -1.0143807      0.013523339  
   2577000   0.051377255   -1.141005       0.047817892   -1.016171       0.0082602818 
   2578000   0.051092909   -1.1402542      0.048084325   -1.0155799      0.012006433  
   2579000   0.052172161   -1.1405869      0.047681426   -1.0146977      0.0067154975 
   2580000   0.049508209   -1.1395976      0.047416572   -1.0179666      0.010184475  
   2581000   0.050299732   -1.1401545      0.048006739   -1.0167469      0.019939071  
   2582000   0.053346108   -1.1387813      0.046747885   -1.0120659      0.018572404  
   2583000   0.049538584   -1.1390362      0.04922233    -1.0155539      0.00019890501
   2584000   0.051810342   -1.1395466      0.050373084   -1.0115082      0.01158279   
   2585000   0.052129842   -1.1399163      0.048139055   -1.0136329      0.012617086  
   2586000   0.051943853   -1.1391542      0.048985569   -1.0123031     -2.5817315e-05
   2587000   0.049952757   -1.1393282      0.050013468   -1.0144339      0.0052790361 
   2588000   0.051718138   -1.1383513      0.049844249   -1.0109799     -0.0010958945 
   2589000   0.051282002   -1.1401847      0.048941273   -1.0143701      0.018406042  
   2590000   0.050136144   -1.1398254      0.04926223    -1.0154075      0.0069976734 
   2591000   0.049792741   -1.1401202      0.048621413   -1.0168579      0.019787793  
   2592000   0.050786982   -1.1398898      0.049879127   -1.0138793      0.01574998   
   2593000   0.052432146   -1.1407212      0.051033848   -1.0110899      0.0041335039 
   2594000   0.050810079   -1.1373632      0.04663474    -1.0145625      0.015009159  
   2595000   0.050131292   -1.1405356      0.049048726   -1.0163385      0.0052502175 
   2596000   0.051119356   -1.1396968      0.049459251   -1.013608       0.0092081282 
   2597000   0.052137685   -1.1392568      0.048867172   -1.0122335      0.0016421304 
   2598000   0.052376421   -1.1396126      0.046586086   -1.0145125     -0.003903042  
   2599000   0.053104139   -1.1393433      0.047944452   -1.011794       0.0037355576 
   2600000   0.05071631    -1.1385482      0.048720752   -1.013802       0.017537969  
   2601000   0.051007137   -1.1395127      0.048760334   -1.014291       0.0050521178 
   2602000   0.052477052   -1.1382922      0.049518853   -1.0101085      0.0063089225 
   2603000   0.051458626   -1.1395643      0.049147952   -1.0132782      0.0055962796 
   2604000   0.051227298   -1.1388041      0.047545578   -1.0144672      0.0085982891 
   2605000   0.051539704   -1.1413809      0.048147188   -1.0159741      0.0078209213 
   2606000   0.050475242   -1.1417636      0.049670089   -1.0164295      0.0018103809 
   2607000   0.050896831   -1.1408945      0.049689943   -1.0149086      0.0053388336 
   2608000   0.050121009   -1.1388201      0.047900566   -1.0157865      0.0015041487 
   2609000   0.049580524   -1.139096       0.04790234    -1.0168709     -0.0051771993 
   2610000   0.05083838    -1.1395104      0.04878739    -1.0145146      0.014309025  
   2611000   0.049907468   -1.140675       0.048631381   -1.0172307      0.0064082299 
   2612000   0.051859489   -1.1382399      0.050508927   -1.0099919      0.0027019064 
   2613000   0.052476496   -1.1395108      0.049431736   -1.0114151      0.0088600233 
   2614000   0.051709039   -1.1365108      0.047205002   -1.0117922      0.00891988   
   2615000   0.050849291   -1.1378383      0.047953627   -1.0136599      0.013399127  
   2616000   0.052465616   -1.1381168      0.048540618   -1.0109286      0.013268006  
   2617000   0.052037512   -1.1395432      0.050137774   -1.0113995      0.01292958   
   2618000   0.051623293   -1.1384611      0.049314129   -1.011762       0.016124234  
   2619000   0.052420274   -1.1407767      0.047328866   -1.0148682      0.0096689589 
   2620000   0.050220102   -1.1390876      0.048517499   -1.0152885      0.0083331461 
   2621000   0.048772911   -1.139711       0.048058433   -1.0185404     -9.2260684e-05
   2622000   0.051933875   -1.1395725      0.04617134    -1.0155506      0.0092147695 
   2623000   0.051268012   -1.1407495      0.047602958   -1.0162941     -0.0072339217 
   2624000   0.049705307   -1.1396524      0.047596179   -1.0175463     -0.00098217772
   2625000   0.05112599    -1.140662       0.046828479   -1.017194      -0.0056173557 
   2626000   0.051326341   -1.1398864      0.048008082   -1.0149384      6.7909626e-07
   2627000   0.050980213   -1.1385699      0.048279195   -1.0138697      0.011441384  
   2628000   0.051039593   -1.1399193      0.048981041   -1.0144282      0.00027662199
   2629000   0.050076331   -1.1407652      0.049539538   -1.0161596     -0.0066461148 
   2630000   0.052423881   -1.1432885      0.049383514   -1.0153199      0.0064703015 
   2631000   0.051855139   -1.1410044      0.048698331   -1.0145735      0.0033753068 
   2632000   0.053055998   -1.1424703      0.047283542   -1.0156541      0.0073841146 
   2633000   0.051912525   -1.1407015      0.047150594   -1.0157323      0.0031520482 
   2634000   0.055234132   -1.1459145      0.049350803   -1.013766      -0.0030645247 
   2635000   0.052093824   -1.1430368      0.047474548   -1.0174719      0.0026583449 
   2636000   0.051837137   -1.1442636      0.046147781   -1.0204103     -0.0047538441 
   2637000   0.052353106   -1.1446889      0.047094831   -1.0191151      0.0036268384 
   2638000   0.051497345   -1.1436045      0.049140333   -1.017268      -0.00069686248
   2639000   0.048980837   -1.1446174      0.048973593   -1.0222199      0.0021258945 
   2640000   0.048861677   -1.1454822      0.047373283   -1.0248637     -0.0090149122 
   2641000   0.05134995    -1.1431174      0.047540297   -1.0186018      0.0015267902 
   2642000   0.052180895   -1.145          0.049674844   -1.0171043     -0.0094542668 
   2643000   0.050626725   -1.1429558      0.047867383   -1.0191973      0.0088498955 
   2644000   0.052426619   -1.1443401      0.049227916   -1.016523      -0.0017934336 
   2645000   0.051853233   -1.1458871      0.050043442   -1.018114      -0.0066442817 
   2646000   0.051325167   -1.1436573      0.049334446   -1.0173848      0.0036734634 
   2647000   0.052140698   -1.1441905      0.048140206   -1.0178897      0.010837769  
   2648000   0.052255121   -1.1443873      0.050122646   -1.0159325      0.0093274054 
   2649000   0.051373886   -1.1444781      0.049768813   -1.0176982      0.014880339  
   2650000   0.050916915   -1.1457277      0.049566368   -1.0198352      0.0002984464 
   2651000   0.052340284   -1.1445276      0.049644694   -1.0164231      0.0037962443 
   2652000   0.049881264   -1.1458454      0.047888949   -1.0231828     -0.0036452511 
   2653000   0.051025979   -1.1469174      0.048716111   -1.0217117     -0.0082174976 
   2654000   0.051623559   -1.1456638      0.047842617   -1.0204358      0.0042563554 
   2655000   0.052534348   -1.1464613      0.051289871   -1.0164207     -0.0010495996 
   2656000   0.050846955   -1.145576       0.049759236   -1.0195956     -0.0068641377 
   2657000   0.050238007   -1.1471248      0.048811032   -1.0230054      0.00099062576
   2658000   0.052020407   -1.1469798      0.050881278   -1.0181183      0.0045270457 
   2659000   0.052886929   -1.1464092      0.049600125   -1.0175299      0.010536188  
   2660000   0.051799381   -1.1456111      0.049455792   -1.0185064     -0.00060819291
   2661000   0.05233931    -1.1461394      0.046251158   -1.02143        0.014364499  
   2662000   0.051489764   -1.1447224      0.046355314   -1.0211823      0.0094271913 
   2663000   0.049887334   -1.1455996      0.049121387   -1.0216955      0.0032628501 
   2664000   0.050677511   -1.1463359      0.051342951   -1.0190258     -0.0027335286 
   2665000   0.053881466   -1.1442168      0.048197504   -1.0152492      0.0071818363 
   2666000   0.051355896   -1.1464661      0.048250144   -1.0212318      0.0013742104 
   2667000   0.052456243   -1.146591       0.049102872   -1.0188545      0.00080124675
   2668000   0.050369532   -1.1468471      0.050708639   -1.0206329     -0.0070198449 
   2669000   0.052644633   -1.1475395      0.049197984   -1.0194256     -0.0062327907 
   2670000   0.052659671   -1.1468777      0.049447375   -1.0184918      0.0064103465 
   2671000   0.051409391   -1.1464671      0.049503653   -1.0198991      0.00015768762
   2672000   0.051550048   -1.1463209      0.049556706   -1.019489       0.014654929  
   2673000   0.050282749   -1.1460657      0.047751797   -1.0229385      0.00024304641
   2674000   0.053104792   -1.1471674      0.048036585   -1.019525       0.0074932977 
   2675000   0.052685499   -1.1462971      0.051573859   -1.015746       0.0030162216 
   2676000   0.051579718   -1.1486838      0.050334311   -1.0210299     -0.0073751115 
   2677000   0.051572778   -1.1458503      0.050536739   -1.0180043     -0.0013231155 
   2678000   0.051742826   -1.1473261      0.047462615   -1.0222993      0.012700398  
   2679000   0.0532575     -1.1473142      0.049294488   -1.018185       0.010319326  
   2680000   0.051966501   -1.1477143      0.048906831   -1.020908      -0.012664639  
   2681000   0.052713678   -1.1473884      0.051297332   -1.0170716      0.0072812035 
   2682000   0.05441548    -1.1473998      0.050322624   -1.0155066      0.0082930174 
   2683000   0.051634432   -1.1457175      0.048333205   -1.0199827      0.0054852907 
   2684000   0.051454714   -1.1470415      0.050234151   -1.0196751      0.0096252855 
   2685000   0.051930925   -1.1461763      0.050110025   -1.0182202      0.0029819983 
   2686000   0.051165719   -1.14562        0.048706253   -1.0202147      0.017470711  
   2687000   0.052332392   -1.1455156      0.04836418    -1.0187035      0.016051031  
   2688000   0.052290487   -1.145713       0.047902995   -1.0194249      0.0081695721 
   2689000   0.052539028   -1.1460958      0.047865454   -1.0194726      0.016127614  
   2690000   0.051395689   -1.1469847      0.050261082   -1.0196799      0.0033525286 
   2691000   0.051646841   -1.14626        0.048440322   -1.0203994      0.0025103719 
   2692000   0.051745091   -1.1456356      0.04758282    -1.0204852      0.015024484  
   2693000   0.051436388   -1.1467386      0.047480786   -1.022153       0.01195152   
   2694000   0.052377039   -1.1446292      0.047977477   -1.0181369      0.011425544  
   2695000   0.052572287   -1.146094       0.048645167   -1.0186413      0.0081850417 
   2696000   0.049199082   -1.1438559      0.047618794   -1.0224861      0.011000514  
   2697000   0.051027623   -1.1472755      0.046957108   -1.0238264      0.0030081326 
   2698000   0.049600307   -1.14646        0.048260679   -1.0238468      0.0085274067 
   2699000   0.052174887   -1.1452757      0.046655909   -1.020408       0.0034859859 
   2700000   0.053759521   -1.144864       0.04863722    -1.0156395      0.0088904955 
   2701000   0.050244293   -1.1463298      0.049694802   -1.0213172     -0.0042402423 
   2702000   0.051202493   -1.1471652      0.048636557   -1.0217745      0.0021118324 
   2703000   0.05067962    -1.1475574      0.048154755   -1.0234323     -0.0064950196 
   2704000   0.051230634   -1.1460528      0.047979886   -1.0212765      0.0049887411 
   2705000   0.051617972   -1.1461853      0.048724044   -1.0200843     -0.012813618  
   2706000   0.054120344   -1.1453388      0.05005492    -1.0141558      0.0041840732 
   2707000   0.052470867   -1.1456249      0.049526273   -1.0174431      0.0071247264 
   2708000   0.052078554   -1.1478413      0.050205762   -1.0195681      0.0088677477 
   2709000   0.05199925    -1.1473408      0.048342979   -1.0210493     -0.00066574614
   2710000   0.050662101   -1.1458192      0.049349908   -1.0205252      0.0029630633 
   2711000   0.051997772   -1.1464652      0.049511835   -1.019007       0.017040105  
   2712000   0.050942995   -1.1454203      0.047890657   -1.0211645      0.011073697  
   2713000   0.052343684   -1.1466982      0.051751891   -1.0164814     -0.00279063   
   2714000   0.05153434    -1.1464421      0.049476957   -1.0197135      0.0011572549 
   2715000   0.051011647   -1.1469764      0.048259614   -1.0222487      0.0099546387 
   2716000   0.0494996     -1.1446369      0.048819264   -1.0216161      0.014851009  
   2717000   0.051397574   -1.1458487      0.049657746   -1.0191443     -0.0040247801 
   2718000   0.051598337   -1.1453403      0.046958531   -1.0210342      0.028754391  
   2719000   0.051421786   -1.1453162      0.046538005   -1.0216952      0.029896842  
   2720000   0.051639365   -1.1468418      0.050843408   -1.0185893      0.012040309  
   2721000   0.051914526   -1.146351       0.049428084   -1.0191013      0.015762856  
   2722000   0.051599253   -1.1482254      0.048841432   -1.022035       0.011701826  
   2723000   0.051034607   -1.14567        0.049917769   -1.0192497      0.02491865   
   2724000   0.051007674   -1.1461432      0.050368082   -1.0193129      0.0029885121 
   2725000   0.051113225   -1.1457218      0.049827143   -1.0192742     -0.0050882497 
   2726000   0.05195211    -1.1463134      0.048815967   -1.0196195     -0.0049088188 
   2727000   0.050473112   -1.1463857      0.048769206   -1.0219556      0.0041975671 
   2728000   0.052347551   -1.1461413      0.050090991   -1.0175796      0.0023048529 
   2729000   0.052588013   -1.1463905      0.048926603   -1.0186327      0.0086288959 
   2730000   0.051452115   -1.1466321      0.048628825   -1.0208749      0.010297906  
   2731000   0.051014175   -1.1476478      0.045884074   -1.0252918      0.0038577534 
   2732000   0.052513526   -1.1468447      0.046887102   -1.0212382      0.0024233858 
   2733000   0.052413514   -1.1480238      0.047745782   -1.0217084      0.003721972  
   2734000   0.051814502   -1.1476967      0.047595023   -1.0224301     -0.0074332608 
   2735000   0.054826949   -1.1466926      0.04848727    -1.0160179     -0.0034662192 
   2736000   0.053555078   -1.1474675      0.048970687   -1.018216      -0.0017317299 
   2737000   0.052714482   -1.1452795      0.048572866   -1.0176859      0.01144512   
   2738000   0.054792681   -1.1461632      0.049578829   -1.0144484      0.0012080988 
   2739000   0.050451952   -1.1456086      0.051231812   -1.0187477      0.02874419   
   2740000   0.051549986   -1.1451112      0.047963292   -1.0198729      0.015937922  
   2741000   0.050708565   -1.1462233      0.048760839   -1.0214487      0.010995264  
   2742000   0.052792321   -1.1484147      0.049502437   -1.0197749      0.0031667772 
   2743000   0.051013009   -1.145693       0.047433984   -1.0217889      0.0067927852 
   2744000   0.052308342   -1.1452166      0.047655345   -1.0191494      0.022103427  
   2745000   0.051515162   -1.1470223      0.049490489   -1.0203089      0.0059598423 
   2746000   0.051682145   -1.1449732      0.047966847   -1.0195331      0.010686406  
   2747000   0.052865769   -1.1459438      0.048551502   -1.0181449     -0.0042012762 
   2748000   0.052214802   -1.1462053      0.049037486   -1.0188962     -0.00082931322
   2749000   0.049556989   -1.1474767      0.050747621   -1.0224416     -0.0053267757 
   2750000   0.051171459   -1.1471484      0.049789782   -1.0206509     -0.0041551664 
   2751000   0.052775831   -1.1466092      0.048768461   -1.018728      -0.006444178  
   2752000   0.05285508    -1.1467858      0.052200948   -1.0153534     -0.0076544846 
   2753000   0.052542448   -1.1463491      0.050779977   -1.0168063      0.0078498003 
   2754000   0.052452626   -1.1457862      0.048782138   -1.0183759      0.0047631513 
   2755000   0.053262233   -1.1472526      0.049472833   -1.017938       0.013349002  
   2756000   0.050100508   -1.147797       0.050908582   -1.0217861      0.012582314  
   2757000   0.052032655   -1.1455789      0.050844865   -1.0167354      0.015227541  
   2758000   0.050521587   -1.1457968      0.046199814   -1.0238635      0.0084798689 
   2759000   0.050780699   -1.145124       0.047132721   -1.0218693      0.011834459  
   2760000   0.053034324   -1.1454722      0.048948259   -1.0170238      0.018019096  
   2761000   0.05419075    -1.1462578      0.046548326   -1.0184758      0.015980915  
   2762000   0.052187866   -1.145702       0.047444393   -1.0200263     -0.0012314728 
   2763000   0.053899393   -1.1458101      0.048888015   -1.0161252      0.026918584  
   2764000   0.052179982   -1.1458799      0.048260992   -1.0193995      0.012500053  
   2765000   0.051828017   -1.1451227      0.0470435     -1.0203874      0.020158111  
   2766000   0.052654097   -1.1459874      0.04800261    -1.0190546     -0.0054513072 
   2767000   0.051840334   -1.1472886      0.047178256   -1.0224        -0.00306363   
   2768000   0.052048631   -1.145511       0.047030508   -1.0204579      0.01992912   
   2769000   0.052720357   -1.1448344      0.049929243   -1.0158756      0.0059057145 
   2770000   0.05278021    -1.1478365      0.050153008   -1.0185643      0.0056179481 
   2771000   0.051214445   -1.1478022      0.049926887   -1.0211032      0.018503023  
   2772000   0.052011791   -1.1446063      0.049134327   -1.0175047      0.0045884559 
   2773000   0.053401308   -1.147049       0.048709391   -1.0182894      0.018655291  
   2774000   0.052883826   -1.1461164      0.049987862   -1.016854       0.014595111  
   2775000   0.051661083   -1.1458383      0.050016531   -1.0183802      0.003340388  
   2776000   0.052276672   -1.1451407      0.049950039   -1.0168263      0.0084674898 
   2777000   0.050572938   -1.1481861      0.050358005   -1.0220177      0.012368631  
   2778000   0.050283645   -1.144931       0.049729368   -1.0198248      0.011716414  
   2779000   0.052520834   -1.1459202      0.04770254    -1.0194873      0.014832145  
   2780000   0.050325675   -1.1471911      0.049757523   -1.0219938      0.025688928  
   2781000   0.050423239   -1.1456659      0.049553026   -1.0205268      0.014125201  
   2782000   0.05412313    -1.1456998      0.048281554   -1.0162859      0.010857417  
   2783000   0.05073196    -1.1473132      0.052033159   -1.0192312      0.0028108585 
   2784000   0.052053561   -1.1477223      0.048878607   -1.0208138      0.0024167053 
   2785000   0.052771758   -1.1461693      0.050145472   -1.0169173     -0.0036131054 
   2786000   0.051778463   -1.1438952      0.049486566   -1.016791       0.0096371666 
   2787000   0.051555854   -1.1462009      0.050157978   -1.0187591      0.018365936  
   2788000   0.051219277   -1.1465329      0.048750616   -1.0210029      0.012492863  
   2789000   0.051846002   -1.1448914      0.048833717   -1.0183389      0.011724336  
   2790000   0.052015855   -1.1450777      0.047542992   -1.0195613      0.0058920283 
   2791000   0.052890421   -1.1472824      0.048987667   -1.0190103      0.0089680292 
   2792000   0.051406315   -1.1469177      0.048820972   -1.021037       0.0067142642 
   2793000   0.050763647   -1.1452825      0.045478389   -1.0237078      0.01898173   
   2794000   0.050927619   -1.1474631      0.052080529   -1.0190404     -0.0091582436 
   2795000   0.051841798   -1.1477528      0.049764598   -1.0202757      0.0056505129 
   2796000   0.051806802   -1.1459804      0.04853162    -1.0197887      0.01455756   
   2797000   0.050870853   -1.1468053      0.048660683   -1.0218875     -0.0097158035 
   2798000   0.05217421    -1.1461287      0.049903973   -1.0180139      0.016275655  
   2799000   0.052505882   -1.1480174      0.050167521   -1.0191419      0.00465363   
   2800000   0.051908123   -1.1458254      0.047123373   -1.0208901      0.010692044  
   2801000   0.054273847   -1.1469505      0.049611979   -1.0159803      0.010815405  
   2802000   0.052447909   -1.1469506      0.049150266   -1.0191793      0.0083189485 
   2803000   0.051485091   -1.1455069      0.050423162   -1.0179059      0.021093032  
   2804000   0.052275959   -1.1469854      0.050015262   -1.0186068      0.014586228  
   2805000   0.050347588   -1.1464337      0.047033083   -1.023928       0.016703277  
   2806000   0.049933825   -1.1456281      0.045478846   -1.0252969      0.0085692693 
   2807000   0.05002348    -1.1446576      0.047710561   -1.0219602      0.027714668  
   2808000   0.050622165   -1.1467958      0.047745841   -1.0231657      0.0010957721 
   2809000   0.049585793   -1.1475309      0.049413396   -1.0237868      0.018805097  
   2810000   0.050370734   -1.1473455      0.047774105   -1.0240641      0.01940636   
   2811000   0.051409083   -1.148819       0.047301863   -1.0244532      0.0069135136 
   2812000   0.050328048   -1.1473518      0.049178904   -1.0227295      0.015330336  
   2813000   0.052445667   -1.1472893      0.050116067   -1.0185555      0.0080053885 
   2814000   0.051381763   -1.1466533      0.048457104   -1.0211733     -0.011097325  
   2815000   0.050119594   -1.1463023      0.050880072   -1.0202913      0.0077564677 
   2816000   0.050636351   -1.1464389      0.051907277   -1.0186261      0.027239115  
   2817000   0.05290751    -1.1469667      0.049626988   -1.0180297      0.0071640694 
   2818000   0.050360867   -1.145471       0.047801595   -1.0221769      0.0076817086 
   2819000   0.051503961   -1.147529       0.052273073   -1.0180498      0.012785556  
   2820000   0.051138015   -1.1476822      0.049117327   -1.0219073      0.012789632  
   2821000   0.0526905     -1.1456033      0.048725598   -1.0178929      0.016763552  
   2822000   0.052197875   -1.145962       0.050543808   -1.0171719      0.016869814  
   2823000   0.053569769   -1.145126       0.049125191   -1.015698       0.0024524241 
   2824000   0.053118088   -1.1465036      0.051132715   -1.0157452      0.014329995  
   2825000   0.051312122   -1.1472652      0.048715447   -1.0216312      0.017893289  
   2826000   0.051814955   -1.1486413      0.049598484   -1.0213705      0.018528718  
   2827000   0.051612176   -1.1484921      0.049880949   -1.0212428      0.0052532918 
   2828000   0.05271909    -1.1501076      0.048964955   -1.022115       0.0075001371 
   2829000   0.051573191   -1.1484592      0.047003002   -1.0241463      0.024766206  
   2830000   0.050661012   -1.1475994      0.049739688   -1.0219172      0.010210532  
   2831000   0.052944945   -1.1489411      0.050007235   -1.0195677      0.012702104  
   2832000   0.052370811   -1.1481974      0.04771986    -1.021972       0.029722968  
   2833000   0.051197695   -1.1506922      0.048932655   -1.0250125      0.0069477988 
   2834000   0.052424158   -1.1482757      0.051667271   -1.0180229      0.0024079201 
   2835000   0.051244139   -1.1469154      0.047940039   -1.0221588      0.027793983  
   2836000   0.052246253   -1.1467269      0.048898431   -1.0195096      0.0046747946 
   2837000   0.049697778   -1.1506024      0.051068576   -1.0250352      0.0084992875 
   2838000   0.050177279   -1.1495597      0.048124154   -1.0262182      0.0093891802 
   2839000   0.051064288   -1.1481898      0.050283239   -1.0213595      0.0089151927 
   2840000   0.050970574   -1.1492468      0.048031727   -1.0248085      0.0089710359 
   2841000   0.051999269   -1.1492393      0.048403112   -1.0228876      0.011956132  
   2842000   0.051525109   -1.14749        0.046272615   -1.0239796      0.0027927376 
   2843000   0.051101419   -1.1483867      0.04939588    -1.0223881      0.01445971   
   2844000   0.048870067   -1.1503301      0.051895856   -1.0251764      0.017091643  
   2845000   0.05097841    -1.1474903      0.048374463   -1.0226976      0.0098700621 
   2846000   0.052767799   -1.1490949      0.048815395   -1.0211788      0.003605931  
   2847000   0.051526353   -1.1486046      0.047513854   -1.023851       0.014790403  
   2848000   0.050674263   -1.1484346      0.045457939   -1.0270143      0.0059406633 
   2849000   0.050566604   -1.1485494      0.049628288   -1.0231202      0.016023207  
   2850000   0.052189787   -1.1518859      0.04955081    -1.0241009      0.0018302437 
   2851000   0.051352431   -1.147378       0.047065161   -1.0233338      0.014313554  
   2852000   0.05230336    -1.1513835      0.049793859   -1.0231852     -0.0097730627 
   2853000   0.050919992   -1.1496527      0.04708469    -1.0262373      0.016436559  
   2854000   0.049731687   -1.1511607      0.050184437   -1.0264268      0.0038477415 
   2855000   0.052587506   -1.1497263      0.049998391   -1.0208976      0.00032343946
   2856000   0.051272093   -1.1491615      0.047438786   -1.0248642      0.0059671859 
   2857000   0.051506572   -1.150256       0.049382056   -1.0236639      0.0075769301 
   2858000   0.050860502   -1.1488265      0.050429311   -1.0221557     -0.00081094057
   2859000   0.052337657   -1.1491253      0.047797615   -1.0228718      0.00207523   
   2860000   0.051723095   -1.1510816      0.047585109   -1.0259619      0.015166608  
   2861000   0.050530903   -1.148019       0.049097817   -1.0231738      0.020267584  
   2862000   0.050192391   -1.1479779      0.047758158   -1.0249797      0.0019820786 
   2863000   0.053315408   -1.1498807      0.047878408   -1.0220807      0.0043197725 
   2864000   0.052577954   -1.1502567      0.049306728   -1.0221339      0.0034574184 
   2865000   0.050686758   -1.150818       0.047931612   -1.0269053      0.0065115017 
   2866000   0.054137835   -1.1514193      0.049710588   -1.0205543      0.0040708213 
   2867000   0.053274238   -1.1502909      0.050730981   -1.0197001      0.013233869  
   2868000   0.050642471   -1.1493322      0.051362844   -1.0220546      0.021892278  
   2869000   0.051392243   -1.1495899      0.049686873   -1.0228644      0.02442242   
   2870000   0.051445427   -1.1506583      0.048103711   -1.0254363      0.013255046  
   2871000   0.050406457   -1.1511065      0.049088521   -1.0264571      0.012959842  
   2872000   0.050370009   -1.1505051      0.048884271   -1.0261146      0.016690653  
   2873000   0.050804976   -1.1503539      0.048547784   -1.0256478      0.009216804  
   2874000   0.052582953   -1.1505599      0.049433365   -1.022303       0.01394644   
   2875000   0.052445386   -1.1517163      0.04990195    -1.023197       0.0028546039 
   2876000   0.050844675   -1.1497934      0.050022967   -1.0235527      0.0030628332 
   2877000   0.05032703    -1.1508626      0.051428089   -1.0239927      0.011004638  
   2878000   0.050294733   -1.1497434      0.048509835   -1.0258401      0.010036126  
   2879000   0.051780532   -1.1489961      0.050210136   -1.0211653      0.015618573  
   2880000   0.050271984   -1.1514086      0.052339767   -1.0237095      0.0068273577 
   2881000   0.052728946   -1.1502102      0.04768147    -1.0234863      0.015632684  
   2882000   0.051746954   -1.1514712      0.051387677   -1.0225131     -0.01252511   
   2883000   0.051198073   -1.1502795      0.049193612   -1.0243384      0.021291805  
   2884000   0.051848472   -1.1513009      0.047874863   -1.0257035      0.01816669   
   2885000   0.049554644   -1.1498328      0.048551547   -1.0269972      0.018617141  
   2886000   0.050431813   -1.1500763      0.050501683   -1.0239757      0.0061873743 
   2887000   0.050511089   -1.1502782      0.04935085    -1.0252096      0.013058095  
   2888000   0.049954964   -1.1501062      0.050015103   -1.025207       0.0051775977 
   2889000   0.052938244   -1.150184       0.049234289   -1.0215935     -0.000729427  
   2890000   0.050184078   -1.1480962      0.049141304   -1.0237273      0.022515862  
   2891000   0.049431595   -1.1492773      0.04986379    -1.025314       0.011693907  
   2892000   0.050195502   -1.1501449      0.050081649   -1.0248186      0.0066422427 
   2893000   0.052675704   -1.1512462      0.050533479   -1.0217501      0.0016808913 
   2894000   0.049747043   -1.1490139      0.050030996   -1.0244105      0.029674136  
   2895000   0.052046382   -1.1505994      0.050170799   -1.0224094      0.0086321704 
   2896000   0.050947894   -1.1507962      0.050860824   -1.0235628      0.0062654379 
   2897000   0.051892726   -1.1483652      0.049192398   -1.0213839      0.0054159772 
   2898000   0.051035978   -1.1504693      0.04858761    -1.0253771      0.0040297294 
   2899000   0.052205185   -1.1526366      0.047253608   -1.0271257      0.0085045545 
   2900000   0.051351845   -1.1514559      0.050068683   -1.0244092     -0.00019790286
   2901000   0.05224104    -1.1490548      0.048919784   -1.0218241      0.026394708  
   2902000   0.052705023   -1.1506004      0.049774349   -1.0218195      0.0070100122 
   2903000   0.054010975   -1.1500337      0.047425893   -1.0216436      0.012822459  
   2904000   0.051037777   -1.1508914      0.051541036   -1.0228431      0.013229824  
   2905000   0.051647424   -1.1498121      0.051056314   -1.0213346      0.0034982929 
   2906000   0.053554938   -1.1522027      0.049864431   -1.0220576      0.020372772  
   2907000   0.049995689   -1.1509563      0.050783419   -1.0252277     -0.0023356925 
   2908000   0.051409141   -1.1485306      0.048798548   -1.0226681     -0.0028757149 
   2909000   0.052314619   -1.1499809      0.049094953   -1.0224647      0.0084446809 
   2910000   0.052607223   -1.1501608      0.050187152   -1.0211137      0.010786348  
   2911000   0.05124648    -1.1495251      0.051525949   -1.0211791      0.028551791  
   2912000   0.051552538   -1.1492623      0.049030676   -1.0229527      0.0080243213 
   2913000   0.051906043   -1.1504929      0.048047504   -1.0246366      0.014893676  
   2914000   0.051894368   -1.1512424      0.048455165   -1.024996       0.006006312  
   2915000   0.05127534    -1.1508942      0.050499593   -1.0235312      0.014623956  
   2916000   0.052306814   -1.150033       0.049680108   -1.0219433      0.019025819  
   2917000   0.052130845   -1.1493669      0.047203248   -1.0240178      0.0080699769 
   2918000   0.050898688   -1.1522327      0.050527057   -1.0254068      0.0078482689 
   2919000   0.050629127   -1.1500158      0.050553235   -1.0235678      0.010515396  
   2920000   0.051154969   -1.1494937      0.050020849   -1.0227899      0.0075828102 
   2921000   0.05142505    -1.1509089      0.051250735   -1.0225704     -0.0013333936 
   2922000   0.052282599   -1.148194       0.047340387   -1.0224803      0.012585038  
   2923000   0.050168765   -1.1501413      0.050962927   -1.0239738     -0.0068483719 
   2924000   0.051979388   -1.1492111      0.049205951   -1.0220863      0.0097190564 
   2925000   0.051237395   -1.1507191      0.048301166   -1.0256115      0.011212188  
   2926000   0.05018837    -1.1519538      0.051147582   -1.0255722      0.018401991  
   2927000   0.050950512   -1.1493596      0.047104985   -1.0258781      0.020319987  
   2928000   0.051019249   -1.1511292      0.052167494   -1.0224822      0.0070264096 
   2929000   0.051609772   -1.1495339      0.05129339    -1.0208758      0.0058772315 
   2930000   0.05065382    -1.1510083      0.0506449     -1.0244317     -0.00056675277
   2931000   0.051462799   -1.1507702      0.050906087   -1.0227197      0.010439179  
   2932000   0.050768364   -1.1504776      0.05035274    -1.0240214      0.0087253284 
   2933000   0.051961439   -1.1484261      0.047717602   -1.0228166      0.011847744  
   2934000   0.053687203   -1.1492071      0.050248291   -1.01848       -0.0019146475 
   2935000   0.053662504   -1.1498598      0.048801461   -1.0206165      0.012356949  
   2936000   0.051771785   -1.1504228      0.049463408   -1.0233518      0.0092750224 
   2937000   0.053870365   -1.1509133      0.046932002   -1.0232279      0.016390456  
   2938000   0.05310448    -1.1494532      0.049644756   -1.0202032     -0.00014895189
   2939000   0.051972365   -1.1500032      0.048858061   -1.0232369     -0.0091057806 
   2940000   0.052935985   -1.1500663      0.051015759   -1.0196978      0.007449492  
   2941000   0.051367408   -1.1501788      0.050690421   -1.022487       0.0061734429 
   2942000   0.053086319   -1.1487259      0.0490054     -1.0201424      0.02701169   
   2943000   0.050763157   -1.1502381      0.051328305   -1.0228142      0.013811555  
   2944000   0.050676733   -1.1502191      0.050276164   -1.0239769     -0.0020579974 
   2945000   0.050856621   -1.1497028      0.049458138   -1.0240089      0.0096866387 
   2946000   0.050806313   -1.1508225      0.052269849   -1.0223924      0.012940722  
   2947000   0.051490654   -1.1498503      0.050452812   -1.0222114     -0.0039530392 
   2948000   0.050726863   -1.1499278      0.047723987   -1.0261626      0.012017075  
   2949000   0.052569619   -1.149921       0.048343256   -1.0227742      0.0071670339 
   2950000   0.051129574   -1.150003       0.051589915   -1.0217682      0.002203135  
   2951000   0.050383983   -1.1496235      0.051244218   -1.0228521      0.0067692881 
   2952000   0.052885781   -1.1500329      0.049086743   -1.0216686      0.0087542285 
   2953000   0.050747776   -1.150176       0.048957516   -1.0251459      0.010253455  
   2954000   0.050916827   -1.148938       0.047594469   -1.0250176      0.014042271  
   2955000   0.052250613   -1.1483922      0.047409649   -1.0226572      0.010631879  
   2956000   0.052300409   -1.150912       0.04983384    -1.0226782      0.005449506  
   2957000   0.052895283   -1.1495091      0.048786928   -1.0214304      0.0043343878 
   2958000   0.053692333   -1.1494662      0.050503245   -1.0184764      0.019637541  
   2959000   0.05196471    -1.1495129      0.051386331   -1.0202298      0.010854919  
   2960000   0.051618694   -1.1496665      0.049995743   -1.0222927      0.0092173779 
   2961000   0.052243611   -1.1505032      0.05237875    -1.0198095      0.013090114  
   2962000   0.052789185   -1.1505538      0.051075822   -1.0203453      0.0083638288 
   2963000   0.052397657   -1.1502465      0.050196609   -1.0215041      0.015933262  
   2964000   0.051305311   -1.1489541      0.049820216   -1.0222256      0.01100398   
   2965000   0.052595815   -1.150416       0.049360346   -1.0222128      0.012696812  
   2966000   0.051036195   -1.148391       0.049154999   -1.0227311      0.0071765997 
   2967000   0.051730349   -1.1498991      0.051048416   -1.0213052      0.010090096  
   2968000   0.050535592   -1.1491833      0.049575521   -1.0238533      0.013192665  
   2969000   0.051306806   -1.1485766      0.05194441    -1.0197216      0.011405097  
   2970000   0.050455527   -1.1508719      0.049200178   -1.0260373     -0.0034201029 
   2971000   0.053236253   -1.1492032      0.047860344   -1.02154        0.016595409  
   2972000   0.050945536   -1.1487187      0.047979599   -1.0243701      0.020747263  
   2973000   0.050639131   -1.1508014      0.050034955   -1.0248568      0.022772212  
   2974000   0.0534823     -1.1502321      0.050160754   -1.0198996      0.001096237  
   2975000   0.052680405   -1.1491933      0.051504053   -1.0187196      0.014044713  
   2976000   0.053487383   -1.150116       0.05166016    -1.0182766      0.0002676762 
   2977000   0.052043599   -1.1484469      0.048141238   -1.0222906      0.015697014  
   2978000   0.050436895   -1.1520088      0.048518782   -1.0278835      0.026807741  
   2979000   0.049401771   -1.1513896      0.048753086   -1.0285817      0.026007203  
   2980000   0.051319178   -1.1501434      0.050472489   -1.0227418      0.024393472  
   2981000   0.049766272   -1.1497418      0.04720155    -1.027939       0.017253222  
   2982000   0.049916705   -1.151485       0.048366321   -1.0282919      0.0078575401 
   2983000   0.051216364   -1.1505734      0.047613647   -1.0261847      0.010255873  
   2984000   0.05240297    -1.1494488      0.047115924   -1.0237792      0.00057549678
   2985000   0.051664162   -1.1487515      0.048322628   -1.0229826      0.0082798306 
   2986000   0.053467776   -1.149455       0.048759689   -1.0205454      0.014171355  
   2987000   0.051507017   -1.1499257      0.048375613   -1.0243394      0.026690225  
   2988000   0.053162706   -1.150908       0.051638912   -1.0195765      0.0090602915 
   2989000   0.050490169   -1.1513138      0.051760358   -1.0238671      0.010514266  
   2990000   0.050696411   -1.150038       0.048626005   -1.0254164      0.0097289103 
   2991000   0.051251068   -1.1498666      0.048983455   -1.0240561      0.016130106  
   2992000   0.053220737   -1.1509597      0.048842088   -1.022338      -0.0074499411 
   2993000   0.053825598   -1.1500896      0.049257549   -1.0201457      0.013679924  
   2994000   0.053041206   -1.1496218      0.049998192   -1.0201131      0.016234742  
   2995000   0.053313349   -1.1508273      0.052150341   -1.0187586      0.020039357  
   2996000   0.05278414    -1.1518413      0.051083052   -1.0216331      0.015403739  
   2997000   0.050857788   -1.1498158      0.05161662    -1.0219617      0.018264665  
   2998000   0.051064661   -1.1515945      0.051068291   -1.0239787      0.014147581  
   2999000   0.052108587   -1.1497056      0.050822177   -1.0207709      0.010097931  
   3000000   0.051207234   -1.1492952      0.05123791    -1.021296       0.014202526  
   3001000   0.052766194   -1.1502842      0.048564695   -1.0226212      0.021901368  
   3002000   0.051676091   -1.1502741      0.049056134   -1.0237538     -0.002764052  
   3003000   0.050628872   -1.1484404      0.049443436   -1.0231027     -0.00018041867
   3004000   0.051895643   -1.1506481      0.051854238   -1.0210006     -0.00052541083
   3005000   0.050863063   -1.1484467      0.049146176   -1.0230552      0.015397731  
   3006000   0.049866196   -1.1493336      0.049172108   -1.0254105      0.020048666  
   3007000   0.052225013   -1.1503885      0.048587693   -1.0235138      0.0033490289 
   3008000   0.051834769   -1.1508407      0.052640086   -1.0204986      0.016479222  
   3009000   0.051289187   -1.148525       0.049857354   -1.0217835      0.026250312  
   3010000   0.052691985   -1.1491872      0.049573438   -1.0206267      0.019851994  
   3011000   0.052879759   -1.1491421      0.050512989   -1.0193606      0.016697727  
   3012000   0.051786977   -1.1493197      0.05092975    -1.0207596      0.01565369   
   3013000   0.053032368   -1.1516801      0.050071184   -1.0221117      0.016261452  
   3014000   0.052527811   -1.1522057      0.051614162   -1.0218506     -0.007856946  
   3015000   0.050451063   -1.1483561      0.048975327   -1.0237531      0.011065194  
   3016000   0.051598108   -1.1490554      0.048366753   -1.0233414      0.0046347817 
   3017000   0.053183868   -1.1522901      0.048967092   -1.0235987      0.0030618898 
   3018000   0.052420314   -1.1510257      0.04831627    -1.0241297      0.0071938925 
   3019000   0.052529427   -1.1487703      0.047854002   -1.022173       0.014748083  
   3020000   0.05170817    -1.1508036      0.049775216   -1.0235162     -0.0053508294 
   3021000   0.051803896   -1.1494812      0.050267023   -1.0215585     -0.0003853336 
   3022000   0.049749558   -1.1491369      0.051269416   -1.0232913      0.0016687463 
   3023000   0.050284429   -1.1494435      0.048813585   -1.025252      -0.0043480123 
   3024000   0.049821439   -1.1499024      0.048733788   -1.0264847      0.010092914  
   3025000   0.052724573   -1.1503362      0.049594272   -1.0217061      0.0067781829 
   3026000   0.05259969    -1.1484184      0.050492703   -1.0190771      0.0030211356 
   3027000   0.052242293   -1.1504087      0.050061626   -1.0220342      0.010313209  
   3028000   0.051678872   -1.1496938      0.050250964   -1.0219745      0.043430183  
   3029000   0.051790751   -1.1490366      0.049776461   -1.0216241      0.010426282  
   3030000   0.050215603   -1.1516848      0.050135417   -1.0262745      0.0080278482 
   3031000   0.05218424    -1.1508067      0.049520624   -1.0230602      0.0092757874 
   3032000   0.051474941   -1.1508113      0.049826086   -1.0238226      0.010269922  
   3033000   0.05289407    -1.1503747      0.051222653   -1.0198622      0.011208498  
   3034000   0.051986955   -1.1510894      0.0499191     -1.0232402     -0.0034225609 
   3035000   0.05027846    -1.1501932      0.050384392   -1.0244398      0.0033919135 
   3036000   0.05323761    -1.1512799      0.050519777   -1.0209553      0.015457431  
   3037000   0.050612851   -1.1496074      0.049219874   -1.0245172      0.01243835   
   3038000   0.05147894    -1.1495499      0.050127922   -1.0222534      0.0094819982 
   3039000   0.05186911    -1.1495763      0.051087083   -1.0207357      0.0013663105 
   3040000   0.051962561   -1.1513174      0.049858147   -1.0235657      0.0086905145 
   3041000   0.052560602   -1.1500581      0.05096596    -1.0203021      0.01028666   
   3042000   0.051796752   -1.1506686      0.052960613   -1.020063      -0.012936272  
   3043000   0.051474007   -1.1505372      0.052214866   -1.0211611      0.012060396  
   3044000   0.052554381   -1.1502588      0.052208001   -1.0192701      0.013463432  
   3045000   0.051823114   -1.1491611      0.050563101   -1.0209135      0.0068376101 
   3046000   0.051798359   -1.1496871      0.050510838   -1.0215288      0.0097256932 
   3047000   0.051719432   -1.1497643      0.05133602    -1.0208991     -0.0072817129 
   3048000   0.050367271   -1.1488291      0.048965897   -1.024361       0.00062904685
   3049000   0.050453352   -1.150443       0.048478537   -1.0263332      0.013794383  
   3050000   0.050371929   -1.1516311      0.050671913   -1.0254501     -0.0051981044 
   3051000   0.052520904   -1.150301       0.049025666   -1.0225448     -0.0055217461 
   3052000   0.05204708    -1.1521855      0.05194107    -1.0222242      0.0003961335 
   3053000   0.051394865   -1.1511479      0.047452117   -1.0266533      0.005360789  
   3054000   0.050257134   -1.1505         0.050079995   -1.0250829     -0.0063589125 
   3055000   0.051771807   -1.1514262      0.047779336   -1.0260393      0.001987666  
   3056000   0.051808964   -1.1514721      0.05263703    -1.0211717     -0.0042515302 
   3057000   0.052309352   -1.1496644      0.050636942   -1.020614       0.0032461297 
   3058000   0.053381293   -1.1504037      0.050870128   -1.0195133     -0.002873322  
   3059000   0.051925916   -1.1503209      0.049701247   -1.022781      -0.002204102  
   3060000   0.052507725   -1.1501379      0.051111814   -1.0203154      0.0036202799 
   3061000   0.050910463   -1.1496093      0.051134012   -1.0221589      0.0066711634 
   3062000   0.053693639   -1.1501228      0.048474105   -1.0211602     -0.0053244129 
   3063000   0.050247654   -1.149936       0.049614921   -1.0249982      0.012647465  
   3064000   0.052253133   -1.1503867      0.052284342   -1.0197732      0.0013779015 
   3065000   0.052645275   -1.1497216      0.048797591   -1.0220071     -0.0011457446 
   3066000   0.051796716   -1.1494069      0.049569935   -1.022192       0.0030309801 
   3067000   0.050796066   -1.1508311      0.050553919   -1.0241323      0.0023875635 
   3068000   0.051173389   -1.1498603      0.050962388   -1.0221873      0.0073594563 
   3069000   0.05315591    -1.1496235      0.051521004   -1.0184201      0.017938572  
   3070000   0.051719526   -1.1511447      0.050913594   -1.0227019      0.028016246  
   3071000   0.051008852   -1.1510053      0.049610604   -1.0249308     -0.0064353757 
   3072000   0.051285704   -1.1486322      0.050012997   -1.0217403      0.023515769  
   3073000   0.051211958   -1.1511033      0.052014232   -1.0223207      0.0083807716 
   3074000   0.052038101   -1.1500289      0.048623688   -1.0233984      0.0039650891 
   3075000   0.052305913   -1.1506632      0.049572824   -1.0226821      0.0031247017 
   3076000   0.050883801   -1.1503063      0.050671133   -1.0233587      0.0041503305 
   3077000   0.050184405   -1.1512152      0.049884188   -1.0261029      0.013780687  
   3078000   0.052162596   -1.1512165      0.048968377   -1.0240547      0.00077118279
   3079000   0.049648456   -1.1491035      0.049680948   -1.0249979      0.019959074  
   3080000   0.050626124   -1.1489082      0.048024278   -1.0249938      0.0036761685 
   3081000   0.051927471   -1.1507785      0.047899196   -1.0250384     -0.00095390835
   3082000   0.050309962   -1.1485315      0.052193729   -1.0209215      0.0014447437 
   3083000   0.053109712   -1.1484707      0.049519207   -1.0193383      0.011163127  
   3084000   0.052761218   -1.1500963      0.05389593    -1.0171096     -0.00048574525
   3085000   0.050688045   -1.1491792      0.052248353   -1.0209478      0.018466846  
   3086000   0.050623916   -1.1497868      0.050477682   -1.0234222      0.0062070851 
   3087000   0.050733861   -1.1498084      0.049693764   -1.0240629     -0.0044795306 
   3088000   0.051652735   -1.1516425      0.048946774   -1.0252666      0.0045510752 
   3089000   0.051049717   -1.150764       0.049680017   -1.0245588     -0.010062499  
   3090000   0.049801459   -1.1494645      0.049451438   -1.0253591      0.0017329208 
   3091000   0.051399825   -1.150153       0.048850288   -1.0242527     -0.0029342122 
   3092000   0.051125255   -1.1515116      0.051364002   -1.0235092     -0.001923521  
   3093000   0.050690016   -1.1507233      0.04959997    -1.0251374      0.0041515009 
   3094000   0.052352761   -1.1520394      0.05051211    -1.0230488     -0.002530095  
   3095000   0.052306709   -1.152316       0.052276625   -1.0216299     -0.0020701099 
   3096000   0.051519053   -1.1519486      0.050146222   -1.0245737     -0.0086392201 
   3097000   0.05195113    -1.151098       0.051112998   -1.0221086      0.0090698034 
   3098000   0.050205497   -1.1500129      0.050004542   -1.0247487      0.00010270794
   3099000   0.052187486   -1.1521592      0.049970685   -1.0239578      0.014609275  
   3100000   0.051094511   -1.1503379      0.048876306   -1.0248692      0.0087078224 
   3101000   0.052153376   -1.1524259      0.048862312   -1.025384      -0.0048356554 
   3102000   0.051399755   -1.1520072      0.049674465   -1.0252829      0.007491869  
   3103000   0.052529488   -1.1522028      0.050280119   -1.0231793     -0.00015201823
   3104000   0.051919685   -1.1499924      0.050001403   -1.0221617      0.0082190053 
   3105000   0.051380346   -1.1519374      0.05049225    -1.0244244      0.0051675119 
   3106000   0.05205227    -1.1506575      0.050601988   -1.0220275      0.017989262  
   3107000   0.052058814   -1.1522002      0.051951032   -1.0222113     -0.0055099426 
   3108000   0.050407902   -1.1512966      0.050249284   -1.0254843      0.016035684  
   3109000   0.054646292   -1.1526599      0.050395451   -1.0203479      0.0022082809 
   3110000   0.052998458   -1.1511467      0.050415556   -1.0212848      0.0073038095 
   3111000   0.051526567   -1.1509488      0.049901782   -1.0238071      0.0033605883 
   3112000   0.050982543   -1.1495272      0.048412199   -1.0246905      0.0050712071 
   3113000   0.053375314   -1.1512928      0.050073364   -1.0212082      0.0029226794 
   3114000   0.051790327   -1.1505067      0.050609997   -1.0222613      0.007389967  
   3115000   0.053868359   -1.1506894      0.049473437   -1.0204655      0.0085638546 
   3116000   0.052651785   -1.1496264      0.047029036   -1.0236707      0.0065669926 
   3117000   0.051794998   -1.148512       0.05052436    -1.0203453      0.0037375465 
   3118000   0.050964943   -1.1492453      0.049252125   -1.023595       0.017360289  
   3119000   0.052605916   -1.1516901      0.050023131   -1.022809       0.0078628833 
   3120000   0.05213467    -1.149768       0.048944755   -1.0226717      0.0025264945 
   3121000   0.049048575   -1.1518515      0.049937175   -1.028389      -0.0021837357 
   3122000   0.048178741   -1.1519203      0.051178467   -1.0285204      0.009523828  
   3123000   0.05123429    -1.1519665      0.047251977   -1.0279127     -0.0047470264 
   3124000   0.051737937   -1.1511672      0.050337946   -1.0232724      0.011681278  
   3125000   0.049513385   -1.150876       0.05136663    -1.0252872      0.021542505  
   3126000   0.051337682   -1.1515339      0.050039717   -1.0245373      0.013355116  
   3127000   0.052093866   -1.1504216      0.050193332   -1.0221378      0.0076584926 
   3128000   0.050060751   -1.1494243      0.050371828   -1.0240098      0.012952643  
   3129000   0.052821229   -1.152793       0.050808051   -1.0228043      0.017383608  
   3130000   0.049924254   -1.1495966      0.050950241   -1.0238083      0.013224049  
   3131000   0.052653667   -1.1519848      0.050354201   -1.022701       0.017081412  
   3132000   0.051158552   -1.1495981      0.048418012   -1.0244917      0.0084759583 
   3133000   0.053337464   -1.1521337      0.051060161   -1.0211189      0.020652169  
   3134000   0.051931809   -1.1515103      0.050028803   -1.023634      -0.0021779534 
   3135000   0.052767101   -1.1523265      0.047949472   -1.0252774     -0.0041938855 
   3136000   0.051260162   -1.1523688      0.049638376   -1.0258898      0.0089950733 
   3137000   0.053336668   -1.1503327      0.048923763   -1.0214556      0.0054551339 
   3138000   0.050821278   -1.1518477      0.050995929   -1.024669       0.0081899602 
   3139000   0.051608335   -1.152332       0.049999478   -1.02497        0.0031355768 
   3140000   0.051957642   -1.1507003      0.048707735   -1.0241063      0.0017870414 
   3141000   0.051166991   -1.1503842      0.049447306   -1.0242359      0.010819893  
   3142000   0.051742829   -1.1506714      0.050655392   -1.0224518      0.002237357  
   3143000   0.05131826    -1.1512523      0.048949538   -1.025375       0.0035140041 
   3144000   0.050395467   -1.1526109      0.049539133   -1.0275274      0.0056076548 
   3145000   0.049485293   -1.1494107      0.049046413   -1.0261843      0.010386916  
   3146000   0.050250599   -1.1507273      0.049045335   -1.0263547      0.0026751507 
   3147000   0.05153079    -1.1507606      0.04929956    -1.0242148     -0.0020925132 
   3148000   0.049954577   -1.1503474      0.046180564   -1.0292833      0.01360253   
   3149000   0.050520439   -1.1525718      0.048627411   -1.0282126      0.024132796  
   3150000   0.053341561   -1.1508837      0.049698427   -1.0212245      0.013040686  
   3151000   0.052662974   -1.1501761      0.049954023   -1.0212786      0.0010465076 
   3152000   0.052809451   -1.1534468      0.05059515    -1.0236886      0.019334915  
   3153000   0.053344947   -1.1513289      0.050014599   -1.0213486      0.012039821  
   3154000   0.05221116    -1.1499895      0.047480591   -1.0242427      0.010474385  
   3155000   0.050274072   -1.1518783      0.051325567   -1.0251903      0.0032179141 
   3156000   0.051596177   -1.1514591      0.049829483   -1.0242853     -0.0026551109 
   3157000   0.052663798   -1.1510811      0.051332673   -1.0208037     -0.0074777144 
   3158000   0.053312569   -1.1521745      0.051281437   -1.0209758     -0.0024278    
   3159000   0.053011412   -1.1508147      0.049419106   -1.0219297     -0.0062912199 
   3160000   0.050414412   -1.1505045      0.048561419   -1.0263702      0.00077706227
   3161000   0.049611971   -1.1511317      0.048359869   -1.0284018     -0.0013804711 
   3162000   0.049487491   -1.1500548      0.049368594   -1.0265029      9.5628796e-05
   3163000   0.050216985   -1.1530636      0.050340099   -1.0274466      0.0020134434 
   3164000   0.048732147   -1.1497531      0.049065693   -1.0276364     -0.006853946  
   3165000   0.051723326   -1.1501436      0.048387659   -1.0242211      0.0096326705 
   3166000   0.04934556    -1.150559       0.049205891   -1.0273826     -0.0046679361 
   3167000   0.050516449   -1.1534325      0.05074941    -1.0269573     -0.0021910914 
   3168000   0.050947071   -1.1510726      0.050696936   -1.0240043     -0.0035671127 
   3169000   0.050707574   -1.1514485      0.050021841   -1.0254144      0.0036382228 
   3170000   0.050820678   -1.1510385      0.053153863   -1.0217028      0.0040548098 
   3171000   0.052163894   -1.1522302      0.050952024   -1.0230828      0.0025054277 
   3172000   0.052725393   -1.1488106      0.049182695   -1.0205909      0.018554047  
   3173000   0.053770549   -1.1502323      0.051752429   -1.0178761      0.0018743194 
   3174000   0.051784097   -1.1542222      0.053903746   -1.0226924      0.0017859243 
   3175000   0.050645077   -1.1517309      0.049153179   -1.0266591      0.014631868  
   3176000   0.051707377   -1.1512913      0.0487996     -1.0249806     -0.00064435684
   3177000   0.050320056   -1.1523383      0.05060225    -1.0263047      0.017407015  
   3178000   0.050724303   -1.1519954      0.050690999   -1.0252671      0.012790738  
   3179000   0.053516008   -1.1511211      0.04969197    -1.0212069      0.0082573184 
   3180000   0.052310717   -1.1522369      0.051862372   -1.0219591      0.0092149791 
   3181000   0.050975968   -1.1517226      0.048762435   -1.0265455      0.001549549  
   3182000   0.052305856   -1.1535969      0.052464943   -1.0227238      0.014428503  
   3183000   0.052377213   -1.1523616      0.051903855   -1.0219426      0.0040323479 
   3184000   0.051275532   -1.1517734      0.049378615   -1.0255311      0.0012954128 
   3185000   0.051671634   -1.150884       0.051554381   -1.0218721      0.020172209  
   3186000   0.05070063    -1.1529112      0.050444192   -1.0264651      0.0015106334 
   3187000   0.050627608   -1.1524774      0.049733804   -1.0268512      0.0059758028 
   3188000   0.052134006   -1.1533883      0.050296273   -1.0249415      0.010996187  
   3189000   0.050213116   -1.1525679      0.050796579   -1.0265002     -0.0054866838 
   3190000   0.05214705    -1.1512397      0.051154495   -1.0219151      0.0013055601 
   3191000   0.053883612   -1.1515202      0.051402221   -1.0193447     -0.0079410881 
   3192000   0.052078726   -1.1530361      0.051654875   -1.0233135     -0.00020032653
   3193000   0.050418791   -1.1531594      0.051010246   -1.0265698      0.001748802  
   3194000   0.052692164   -1.1531727      0.051438562   -1.0227469     -0.0057884341 
   3195000   0.05333512    -1.1516307      0.049884777   -1.0217948      0.0091223107 
   3196000   0.052734411   -1.1508254      0.050894758   -1.0208801      0.003677245  
   3197000   0.053374379   -1.1516068      0.050766756   -1.0208301     -0.0005705057 
   3198000   0.053290433   -1.1533053      0.048801537   -1.0246197      0.00095846672
   3199000   0.051645172   -1.1531254      0.052352125   -1.0233555      0.0023112788 
   3200000   0.050728288   -1.1523138      0.050267101   -1.0260034      0.0085137965 
   3201000   0.05177872    -1.1534306      0.050369906   -1.0254427      0.00052107562
   3202000   0.052416419   -1.1515372      0.04999155    -1.0229718      0.020344619  
   3203000   0.052002347   -1.1527314      0.050747295   -1.0240309      0.016979665  
   3204000   0.051018453   -1.1537712      0.049122379   -1.0281705      0.010127267  
   3205000   0.05189493    -1.1538625      0.053516322   -1.022554       0.005548562  
   3206000   0.05339163    -1.151837       0.04838337    -1.0234179      0.012279609  
   3207000   0.052558242   -1.1516537      0.04944795    -1.0234192      0.01331854   
   3208000   0.054136592   -1.1538561      0.051875404   -1.0208282      0.0091150093 
   3209000   0.052550431   -1.1522994      0.050214312   -1.0233103      0.015787866  
   3210000   0.053960054   -1.1497706      0.048110564   -1.0207722      0.012030285  
   3211000   0.052135145   -1.1525265      0.048783311   -1.0255909      0.015466109  
   3212000   0.049591267   -1.1517103      0.048038126   -1.0293332      0.018365574  
   3213000   0.050113248   -1.15144        0.048573185   -1.0277454      0.0088004433 
   3214000   0.052707159   -1.152767       0.051411554   -1.0223457      0.0080265069 
   3215000   0.050463871   -1.1513319      0.051365237   -1.0243197      0.01560639   
   3216000   0.051860919   -1.1538888      0.051146463   -1.0250011      0.013899334  
   3217000   0.052571616   -1.151412       0.050303399   -1.0223021      0.023941456  
   3218000   0.051482592   -1.1504328      0.048457037   -1.0248017      0.017384018  
   3219000   0.052189203   -1.1525278      0.050441798   -1.0238527      0.020322633  
   3220000   0.050991873   -1.1517828      0.049677691   -1.0256666      0.02389572   
   3221000   0.052831805   -1.1535218      0.051588477   -1.0227368      0.0026415474 
   3222000   0.053667894   -1.1520944      0.049682226   -1.0219623      0.0066521635 
   3223000   0.051950382   -1.1499902      0.050975172   -1.0211398      0.010797371  
   3224000   0.053200941   -1.1517383      0.051819413   -1.020169       0.010017416  
   3225000   0.052028411   -1.1519247      0.05131298    -1.0226195     -0.0096547303 
   3226000   0.051989015   -1.1540471      0.052600116   -1.0235137      0.012844992  
   3227000   0.052031088   -1.15208        0.050929349   -1.0231543      0.0077686778 
   3228000   0.05123205    -1.1509006      0.049272158   -1.0248299      0.010380659  
   3229000   0.052478459   -1.1521076      0.046738659   -1.0267021      0.017545353  
   3230000   0.053313292   -1.1522714      0.050158354   -1.0221947      0.0065480335 
   3231000   0.052031422   -1.1520934      0.04935337    -1.0247432      0.0015377236 
   3232000   0.052108101   -1.151346       0.048793485   -1.0244408      0.0063338285 
   3233000   0.053497542   -1.1514596      0.048563479   -1.0227016      0.0057810129 
   3234000   0.052561102   -1.1513527      0.048449415   -1.0241125      0.0075673667 
   3235000   0.053894366   -1.1534601      0.049197287   -1.0234734      0.0057099635 
   3236000   0.054267607   -1.1535642      0.052598574   -1.0196167     -0.0038765089 
   3237000   0.052570839   -1.1531697      0.049928639   -1.0244357      0.012224677  
   3238000   0.052207672   -1.1524876      0.049218253   -1.0250084      0.018393808  
   3239000   0.052263119   -1.1537667      0.049935772   -1.0254868      0.011062148  
   3240000   0.051738982   -1.152799       0.049174923   -1.0260657      0.010482804  
   3241000   0.052544279   -1.1529352      0.050959522   -1.0232101      0.0077157841 
   3242000   0.051433196   -1.1548627      0.051429417   -1.0263333      0.0028493323 
   3243000   0.050690415   -1.1532108      0.050919975   -1.0263043      0.009433701  
   3244000   0.053451039   -1.1521008      0.049629456   -1.0223465      0.024902996  
   3245000   0.053777275   -1.1530873      0.049516609   -1.0229568      0.0049666228 
   3246000   0.053553057   -1.1519893      0.050464755   -1.0212467      0.021851271  
   3247000   0.050766764   -1.150349       0.050316133   -1.0239318      0.019561413  
   3248000   0.05118886    -1.1539703      0.050162308   -1.0270742      0.0040001973 
   3249000   0.051835569   -1.1522225      0.050419099   -1.0241002      0.0095594678 
   3250000   0.050046299   -1.1529901      0.051148553   -1.0268205     -0.00020440886
   3251000   0.051403916   -1.1533338      0.051542313   -1.0247354      0.017357934  
   3252000   0.054026258   -1.1531858      0.051627866   -1.0205708      0.010034018  
   3253000   0.049605893   -1.1533977      0.052037257   -1.0269996      0.0086164915 
   3254000   0.051625245   -1.1533859      0.050470416   -1.0255276      0.0073985856 
   3255000   0.049299861   -1.1530127      0.049743643   -1.0293669      0.011370014  
   3256000   0.051853046   -1.1520826      0.048949692   -1.0254035      0.013664243  
   3257000   0.052197614   -1.1494933      0.050797585   -1.0204498      0.02191742   
   3258000   0.052608269   -1.1525725      0.050946602   -1.0227644      0.017559837  
   3259000   0.052929299   -1.1531639      0.051904075   -1.0219171      0.0014539938 
   3260000   0.053283537   -1.1542345      0.053019152   -1.0213417      0.00091871647
   3261000   0.050815277   -1.152433       0.051050037   -1.0252092      0.006267324  
   3262000   0.051766249   -1.1537781      0.050527597   -1.0256513      0.00016614892
   3263000   0.051412813   -1.1518806      0.050716927   -1.0240942      0.0030944441 
   3264000   0.050395907   -1.1520788      0.049721743   -1.026812       0.015044775  
   3265000   0.051988584   -1.1521164      0.051037076   -1.0231468      0.024347912  
   3266000   0.054811846   -1.1515893      0.050229821   -1.0191947      0.020645561  
   3267000   0.051628888   -1.1527436      0.05147988    -1.0238704      0.02930839   
   3268000   0.053832504   -1.1529208      0.050398339   -1.0218258      0.010214537  
   3269000   0.05199934    -1.1525925      0.050231152   -1.0244127      0.01377236   
   3270000   0.052470871   -1.1538404      0.054171387   -1.0210134     -0.0057172861 
   3271000   0.05177018    -1.1535052      0.051313279   -1.0245867      0.0078846623 
   3272000   0.050734176   -1.1525006      0.053016213   -1.0234322      0.014284028  
   3273000   0.050629006   -1.1529151      0.051985492   -1.0250351     -0.014026394  
   3274000   0.052324983   -1.1509181      0.050842855   -1.0216384     -0.00014022787
   3275000   0.052017506   -1.1514666      0.049425415   -1.0240652      0.012237631  
   3276000   0.051990313   -1.1523518      0.053474678   -1.020942       0.0057562388 
   3277000   0.053268552   -1.1522182      0.049643846   -1.0227231     -0.0041619064 
   3278000   0.051648279   -1.1526984      0.053232471   -1.0220435      0.0028491173 
   3279000   0.052612125   -1.1520381      0.048338474   -1.0248324      0.013332714  
   3280000   0.049952717   -1.1524676      0.050503898   -1.027083       0.020919195  
   3281000   0.049961538   -1.155647       0.05160491    -1.0291481      0.0074427651 
   3282000   0.050283117   -1.1516381      0.049035016   -1.027227       0.018563763  
   3283000   0.053152813   -1.1524706      0.051050083   -1.0217427      0.0097618715 
   3284000   0.051591984   -1.1519909      0.052071761   -1.0225811      0.020417172  
   3285000   0.053628931   -1.1522557      0.050770382   -1.0210938      0.0077413072 
   3286000   0.053787965   -1.1532318      0.052947379   -1.0196545     -0.0027119616 
   3287000   0.052736138   -1.1522888      0.052143516   -1.0210922      0.012824809  
   3288000   0.052262809   -1.1521923      0.051766446   -1.0220822      0.0050288093 
   3289000   0.050972592   -1.1524318      0.050736144   -1.0252861      0.005970893  
   3290000   0.052493437   -1.1536279      0.05217138    -1.0227672      0.012798098  
   3291000   0.048897344   -1.1512225      0.052342691   -1.0255811      0.0055368715 
   3292000   0.052973996   -1.151133       0.048299747   -1.0234235      0.014721092  
   3293000   0.05086345    -1.1531793      0.05101672    -1.0259166     -0.0029490769 
   3294000   0.051729986   -1.1541326      0.048881224   -1.0277064     -0.0048949129 
   3295000   0.050720722   -1.1554019      0.050755521   -1.0286144      0.0049007906 
   3296000   0.052317398   -1.1540975      0.050910729   -1.0247613      0.01442686   
   3297000   0.052875462   -1.1530604      0.050805367   -1.022993       0.0082210577 
   3298000   0.052716311   -1.1552143      0.05084703    -1.0253438      0.010260619  
   3299000   0.052084613   -1.1545526      0.052824875   -1.0236512      0.009366261  
   3300000   0.049598625   -1.1509878      0.051994542   -1.0246433      0.014445858  
   3301000   0.052085209   -1.1524707      0.050275074   -1.0241182      0.022351551  
   3302000   0.0512565     -1.1526484      0.051132118   -1.0246811      0.012520391  
   3303000   0.051963543   -1.1532213      0.052645127   -1.0226811      0.002062691  
   3304000   0.051515334   -1.1513766      0.048325176   -1.0258283      0.006693463  
   3305000   0.051097969   -1.1534212      0.050115163   -1.0267085      0.010859651  
   3306000   0.051873547   -1.1544587      0.052562166   -1.0241364      0.0067420539 
   3307000   0.050067652   -1.1544279      0.053969853   -1.025405       0.014291252  
   3308000   0.053046749   -1.1524219      0.048676482   -1.0242267      0.0093263081 
   3309000   0.051462192   -1.1518042      0.051132983   -1.0235277      0.018165269  
   3310000   0.053919544   -1.1525459      0.053842973   -1.0178758      0.0095115719 
   3311000   0.051259811   -1.1516575      0.051035331   -1.0237821      0.018440385  
   3312000   0.051732126   -1.1528408      0.051555739   -1.023737       0.016215165  
   3313000   0.054121061   -1.1521077      0.050641698   -1.0203368      0.016603281  
   3314000   0.051258592   -1.1522073      0.051795129   -1.0235739      0.017494067  
   3315000   0.052561201   -1.1525839      0.052928742   -1.0208642      0.014588135  
   3316000   0.053741136   -1.1524697      0.049519412   -1.0223906      0.014106921  
   3317000   0.052490043   -1.1535732      0.053235614   -1.0216533      0.011510724  
   3318000   0.051979507   -1.1499444      0.05063924    -1.0213862      0.023853146  
   3319000   0.051348095   -1.1531122      0.052239917   -1.0238998      0.0050522402 
   3320000   0.05372373    -1.1541832      0.050158859   -1.0234907      0.0092498023 
   3321000   0.051489667   -1.1539668      0.051638064   -1.0251441      0.0062295592 
   3322000   0.052282022   -1.1536724      0.050947278   -1.0243527      0.013716139  
   3323000   0.053090412   -1.1517395      0.049358234   -1.0227971      0.0052290258 
   3324000   0.053095786   -1.1534741      0.051640317   -1.0222415      0.010874026  
   3325000   0.051233765   -1.1526141      0.051856993   -1.0239561      0.0098406992 
   3326000   0.05117454    -1.1515986      0.049560427   -1.0253259      0.012907609  
   3327000   0.051706506   -1.1528209      0.051031412   -1.0242797      0.0078775653 
   3328000   0.050725325   -1.1523164      0.050376417   -1.0259011      0.011425876  
   3329000   0.052589646   -1.1520248      0.050360572   -1.0228306      0.010945956  
   3330000   0.050223753   -1.1542657      0.050079553   -1.0288991      0.0084234326 
   3331000   0.05120816    -1.1523067      0.051110053   -1.024434       0.011284631  
   3332000   0.051889129   -1.1528936      0.052511013   -1.0225991      0.010495662  
   3333000   0.051397329   -1.1522318      0.053129991   -1.0220556     -0.0010568761 
   3334000   0.051019824   -1.1506855      0.051197165   -1.023008       0.014640303  
   3335000   0.052637172   -1.1528385      0.050029951   -1.0239037      0.010888356  
   3336000   0.051009997   -1.151304       0.05125842    -1.02358        0.0057701942 
   3337000   0.050967261   -1.1528806      0.050068308   -1.0264107      0.0039230375 
   3338000   0.05198304    -1.1513693      0.050867493   -1.0225775      0.014661737  
   3339000   0.051900257   -1.1547391      0.053353318   -1.0235856     -0.0018928155 
   3340000   0.051912315   -1.1545368      0.051415603   -1.0253029      0.013207531  
   3341000   0.051020622   -1.1542044      0.051433446   -1.0262894      0.007888474  
   3342000   0.051130984   -1.1550568      0.051800322   -1.0266095      0.0088751699 
   3343000   0.052881185   -1.1552185      0.050535432   -1.0254125      0.0012853831 
   3344000   0.04998301    -1.1569355      0.054334706   -1.0276746     -0.001579488  
   3345000   0.052048625   -1.1555892      0.049237404   -1.0283292     -0.0073412887 
   3346000   0.051901825   -1.1554222      0.052074732   -1.025545      -0.0039533926 
   3347000   0.054598999   -1.1550385      0.053717286   -1.0194755     -0.00095388099
   3348000   0.052748815   -1.1554711      0.052269329   -1.0241296     -0.006432494  
   3349000   0.054060144   -1.154234       0.051789672   -1.0214064      0.015609577  
   3350000   0.05277909    -1.1563297      0.053049574   -1.0241626      0.0017991137 
   3351000   0.054199384   -1.1557249      0.052130604   -1.0223477     -0.0014041908 
   3352000   0.052597211   -1.1539514      0.05088707    -1.0242194     -0.0056363317 
   3353000   0.05193374    -1.1548828      0.05539273    -1.0216397     -0.0027790316 
   3354000   0.052999454   -1.1566298      0.05207957    -1.0251023      0.016585859  
   3355000   0.050233451   -1.1551167      0.05164164    -1.0281735     -0.0016819175 
   3356000   0.052236008   -1.1555479      0.051324233   -1.0259202     -0.00055135218
   3357000   0.05105705    -1.1540133      0.050853396   -1.0266237      0.0099941524 
   3358000   0.051690926   -1.1537992      0.049937632   -1.0263752     -0.0097969907 
   3359000   0.052175089   -1.1568465      0.051646233   -1.0269881     -0.0025148833 
   3360000   0.052332      -1.1541722      0.050202151   -1.0255227      0.010974294  
   3361000   0.050857382   -1.155078       0.048492341   -1.0303488      0.002345631  
   3362000   0.052550144   -1.1563116      0.05194783    -1.0255894      0.0085734666 
   3363000   0.053360948   -1.1529732      0.051031919   -1.0219515      0.0080677838 
   3364000   0.05153288    -1.1548971      0.052819298   -1.0248283     -0.0047020325 
   3365000   0.050676136   -1.1537956      0.052572098   -1.0252583     -0.010156011  
   3366000   0.051931917   -1.155586       0.0497973     -1.0279411      0.0017531454 
   3367000   0.052149037   -1.1548383      0.052022942   -1.0246423      0.016634365  
   3368000   0.051260422   -1.1536763      0.052193696   -1.0246415     -0.00083999106
   3369000   0.049529533   -1.1545666      0.050842059   -1.0294782     -0.0069331896 
   3370000   0.051518758   -1.1545881      0.051195373   -1.0261645      0.0076435954 
   3371000   0.052547405   -1.1560606      0.051936073   -1.0253543     -0.0015848322 
   3372000   0.051597681   -1.1553654      0.051222791   -1.026796      -0.002255341  
   3373000   0.051641195   -1.1548286      0.051905207   -1.0255116     -0.0099717778 
   3374000   0.05330379    -1.1565854      0.052070146   -1.0246111     -0.0094506221 
   3375000   0.052868899   -1.1546423      0.053059206   -1.0223309      0.0010346245 
   3376000   0.054332119   -1.1558829      0.053659264   -1.020778       0.0016099789 
   3377000   0.053204211   -1.1531287      0.050127546   -1.0232464      0.0045228153 
   3378000   0.051923621   -1.1543322      0.049822549   -1.0266745      0.010336272  
   3379000   0.051140991   -1.1568006      0.051455433   -1.0286832      0.0019002985 
   3380000   0.050176216   -1.1568822      0.050904007   -1.0307624      0.0021484987 
   3381000   0.050172354   -1.1549003      0.052827756   -1.0268626     -0.0038095958 
   3382000   0.052015442   -1.1550323      0.049833555   -1.0272259      0.01114034   
   3383000   0.051896879   -1.1553549      0.048541597   -1.0290182      0.013569613  
   3384000   0.052085947   -1.1544578      0.050239271   -1.0261401      0.0065584029 
   3385000   0.049787254   -1.1555781      0.054237507   -1.0267079      0.0016508153 
   3386000   0.052741385   -1.1533948      0.051181347   -1.0231524      0.017089666  
   3387000   0.05045318    -1.1570468      0.053561095   -1.0278548      0.011086457  
   3388000   0.052340662   -1.1543405      0.052157604   -1.0237225      0.010361271  
   3389000   0.052127113   -1.155113       0.050980522   -1.0259923      0.012653579  
   3390000   0.053858037   -1.1544956      0.051751876   -1.0220088      0.0062157145 
   3391000   0.05386606    -1.1546118      0.055016766   -1.018848       0.016821629  
   3392000   0.052090231   -1.1562879      0.051965803   -1.0262372      0.0093372831 
   3393000   0.051877264   -1.1535404      0.048990125   -1.0267846      0.01232652   
   3394000   0.054008568   -1.1558503      0.051771429   -1.0231183      0.0035627117 
   3395000   0.052357186   -1.1561399      0.051949923   -1.0257048      0.0051099692 
   3396000   0.052361865   -1.1555769      0.051879519   -1.0252053     -0.00022685628
   3397000   0.051382703   -1.1545783      0.053279896   -1.0242741     -0.0010799926 
   3398000   0.05254753    -1.154837       0.052646279   -1.0234203      0.0054404216 
   3399000   0.050805446   -1.1549657      0.051968377   -1.0268383      0.0040535178 
   3400000   0.052126053   -1.1556405      0.050013997   -1.0274878     -0.0028330011 
   3401000   0.052481606   -1.1560647      0.05118734    -1.0262057      0.0034055484 
   3402000   0.051686573   -1.1547485      0.05223858    -1.0250301      0.0048106741 
   3403000   0.050698748   -1.1551483      0.051857643   -1.0272916      0.0061340445 
   3404000   0.051861984   -1.1566573      0.050401185   -1.0285133      0.00053862087
   3405000   0.052349228   -1.1555988      0.053350694   -1.0237749      0.0025180587 
   3406000   0.05104471    -1.1575061      0.052826336   -1.0281621     -0.010874528  
   3407000   0.052282614   -1.1565961      0.052239147   -1.0259837      0.0055389205 
   3408000   0.053173329   -1.155832       0.054144134   -1.0219794      0.0030842679 
   3409000   0.052068181   -1.153627       0.052051202   -1.023524       0.0058963275 
   3410000   0.05318031    -1.1546155      0.054020988   -1.0208755     -0.017252991  
   3411000   0.051641702   -1.1534747      0.05199167    -1.0240704      0.0052383234 
   3412000   0.051127431   -1.1555016      0.053232817   -1.0256271      0.0062810699 
   3413000   0.050390563   -1.1548587      0.052815124   -1.0265065      0.010200521  
   3414000   0.052771167   -1.1538475      0.049724012   -1.0250178      0.011179432  
   3415000   0.052227805   -1.1562162      0.051541688   -1.0263833     -0.0052587095 
   3416000   0.050912884   -1.1565593      0.051515286   -1.028724       0.0074251905 
   3417000   0.051789825   -1.1554121      0.052874812   -1.0249027      0.002036461  
   3418000   0.054106734   -1.1576908      0.053672209   -1.0229109      0.0017195199 
   3419000   0.052592662   -1.1570144      0.053343717   -1.0248326      0.0043496363 
   3420000   0.052623866   -1.1539627      0.049754279   -1.0253235     -0.0036142656 
   3421000   0.052153192   -1.1549075      0.051534655   -1.0251935     -0.002166174  
   3422000   0.051676114   -1.1574939      0.055138891   -1.0248908     -0.0026214573 
   3423000   0.050557886   -1.1546763      0.048722983   -1.0301654      0.012698177  
   3424000   0.050634092   -1.1569096      0.049136343   -1.0318712      0.0033779619 
   3425000   0.050515671   -1.1554723      0.051391197   -1.0283565      0.013033572  
   3426000   0.051134997   -1.1550641      0.050897315   -1.0275138      0.014797024  
   3427000   0.050766016   -1.1552737      0.052323645   -1.0268502      0.0084132875 
   3428000   0.05110394    -1.1558551      0.053853053   -1.0253956     -0.00547793   
   3429000   0.051587151   -1.1554859      0.053817526   -1.0243375      0.00039031678
   3430000   0.052754081   -1.1559748      0.052549274   -1.0243454     -0.005992633  
   3431000   0.050405365   -1.1549131      0.049480717   -1.0298731      0.011252259  
   3432000   0.051138544   -1.1552766      0.05209587    -1.0265224     -0.00026463406
   3433000   0.05166196    -1.1555866      0.049593577   -1.0285501      0.019668842  
   3434000   0.053008462   -1.1549418      0.048705293   -1.0267751      0.01447935   
   3435000   0.05327715    -1.1557375      0.050924552   -1.0249488      0.0088608481 
   3436000   0.050782803   -1.1571881      0.05106529    -1.0299978      0.013332634  
   3437000   0.051756808   -1.1562107      0.052335623   -1.0262899      0.0050376713 
   3438000   0.052323332   -1.1552949      0.051250046   -1.0256105      0.0034852159 
   3439000   0.049184503   -1.1559143      0.051972236   -1.0302129      0.0061964835 
   3440000   0.051130131   -1.1563906      0.051546369   -1.0281985      0.006226499  
   3441000   0.049681316   -1.1546564      0.051384912   -1.0287976      0.0080227886 
   3442000   0.052269291   -1.1547114      0.052681876   -1.0236762      0.0076743818 
   3443000   0.052802235   -1.1559639      0.051614151   -1.0251975     -0.0078965336 
   3444000   0.051998304   -1.1549103      0.052072213   -1.0248909      0.021382723  
   3445000   0.052639103   -1.1546393      0.050379445   -1.0253522      0.0047415135 
   3446000   0.050993729   -1.1552318      0.051572454   -1.0272181     -0.0050151928 
   3447000   0.051604795   -1.1567807      0.052535565   -1.0268879     -0.0010143853 
   3448000   0.051991642   -1.1553092      0.051669154   -1.0257029      0.0096193429 
   3449000   0.051352904   -1.1565852      0.051753276   -1.0278522     -0.011732833  
   3450000   0.052924421   -1.1552954      0.050178338   -1.0257817     -0.0010558103 
   3451000   0.050543744   -1.1558839      0.05087115    -1.0292461     -0.00091436474
   3452000   0.050790685   -1.155356       0.051343304   -1.0278758     -0.0093984029 
   3453000   0.051924167   -1.1552123      0.053171795   -1.0242045      0.0015984685 
   3454000   0.052614003   -1.1546082      0.051969041   -1.0237691      0.0032933064 
   3455000   0.052248538   -1.1564474      0.05257853    -1.0255466      0.0040831302 
   3456000   0.053414839   -1.1548262      0.050670851   -1.0240847      0.005603213  
   3457000   0.050951599   -1.1536242      0.051621754   -1.0256243      0.0007760571 
   3458000   0.052729698   -1.1569621      0.052136346   -1.0257822     -0.0032946871 
   3459000   0.054085986   -1.1550213      0.052208677   -1.0217359      0.0095223641 
   3460000   0.051204295   -1.156026       0.053775384   -1.0254937     -0.0012362245 
   3461000   0.051642186   -1.154663       0.053690164   -1.0235595      0.0022720591 
   3462000   0.054064905   -1.1542395      0.05359381    -1.0196007      0.0072399154 
   3463000   0.051817458   -1.156143       0.051011361   -1.0274556      0.0020549381 
   3464000   0.051676023   -1.1559121      0.051945631   -1.0265024     -0.0012372552 
   3465000   0.051000576   -1.1552593      0.052594662   -1.0262131      0.0087282008 
   3466000   0.050831653   -1.1544057      0.053030661   -1.0251768      0.0077861401 
   3467000   0.051423089   -1.1571995      0.04964341    -1.0304713      0.014661778  
   3468000   0.05155767    -1.1549814      0.05001371    -1.0276811     -0.0074036036 
   3469000   0.051014183   -1.1555721      0.052013078   -1.0270871      0.0058414902 
   3470000   0.051197301   -1.1557359      0.051005681   -1.0279839     -0.011973003  
   3471000   0.051787661   -1.1556054      0.054787396   -1.0231866     -0.0021062893 
   3472000   0.052572195   -1.155619       0.055060061   -1.0217516     -0.00079326554
   3473000   0.052677069   -1.1553848      0.051892899   -1.0245273      0.0025238155 
   3474000   0.05205492    -1.1552019      0.053022455   -1.0241475     -0.00086287154
   3475000   0.053148277   -1.1545681      0.053016507   -1.0218806      0.0035410333 
   3476000   0.053575235   -1.1542001      0.054258387   -1.0196307      0.0047838267 
   3477000   0.052110153   -1.1545797      0.053303666   -1.0231613      0.010101288  
   3478000   0.054239684   -1.1567199      0.054139375   -1.0212735      0.0055867692 
   3479000   0.051062648   -1.1547437      0.053231545   -1.0249676     -0.00010252543
   3480000   0.052335655   -1.1557594      0.051675876   -1.0256307      0.0033390395 
   3481000   0.052422401   -1.1566353      0.054338971   -1.0237134     -0.0019670918 
   3482000   0.05355429    -1.1544136      0.052589526   -1.0215445      0.010329933  
   3483000   0.051830424   -1.1550961      0.051030513   -1.0263701      0.0072814822 
   3484000   0.052449196   -1.154462       0.052378493   -1.0234605      0.006751154  
   3485000   0.052453825   -1.1549726      0.052543696   -1.0237989      0.011025353  
   3486000   0.053097798   -1.1562116      0.05502415    -1.0215922      0.0048490669 
   3487000   0.052425374   -1.1555804      0.054067592   -1.0229255      0.01281329   
   3488000   0.051146932   -1.1537758      0.05132158    -1.0257833      0.014206073  
   3489000   0.052675223   -1.155935       0.051855857   -1.0251173     -0.0035136909 
   3490000   0.052009714   -1.1556991      0.050529511   -1.0272053      0.010164491  
   3491000   0.051430502   -1.155655       0.053095625   -1.0254634      0.003045631  
   3492000   0.052094162   -1.1554187      0.054400574   -1.0229273     -0.0017297212 
   3493000   0.052254379   -1.1559108      0.052814336   -1.0247655      0.0072296611 
   3494000   0.052070189   -1.154721       0.052014515   -1.0246516      0.021300227  
   3495000   0.053280903   -1.1549934      0.053276496   -1.0218471      0.017738079  
   3496000   0.052139291   -1.154747       0.053275171   -1.0233134      0.00624673   
   3497000   0.051406514   -1.1546318      0.054013664   -1.0235581     -0.0072392606 
   3498000   0.053312139   -1.1555228      0.052313282   -1.0232929      0.0019612714 
   3499000   0.052548197   -1.1542108      0.054018007   -1.0214214      0.0049456101 
   3500000   0.053610334   -1.1538693      0.051227915   -1.0222778      0.0004567054 
   3501000   0.051423816   -1.1546947      0.053718604   -1.0238902     -0.0066037352 
   3502000   0.052406347   -1.155831       0.053560986   -1.0237112     -0.0058709826 
   3503000   0.051873094   -1.1551275      0.051553978   -1.0258141      0.023825281  
   3504000   0.051963567   -1.1551597      0.051417919   -1.0258467      0.010037645  
   3505000   0.050611629   -1.1545702      0.051067804   -1.0276339     -0.0033898074 
   3506000   0.051263876   -1.1556918      0.053378862   -1.0254667     -0.0045883858 
   3507000   0.051331558   -1.1565907      0.053142182   -1.0265009     -0.0094865881 
   3508000   0.049998919   -1.1539901      0.05096963    -1.0280705     -0.0029021633 
   3509000   0.051831549   -1.1553604      0.0507373     -1.0269259      0.007660904  
   3510000   0.051737474   -1.1574971      0.054712624   -1.0252284     -0.0057662906 
   3511000   0.052267389   -1.1575602      0.0547875     -1.0244222     -0.0017482352 
   3512000   0.053318721   -1.1587646      0.054348833   -1.0244893     -0.0080211311 
   3513000   0.054109947   -1.1562342      0.051245946   -1.0238757      0.016048833  
   3514000   0.054031561   -1.1568594      0.054709039   -1.0211553      0.0084594495 
   3515000   0.053304811   -1.1566096      0.052989989   -1.023714      -0.0057410961 
   3516000   0.053071477   -1.1593313      0.054359442   -1.025416      -0.015280587  
   3517000   0.052610764   -1.1576875      0.05347165    -1.0253506      0.008736229  
   3518000   0.052230086   -1.1582822      0.051663723   -1.0283239     -0.00046014223
   3519000   0.050895517   -1.1569489      0.051369859   -1.029285      -0.0052157384 
   3520000   0.05196161    -1.1579057      0.054410212   -1.0256034      0.0029339954 
   3521000   0.049783314   -1.157909       0.051788966   -1.0314932     -0.0048734118 
   3522000   0.051838123   -1.1576895      0.054331227   -1.0256513     -0.0075843468 
   3523000   0.054203426   -1.1567279      0.050465131   -1.0250101      0.0084417142 
   3524000   0.050055901   -1.1585857      0.053529416   -1.0300209     -0.0020517859 
   3525000   0.050836954   -1.1597657      0.052290106   -1.0312694      0.0016647144 
   3526000   0.0513502     -1.1596002      0.055280624   -1.027344      -0.0084730853 
   3527000   0.051644357   -1.1567979      0.051610443   -1.0277709     -0.0015157093 
   3528000   0.051011999   -1.1576487      0.050533702   -1.0306464     -0.010640023  
   3529000   0.051715296   -1.157144       0.053093887   -1.0265273      0.0054395963 
   3530000   0.051971916   -1.1561631      0.053519088   -1.0247364     -0.004892845  
   3531000   0.050682621   -1.1553247      0.052046849   -1.0273029      0.017141913  
   3532000   0.053333768   -1.1582626      0.052614943   -1.0256986     -0.0016675239 
   3533000   0.052742309   -1.15898        0.051882172   -1.0280354     -0.0048693276 
   3534000   0.05141318    -1.1573105      0.054523312   -1.0257172     -0.008964339  
   3535000   0.051350938   -1.1585943      0.055606146   -1.0260115      0.00032709723
   3536000   0.05329388    -1.1576981      0.052651666   -1.0251572      0.0041777325 
   3537000   0.051949378   -1.1564339      0.05100285    -1.0275573      0.0087733234 
   3538000   0.05333797    -1.1569586      0.052183187   -1.0248201     -0.00069074629
   3539000   0.052188396   -1.1555396      0.049926141   -1.0273814     -0.003204953  
   3540000   0.051449354   -1.1558559      0.053964045   -1.0247677     -0.012633032  
   3541000   0.051393045   -1.1580688      0.054201181   -1.0268278      0.0025716981 
   3542000   0.05350695    -1.1569748      0.05236662    -1.0243996     -0.0028905764 
   3543000   0.051503753   -1.1575439      0.052955568   -1.0273826      0.00060052447
   3544000   0.051889993   -1.1597089      0.054000127   -1.027924      -0.0047415719 
   3545000   0.052305011   -1.1560016      0.053892328   -1.0237024     -0.00086132601
   3546000   0.05225151    -1.1557523      0.052493262   -1.0249323     -0.0019872892 
   3547000   0.052792307   -1.1572984      0.053272003   -1.024889      -0.00015823394
   3548000   0.053007383   -1.1571636      0.053801121   -1.0239027      0.01102229   
   3549000   0.052696364   -1.1584107      0.052188797   -1.0272283     -0.0051971859 
   3550000   0.051671277   -1.1573487      0.051901897   -1.0279899      0.011347295  
   3551000   0.053218508   -1.1573947      0.053712251   -1.0239062     -0.0037555819 
   3552000   0.052083611   -1.1566324      0.052060565   -1.0264968      0.012145696  
   3553000   0.05060231    -1.1579044      0.053203362   -1.0288465      0.00045558071
   3554000   0.053084382   -1.1558639      0.051703763   -1.0245849      0.025417158  
   3555000   0.051453037   -1.1573065      0.050878369   -1.0292984      0.012933314  
   3556000   0.051477662   -1.1597176      0.053470527   -1.0290804      0.0039379593 
   3557000   0.050145188   -1.1586271      0.052822744   -1.0306351      0.0015955542 
   3558000   0.053400712   -1.1583736      0.053373453   -1.0249507     -0.0063573359 
   3559000   0.051453938   -1.1596844      0.055295493   -1.0272578      0.0055961595 
   3560000   0.052393653   -1.156843       0.052562564   -1.0257406      0.0014952377 
   3561000   0.051813927   -1.1575596      0.052715322   -1.0271735      0.010096937  
   3562000   0.051061538   -1.1560101      0.052050254   -1.027417      -0.0028747413 
   3563000   0.053851196   -1.1585548      0.051442208   -1.0263879      0.0027279893 
   3564000   0.052079968   -1.158336       0.05457721    -1.0256892     -0.0062386802 
   3565000   0.051300521   -1.157567       0.053090982   -1.0275748      0.00069702239
   3566000   0.054549361   -1.1594164      0.052781053   -1.0248641      0.0018041231 
   3567000   0.053246759   -1.157667       0.054283501   -1.0235649     -0.00021763538
   3568000   0.052600656   -1.1571532      0.051926839   -1.0263763     -0.006218196  
   3569000   0.049895894   -1.1582674      0.052486832   -1.030985      -0.018547575  
   3570000   0.05243827    -1.1567345      0.053362505   -1.0247653     -0.0069262186 
   3571000   0.052448019   -1.1559629      0.051686183   -1.0256555      0.0038711083 
   3572000   0.052250632   -1.1579434      0.052742038   -1.026876       0.01192625   
   3573000   0.052741538   -1.1574196      0.052951254   -1.0254071     -0.0049869262 
   3574000   0.052230265   -1.1564188      0.052409492   -1.0257144      0.0010307252 
   3575000   0.051385467   -1.1576951      0.054648641   -1.026018      -0.011092631  
   3576000   0.051938585   -1.1569164      0.05249355    -1.0265653      0.0054855353 
   3577000   0.050863854   -1.1568563      0.051167232   -1.0294425      0.0042203843 
   3578000   0.051498542   -1.157376       0.05386085    -1.0263172      0.021531269  
   3579000   0.050467711   -1.1552002      0.053536792   -1.0260106      0.0069956829 
   3580000   0.050833823   -1.1568547      0.053270623   -1.0273825      0.015167331  
   3581000   0.051950059   -1.1581287      0.052032617   -1.0282213      0.0035804489 
   3582000   0.051413249   -1.1577558      0.05246147    -1.0282242     -0.020625356  
   3583000   0.051542306   -1.1570027      0.05126666    -1.0284724     -0.0043257975 
   3584000   0.051151378   -1.1568229      0.052126784   -1.0280186     -0.0051800431 
   3585000   0.052661471   -1.1579168      0.053171968   -1.0258036     -0.013372388  
   3586000   0.050051043   -1.1586496      0.053507567   -1.0301139     -0.012375572  
   3587000   0.049852138   -1.1576083      0.053067665   -1.0298106     -0.021054276  
   3588000   0.049791151   -1.1570196      0.051570267   -1.0308108      0.010499492  
   3589000   0.051895559   -1.1584754      0.053446558   -1.0272357     -0.011011606  
   3590000   0.052580456   -1.1584526      0.053576025   -1.0260568     -0.0053389858 
   3591000   0.052040766   -1.1577014      0.052701669   -1.0269889     -0.0055391514 
   3592000   0.050950089   -1.1564601      0.048933331   -1.0311509     -0.0077940582 
   3593000   0.053004859   -1.1566424      0.054143515   -1.0230429      0.017881642  
   3594000   0.050956569   -1.1590153      0.055897045   -1.0267327      0.003571365  
   3595000   0.053097067   -1.1569679      0.052226516   -1.0251471      0.0042266979 
   3596000   0.052424724   -1.1583541      0.053997885   -1.0257699     -0.0025280345 
   3597000   0.051824427   -1.1592601      0.052778492   -1.0287951     -0.0015242764 
   3598000   0.051336012   -1.1583855      0.05404382    -1.0273873      0.0027878107 
   3599000   0.051696919   -1.1577601      0.054773982   -1.0254908      0.008726501  
   3600000   0.050490309   -1.1558985      0.051419002   -1.0287929      0.0039803504 
   3601000   0.052364607   -1.1587413      0.052281928   -1.0279631     -0.0014021017 
   3602000   0.050132939   -1.157401       0.049931421   -1.0323187      0.01899059   
   3603000   0.051411861   -1.1575921      0.052916822   -1.0276072      0.010303533  
   3604000   0.050937053   -1.157565       0.054742241   -1.0264664      0.0066778458 
   3605000   0.051285569   -1.1599408      0.053152936   -1.0299092     -0.002873475  
   3606000   0.051071387   -1.1585268      0.051803852   -1.0301653      0.0088792639 
   3607000   0.050613044   -1.1596994      0.052620062   -1.0312088      0.01881325   
   3608000   0.050786248   -1.1578424      0.050744097   -1.0309681      0.011778748  
   3609000   0.053313849   -1.1587301      0.051794859   -1.0270161      0.0037877747 
   3610000   0.051214563   -1.159263       0.051312776   -1.031178       0.0059931664 
   3611000   0.051026339   -1.1567631      0.050187959   -1.030085       0.0002935959 
   3612000   0.052712343   -1.1586543      0.052157283   -1.0274795      0.022010568  
   3613000   0.051141833   -1.1567018      0.050356172   -1.0296824      0.014310012  
   3614000   0.051113403   -1.157693       0.054877968   -1.0261944      0.0088537858 
   3615000   0.053311604   -1.1586881      0.052277614   -1.0264946     -0.0027259492 
   3616000   0.052100611   -1.1589112      0.054097722   -1.026713       0.0021698162 
   3617000   0.052127691   -1.1571084      0.050677083   -1.0282902      0.0092104941 
   3618000   0.052861702   -1.156602       0.05211021    -1.0252504      0.0030407718 
   3619000   0.051237813   -1.1577774      0.052263086   -1.0287072      0.007342377  
   3620000   0.05005689    -1.1588336      0.054449762   -1.0293469     -0.0050061843 
   3621000   0.050612548   -1.1570221      0.052522224   -1.02863       -0.0062499008 
   3622000   0.050566363   -1.157776       0.052054922   -1.0299205      0.0012726102 
   3623000   0.052522807   -1.1590171      0.0548939     -1.0253898     -0.01638067   
   3624000   0.050921424   -1.1567902      0.054241251   -1.0262161     -0.0033147865 
   3625000   0.051901604   -1.1576258      0.053591204   -1.0262324     -0.0078604739 
   3626000   0.05238022    -1.1593641      0.055065235   -1.0257792     -0.0053030888 
   3627000   0.051612007   -1.1571052      0.052103496   -1.0276337     -0.004268323  
   3628000   0.052778365   -1.157055       0.050465283   -1.0274733      0.012351472  
   3629000   0.050233662   -1.1574589      0.053027501   -1.0291295     -0.00089727053
   3630000   0.050110605   -1.1588223      0.052559669   -1.0311453     -0.0042048486 
   3631000   0.052970884   -1.1582843      0.052162338   -1.0267169     -0.0078363933 
   3632000   0.051314568   -1.1588536      0.052174571   -1.0297568     -0.013809708  
   3633000   0.051768634   -1.1583717      0.053589289   -1.0271796     -0.0050326979 
   3634000   0.052696187   -1.1591473      0.053216045   -1.026938      -0.005237847  
   3635000   0.052901479   -1.1585469      0.053822641   -1.0254232     -0.01486354   
   3636000   0.052161333   -1.1577204      0.050256221   -1.0292727     -0.0015704661 
   3637000   0.051703684   -1.1571348      0.053338604   -1.0262907      0.001252559  
   3638000   0.05004905    -1.157136       0.051580159   -1.0305307      0.0076922485 
   3639000   0.051372337   -1.1592608      0.052330877   -1.0299211     -0.0010767131 
   3640000   0.050920047   -1.1574101      0.052941974   -1.0281373     -0.0085911144 
   3641000   0.048798417   -1.1566588      0.053638833   -1.0298696      0.0089305766 
   3642000   0.051062695   -1.1562705      0.050880226   -1.0288456      0.012261821  
   3643000   0.051224241   -1.1591053      0.051068166   -1.0312504      0.0026062937 
   3644000   0.053124889   -1.1574291      0.05194659    -1.0258466     -0.0086576669 
   3645000   0.050303115   -1.1576437      0.052615146   -1.0296226      0.003283588  
   3646000   0.053068673   -1.1588722      0.051855399   -1.0274651     -0.0035019961 
   3647000   0.052098305   -1.1568956      0.051469564   -1.027329      -0.0033629068 
   3648000   0.05349697    -1.1584141      0.056025889   -1.0221946      0.0067988285 
   3649000   0.05393861    -1.1578985      0.051292822   -1.0257499     -0.0055108175 
   3650000   0.051341221   -1.1585755      0.054381679   -1.0272317     -0.0027386293 
   3651000   0.05205231    -1.1586402      0.05312854    -1.0274835     -0.0056931658 
   3652000   0.051242015   -1.1576984      0.052574477   -1.0283105     -0.0023342409 
   3653000   0.052839016   -1.1559869      0.051733389   -1.0250461      0.024601198  
   3654000   0.052106467   -1.1567865      0.054105206   -1.0245721      0.0063256273 
   3655000   0.051174559   -1.1574863      0.053834879   -1.0269391     -0.012762327  
   3656000   0.052336419   -1.1565758      0.051474363   -1.0266475     -0.0010188155 
   3657000   0.051690664   -1.1590228      0.05209502    -1.0294418     -0.010742275  
   3658000   0.0514971     -1.1595953      0.051882735   -1.0305168     -0.011191444  
   3659000   0.051863355   -1.1579241      0.05102844    -1.0291508     -0.00023800768
   3660000   0.049620857   -1.1578973      0.053334865   -1.0301791     -0.0090263875 
   3661000   0.051690675   -1.158747       0.052655651   -1.0286054      0.0032461869 
   3662000   0.050604406   -1.1581787      0.053306238   -1.0290148      0.0046365859 
   3663000   0.051517274   -1.1581823      0.053932909   -1.0270233     -0.00032815382
   3664000   0.052195696   -1.1584967      0.052946683   -1.027307       0.003105766  
   3665000   0.05003756    -1.1590513      0.052947507   -1.0310959     -0.0004935958 
   3666000   0.052629468   -1.1572116      0.052161422   -1.0261569      0.011589677  
   3667000   0.049907913   -1.1566215      0.051860286   -1.0299477      0.0059994076 
   3668000   0.051626908   -1.1572594      0.051486347   -1.0283827     -0.00063304591
   3669000   0.050533452   -1.1576721      0.051710819   -1.03021       -0.0058819332 
   3670000   0.051017749   -1.1577736      0.051707964   -1.0295883      0.01226218   
   3671000   0.051294293   -1.1589037      0.050796707   -1.0312152      0.0083406467 
   3672000   0.051174044   -1.1582502      0.05336821    -1.0281704     -0.011257604  
   3673000   0.053153419   -1.1602989      0.053277519   -1.0273427      0.0044963479 
   3674000   0.049694072   -1.1549692      0.052810504   -1.0276656      0.009931111  
   3675000   0.051677594   -1.1572623      0.05297722    -1.0268187      0.0012661414 
   3676000   0.05136889    -1.1579441      0.053655973   -1.0272845      0.026085489  
   3677000   0.051101736   -1.1569105      0.052940959   -1.0273664      0.015813427  
   3678000   0.052373285   -1.1559254      0.052227874   -1.0251883      0.022004218  
   3679000   0.052930992   -1.1564796      0.053662622   -1.0234717      0.0080244972 
   3680000   0.052391085   -1.1580877      0.051703513   -1.0278483      0.0071516153 
   3681000   0.051768659   -1.1587308      0.053975758   -1.0271522     -0.0024497505 
   3682000   0.049786125   -1.159581       0.054060977   -1.0308891     -0.0067805892 
   3683000   0.051253322   -1.1591997      0.053209907   -1.0291594      0.014279884  
   3684000   0.052992007   -1.1550816      0.050397579   -1.0252473      0.018821462  
   3685000   0.052300436   -1.1591831      0.052604823   -1.0281783      0.0049042082 
   3686000   0.051385351   -1.1586362      0.051177248   -1.0304306      0.0064532215 
   3687000   0.051081217   -1.1575352      0.053735217   -1.0272276     -0.0080614301 
   3688000   0.053575215   -1.1579789      0.054943345   -1.0227246      0.013901352  
   3689000   0.052759681   -1.1582916      0.055275971   -1.0239272      0.010895552  
   3690000   0.05325724    -1.1585832      0.052282339   -1.0264665      0.022016185  
   3691000   0.049815363   -1.1596081      0.053997361   -1.0309359      0.00076971143
   3692000   0.051988358   -1.1558224      0.055252486   -1.0226377      0.0032480416 
   3693000   0.052736358   -1.1568382      0.053249606   -1.0245351      0.0054602018 
   3694000   0.05271924    -1.1571621      0.050166105   -1.0279681      0.0054050435 
   3695000   0.050971925   -1.1566807      0.052082843   -1.0281893      0.0071423698 
   3696000   0.051152758   -1.1588357      0.051518741   -1.0306373      0.0081624076 
   3697000   0.050531837   -1.1579319      0.050344618   -1.0318384      0.012590559  
   3698000   0.051420146   -1.158058       0.052730944   -1.0282466      0.0031752085 
   3699000   0.049793969   -1.1597197      0.053835356   -1.0312415     -0.016961391  
   3700000   0.051113533   -1.1578023      0.052402032   -1.0287794      0.0041056535 
   3701000   0.052766113   -1.157747       0.050828178   -1.0278207      0.014251348  
   3702000   0.052380323   -1.1566605      0.052129023   -1.0260117      0.01292604   
   3703000   0.051752344   -1.1584026      0.054534209   -1.02629        0.011526659  
   3704000   0.052587684   -1.1599727      0.055624102   -1.025518      -0.0011073199 
   3705000   0.05221089    -1.1574243      0.052239987   -1.0269185     -0.00089900671
   3706000   0.052065321   -1.1572202      0.054490321   -1.0246823      1.6399208e-05
   3707000   0.051871493   -1.1575669      0.052569192   -1.0272407      0.014919911  
   3708000   0.052812254   -1.1595076      0.053262063   -1.0270783      0.010060057  
   3709000   0.053212731   -1.1564214      0.053588145   -1.0230656     -0.00091392651
   3710000   0.052308087   -1.1594494      0.051012708   -1.0300252      0.022422811  
   3711000   0.051810348   -1.1587983      0.052946822   -1.0281861      0.022186484  
   3712000   0.049759802   -1.1564746      0.052586619   -1.0292965      0.0080997058 
   3713000   0.051014087   -1.1579468      0.053240973   -1.028234       0.0044993866 
   3714000   0.051361859   -1.1580821      0.051380088   -1.0297089     -0.0050298674 
   3715000   0.051210688   -1.1586571      0.051204913   -1.0306857      0.0061937677 
   3716000   0.051921411   -1.1573984      0.051898407   -1.0276681      0.012815349  
   3717000   0.051137512   -1.1575571      0.053265164   -1.0276351      0.00010952921
   3718000   0.052449904   -1.1579486      0.05438033    -1.0249441      0.013377689  
   3719000   0.053101408   -1.1573662      0.052899733   -1.0248658      0.0065971549 
   3720000   0.053389431   -1.1573508      0.052612217   -1.0247061      0.016233188  
   3721000   0.054068087   -1.1587185      0.053461976   -1.0242067      0.0073532883 
   3722000   0.053101424   -1.1571498      0.050724208   -1.0268248      0.037806061  
   3723000   0.050952333   -1.1581765      0.053060883   -1.0287364      0.0054518503 
   3724000   0.050814577   -1.1578106      0.051490913   -1.030147       0.0068348154 
   3725000   0.050859847   -1.158539       0.053023292   -1.0292752      0.010822469  
   3726000   0.051149375   -1.1568542      0.050642257   -1.0295374      0.0075011344 
   3727000   0.050562073   -1.1579519      0.052986566   -1.0291712      0.020699985  
   3728000   0.049979267   -1.1582766      0.053406239   -1.0299498      0.0085518751 
   3729000   0.050806434   -1.1580418      0.050365034   -1.0315163      0.026290721  
   3730000   0.052903652   -1.1579012      0.051090098   -1.0275068      0.013184651  
   3731000   0.051924798   -1.1592266      0.055012968   -1.0263767      0.018918817  
   3732000   0.051280199   -1.1582464      0.052448058   -1.0289277     -0.0068551723 
   3733000   0.051598326   -1.158015       0.054977573   -1.0256899      0.012984793  
   3734000   0.052674053   -1.1581567      0.051928238   -1.0272683      0.021596295  
   3735000   0.054211477   -1.1578191      0.053197438   -1.0233569      0.0094382633 
   3736000   0.051092092   -1.1565175      0.051898014   -1.0280308      0.0016376706 
   3737000   0.052247488   -1.156321       0.052873226   -1.0251271     -0.0066798116 
   3738000   0.052565014   -1.1577724      0.053186011   -1.0257897     -0.009284919  
   3739000   0.053186726   -1.159182       0.056522765   -1.0229307      0.0016627443 
   3740000   0.052529568   -1.1567455      0.052605432   -1.0253966      0.01278792   
   3741000   0.052302215   -1.1570182      0.051740248   -1.0268752      0.016989611  
   3742000   0.052339032   -1.1570296      0.052988567   -1.0255831      0.011440754  
   3743000   0.052675842   -1.1580111      0.053998954   -1.0250493      0.0042720014 
   3744000   0.052284744   -1.1581256      0.053876198   -1.0258729      0.0033781637 
   3745000   0.051966047   -1.1572472      0.054147576   -1.0252009     -0.0030428449 
   3746000   0.05327245    -1.1568724      0.053386581   -1.0236287      0.011646304  
   3747000   0.052067403   -1.1574942      0.056104479   -1.023339      -0.0038257641 
   3748000   0.054693226   -1.1568147      0.054362946   -1.0204648      0.0043526042 
   3749000   0.052873507   -1.1582577      0.052089474   -1.0269091      0.026248274  
   3750000   0.050920028   -1.1582236      0.051817977   -1.0300748      0.017547333  
   3751000   0.052299257   -1.1579511      0.052918573   -1.0266342      0.014839053  
   3752000   0.052553628   -1.1564281      0.053306646   -1.0243418      0.0043751625 
   3753000   0.05147217    -1.1574932      0.055112856   -1.0252219     -0.00063585486
   3754000   0.051264791   -1.1585721      0.054504138   -1.0272204      0.0011554364 
   3755000   0.051872444   -1.1586456      0.051211069   -1.029676       0.02010253   
   3756000   0.051647259   -1.1570675      0.051485361   -1.0281612      0.009960818  
   3757000   0.053333098   -1.1586168      0.05365008    -1.0250187      0.008607959  
   3758000   0.052065266   -1.1572605      0.05471831    -1.0244946      0.0077263097 
   3759000   0.052376968   -1.1566338      0.05368158    -1.0244375      0.0046874463 
   3760000   0.052570674   -1.1581563      0.052359201   -1.026992       0.012386192  
   3761000   0.051782707   -1.1580673      0.052395512   -1.0280479      0.0075077316 
   3762000   0.051440722   -1.1595267      0.054530447   -1.027885      -0.0076428506 
   3763000   0.052706989   -1.1582596      0.051965399   -1.0272848      0.0070694818 
   3764000   0.052467028   -1.1579102      0.05132385    -1.0279366      0.0076675697 
   3765000   0.053073171   -1.1576625      0.05083096    -1.0272731      0.01988489   
   3766000   0.051810232   -1.1580715      0.050811176   -1.0295951      0.0030254168 
   3767000   0.051037569   -1.1575684      0.05324093    -1.0278205      0.011035249  
   3768000   0.05266138    -1.1575355      0.052764722   -1.0258296      0.020296855  
   3769000   0.052056843   -1.156938       0.053256369   -1.0256467      0.010438417  
   3770000   0.051596361   -1.1565486      0.052118034   -1.027086       0.016816925  
   3771000   0.054239188   -1.1582275      0.050895034   -1.0260262      0.0082615065 
   3772000   0.052287237   -1.1577588      0.050678779   -1.0286997      0.030866178  
   3773000   0.052215146   -1.1571908      0.049496504   -1.0294221      0.021966722  
   3774000   0.051403298   -1.1588245      0.05287964    -1.0288896      0.0027293443 
   3775000   0.050408182   -1.158997       0.051765111   -1.0316684      0.020522543  
   3776000   0.052192363   -1.1593966      0.053602488   -1.0275561     -0.003400396  
   3777000   0.052070266   -1.1581218      0.054864496   -1.0252023      0.017061068  
   3778000   0.053718725   -1.1572445      0.050336782   -1.0263816      0.024445169  
   3779000   0.051030158   -1.1585162      0.049981119   -1.0320392      0.016576722  
   3780000   0.051771048   -1.1567027      0.051035578   -1.0280607      0.013041012  
   3781000   0.051564158   -1.1587431      0.051338291   -1.0301085      0.011451079  
   3782000   0.052312149   -1.159101       0.052057817   -1.0286256      0.0047236065 
   3783000   0.051942104   -1.1587001      0.05341752    -1.0274197      0.0045583977 
   3784000   0.051957028   -1.1579908      0.051045382   -1.0290601      0.0087946072 
   3785000   0.053092854   -1.1591492      0.054868301   -1.024693       0.006542893  
   3786000   0.051424117   -1.1571179      0.053750135   -1.0262814      0.02070246   
   3787000   0.052097597   -1.1570718      0.052435844   -1.02654       -0.0019826315 
   3788000   0.052940027   -1.1577377      0.050846771   -1.0275322      0.0075189681 
   3789000   0.051869221   -1.1573435      0.053276599   -1.0263132     -0.0036457762 
   3790000   0.052495542   -1.1569902      0.055132751   -1.0231649      0.006256033  
   3791000   0.051553413   -1.157555       0.053340047   -1.0269347      0.012117084  
   3792000   0.051144738   -1.1597364      0.053574025   -1.0294947      0.0014173717 
   3793000   0.052316949   -1.1587298      0.052499906   -1.0278051     -0.0005883508 
   3794000   0.052638666   -1.1567621      0.051590774   -1.0262643      0.0044752709 
   3795000   0.053223641   -1.1566792      0.053687628   -1.0232076     -0.0031885721 
   3796000   0.052139369   -1.1586671      0.053714123   -1.0267944      0.01647847   
   3797000   0.052611343   -1.1567749      0.053221362   -1.0246875      0.018260791  
   3798000   0.052154387   -1.1583141      0.05154929    -1.0285837      0.014370413  
   3799000   0.050021483   -1.1576815      0.053265952   -1.0294317     -0.0024539456 
   3800000   0.051637563   -1.1586898      0.053865962   -1.0274174      0.011785908  
   3801000   0.054201278   -1.1592218      0.053060845   -1.0249115      0.011380479  
   3802000   0.053010252   -1.1571336      0.054303015   -1.0233665      0.012757642  
   3803000   0.052030902   -1.1558509      0.053450303   -1.0244046      0.0067901128 
   3804000   0.05237151    -1.1575688      0.052917645   -1.0261445      0.021485165  
   3805000   0.051237257   -1.1585496      0.053894658   -1.0278486      0.0079206321 
   3806000   0.05349672    -1.1584772      0.052912907   -1.0253709      0.0029278961 
   3807000   0.051871441   -1.1565371      0.050469422   -1.0283108      0.01987707   
   3808000   0.050505612   -1.1570909      0.053730835   -1.0276505     -0.0016736009 
   3809000   0.051178256   -1.1582777      0.055077973   -1.0264819      0.0028150143 
   3810000   0.051015976   -1.1565028      0.0512428     -1.0287854      0.0010988897 
   3811000   0.050293788   -1.1584408      0.052934436   -1.0301143     -0.0035660139 
   3812000   0.051758335   -1.1569535      0.050805238   -1.0285609      0.024090035  
   3813000   0.052356786   -1.1579665      0.051903467   -1.0275785      0.014243862  
   3814000   0.052608413   -1.157312       0.054475513   -1.0239748      0.0017031489 
   3815000   0.053055346   -1.1588502      0.052176208   -1.0271424      0.019248438  
   3816000   0.051684691   -1.1593296      0.056056733   -1.0257959      0.019927991  
   3817000   0.051514768   -1.1575441      0.053012027   -1.0273098      0.0074432657 
   3818000   0.052333097   -1.1597043      0.052558589   -1.0286967      0.0095938624 
   3819000   0.051938977   -1.1597749      0.052333075   -1.0295836     -0.0076868538 
   3820000   0.051576383   -1.1574929      0.051496308   -1.0286819      0.0095603584 
   3821000   0.05255202    -1.1578972      0.05014555    -1.0289745      0.010495791  
   3822000   0.050141914   -1.1580608      0.051775602   -1.0311208      0.013457046  
   3823000   0.051413202   -1.1585806      0.051949499   -1.0295611      0.014151365  
   3824000   0.050779082   -1.1592503      0.054299834   -1.028831       0.013358506  
   3825000   0.050725859   -1.1588413      0.05180015    -1.0310015      0.007622583  
   3826000   0.051840044   -1.1575792      0.05249267    -1.0273766      0.014789569  
   3827000   0.050110693   -1.1576367      0.053541031   -1.0289781      0.0069114158 
   3828000   0.05235134    -1.158345       0.0514703     -1.0283984      0.00300932   
   3829000   0.052328265   -1.156588       0.053163537   -1.0249827      0.023750168  
   3830000   0.052767144   -1.1580811      0.052141927   -1.0268396      0.0088462834 
   3831000   0.051718936   -1.1582493      0.052427905   -1.0282931      0.024880034  
   3832000   0.050438022   -1.156737       0.052187507   -1.0289413      0.003530239  
   3833000   0.052853576   -1.1586193      0.054728943   -1.0246611      0.0062400401 
   3834000   0.053902695   -1.1572191      0.055137806   -1.0212794      0.0046317861 
   3835000   0.052039479   -1.1585325      0.055313985   -1.0252097     -0.0060513504 
   3836000   0.054818419   -1.1595605      0.053316279   -1.0240696      0.0027516942 
   3837000   0.051084799   -1.1584025      0.055586839   -1.0262379      0.014606973  
   3838000   0.052212499   -1.1568183      0.051579795   -1.0269703      0.025509367  
   3839000   0.050569591   -1.1598564      0.055087711   -1.0289632      0.014941659  
   3840000   0.050548894   -1.158603       0.0544233     -1.0284053      0.011305682  
   3841000   0.052036505   -1.1592304      0.055337213   -1.0258888      0.0058316901 
   3842000   0.052366709   -1.1583669      0.05323969    -1.0266279      0.021129904  
   3843000   0.051782764   -1.1586689      0.052291048   -1.0287539     -0.0037050316 
   3844000   0.051951434   -1.1575081      0.050979058   -1.0286522      0.0097295792 
   3845000   0.051753574   -1.1589403      0.053925376   -1.0274346      0.012128389  
   3846000   0.050538336   -1.1573949      0.052690795   -1.0289455      0.011608479  
   3847000   0.052150386   -1.1580103      0.052127887   -1.0277073      0.012219753  
   3848000   0.052428253   -1.1578682      0.054036054   -1.0252405      0.00055431026
   3849000   0.051768737   -1.1574518      0.05101048    -1.0288383      0.0056359746 
   3850000   0.051981771   -1.1585085      0.051607779   -1.0289784      0.016279112  
   3851000   0.051189915   -1.1581106      0.051322714   -1.0300525      0.024104625  
   3852000   0.052648064   -1.1587411      0.053065659   -1.0267543      0.0041616732 
   3853000   0.052923      -1.1586221      0.054114714   -1.0251741      0.0013301587 
   3854000   0.052967275   -1.1585286      0.050818694   -1.0283102     -0.00079907974
   3855000   0.05137128    -1.1583718      0.051361553   -1.030003       0.023917639  
   3856000   0.05014201    -1.1587199      0.051248888   -1.0323065      0.024011347  
   3857000   0.050147388   -1.159034       0.052799137   -1.0310623      0.010445975  
   3858000   0.052818381   -1.1593961      0.054153704   -1.0260659     -0.0008016481 
   3859000   0.052251032   -1.159501       0.054128171   -1.0270469      0.0045908588 
   3860000   0.05259014    -1.1591844      0.052990754   -1.0273594      0.010620808  
   3861000   0.050938876   -1.1574352      0.051551245   -1.0295249      0.012021398  
   3862000   0.052316258   -1.1574614      0.051552607   -1.027485       0.013292406  
   3863000   0.051523042   -1.1585576      0.051534885   -1.029788       0.013821552  
   3864000   0.049361236   -1.1578058      0.055385993   -1.0284258      0.013610714  
   3865000   0.050925049   -1.1595277      0.052373419   -1.030816       0.025829646  
   3866000   0.052416515   -1.1584358      0.052756716   -1.027105       0.0030892215 
   3867000   0.052023798   -1.1555269      0.050460344   -1.0270812      0.023506827  
   3868000   0.053713621   -1.158673       0.052802611   -1.025352       0.038991511  
   3869000   0.051427879   -1.1583082      0.054660973   -1.0265552      0.007096197  
   3870000   0.0531476     -1.1565838      0.052888386   -1.0240254      0.0091115915 
   3871000   0.051518971   -1.1583233      0.054528052   -1.0265666     -0.0051849322 
   3872000   0.052058774   -1.1577898      0.052667102   -1.0270849      0.013041909  
   3873000   0.052016475   -1.1602973      0.053953738   -1.0283692      0.027205843  
   3874000   0.050604397   -1.1592951      0.052166701   -1.0312707      0.016959722  
   3875000   0.051343916   -1.1601587      0.052357262   -1.0308353      0.021242933  
   3876000   0.05360747    -1.1601575      0.055177705   -1.0246205      0.017922282  
   3877000   0.051818797   -1.1596636      0.054624295   -1.0273613      0.013794425  
   3878000   0.052122044   -1.1578997      0.053956122   -1.025811       0.019315831  
   3879000   0.052246281   -1.1602679      0.053301426   -1.0286476      0.02462366   
   3880000   0.051211307   -1.1593098      0.053884487   -1.028658       0.0031491217 
   3881000   0.050904081   -1.158047       0.052274977   -1.0294651      0.010511533  
   3882000   0.050560101   -1.1604763      0.053491518   -1.0311936      0.0074041638 
   3883000   0.052727669   -1.1597708      0.052744429   -1.0279859      0.014977547  
   3884000   0.052759169   -1.1594242      0.055227657   -1.0251089      0.00991812   
   3885000   0.051629859   -1.1578693      0.055779535   -1.024695       0.0081335217 
   3886000   0.051903818   -1.1584704      0.054215956   -1.026449       0.022502145  
   3887000   0.050574624   -1.1599976      0.054917436   -1.0292672      0.011444494  
   3888000   0.053721258   -1.1585355      0.053701834   -1.0243037      0.012657985  
   3889000   0.052344752   -1.1554144      0.054952938   -1.021995       0.004581208  
   3890000   0.052472318   -1.1582927      0.052576093   -1.0270589      0.0098139899 
   3891000   0.052495519   -1.1582789      0.054361025   -1.0252254      0.025869245  
   3892000   0.052025443   -1.1581407      0.054236713   -1.0259162      0.017759163  
   3893000   0.053491471   -1.1582959      0.05395621    -1.0241543      0.029941178  
   3894000   0.052119022   -1.1601452      0.055369306   -1.0266478      0.012136876  
   3895000   0.052724323   -1.1586166      0.056110313   -1.0234709      0.014160067  
   3896000   0.051646052   -1.1591848      0.053472538   -1.0282931      0.034863418  
   3897000   0.052122057   -1.1592835      0.053843145   -1.0273077      0.028646241  
   3898000   0.053558862   -1.1596382      0.056345295   -1.0230064      0.016557909  
   3899000   0.053190471   -1.1576716      0.056145596   -1.0217918      0.0252948    
   3900000   0.052308288   -1.1593244      0.054297381   -1.0266152      0.0091900836 
   3901000   0.051549142   -1.1592763      0.053335555   -1.0286669      0.027228073  
   3902000   0.050817029   -1.1584995      0.053643924   -1.0286792      0.014428942  
   3903000   0.052311222   -1.1596931      0.053080876   -1.028196       0.023467119  
   3904000   0.052511709   -1.1589035      0.055106347   -1.0250805      0.011867991  
   3905000   0.050988971   -1.1581884      0.053452019   -1.0283022      0.00020385783
   3906000   0.051707662   -1.1584797      0.053594127   -1.0273741      0.016856768  
   3907000   0.051453304   -1.1585751      0.054229676   -1.0272153      0.0083152832 
   3908000   0.051197773   -1.1570416      0.05571265    -1.0245819      0.0092323698 
   3909000   0.051703253   -1.1583104      0.05462635    -1.0261792      0.015228614  
   3910000   0.050836431   -1.1574799      0.054604646   -1.0266698      0.010120081  
   3911000   0.052599758   -1.157739       0.05363687    -1.0252534      0.020680085  
   3912000   0.051404759   -1.1585643      0.053192251   -1.0283147      0.018739744  
   3913000   0.050506109   -1.1578129      0.054246537   -1.0278561      0.0077519478 
   3914000   0.051579987   -1.1591259      0.052764937   -1.0290409      0.0057945107 
   3915000   0.050797667   -1.1577732      0.053844834   -1.027781       0.018984798  
   3916000   0.051286359   -1.1596277      0.053678527   -1.0290693      0.035670331  
   3917000   0.052726847   -1.1590606      0.052766652   -1.0272547      0.018297475  
   3918000   0.052144473   -1.1565114      0.053554675   -1.0247905      0.023285221  
   3919000   0.051800748   -1.1588548      0.056834341   -1.0243695      0.011342414  
   3920000   0.052621422   -1.1573093      0.054638726   -1.0237893      0.027186794  
   3921000   0.051879374   -1.1587817      0.053721685   -1.0272911      0.023615567  
   3922000   0.05194005    -1.1595545      0.052783361   -1.0289113      0.0030758964 
   3923000   0.051463638   -1.1600014      0.053442745   -1.029413       0.0076282866 
   3924000   0.053267962   -1.1580733      0.053991941   -1.0242309      0.021628488  
   3925000   0.051143051   -1.1599682      0.055312389   -1.0279907      0.017115919  
   3926000   0.050477334   -1.1581547      0.054607721   -1.0278798      0.027806471  
   3927000   0.052337784   -1.1588615      0.058432217   -1.0219732      0.0042711708 
   3928000   0.052321286   -1.1578595      0.054827758   -1.0246005      0.015176385  
   3929000   0.053618173   -1.1596405      0.055253575   -1.0240116      0.015126034  
   3930000   0.051831879   -1.1600949      0.056011202   -1.026386       0.027964463  
   3931000   0.051891329   -1.1597865      0.053014434   -1.0289852      0.010984284  
   3932000   0.051329092   -1.1583877      0.053500333   -1.0279434      0.013781102  
   3933000   0.050740891   -1.157997       0.050103961   -1.0318308      0.013675931  
   3934000   0.052343984   -1.1583863      0.053744444   -1.0261765      0.012582593  
   3935000   0.05246608    -1.1589314      0.053675809   -1.0266072      0.013854294  
   3936000   0.050928873   -1.1612356      0.054428151   -1.0304634      0.0002984929 
   3937000   0.050928729   -1.1573289      0.054819679   -1.0261654      0.023236142  
   3938000   0.053423116   -1.1588139      0.055647146   -1.0230837      0.0038498519 
   3939000   0.052244538   -1.1587788      0.055408283   -1.0250543      0.0051208692 
   3940000   0.052043409   -1.1586193      0.057573841   -1.0230307      0.0098669952 
   3941000   0.05362062    -1.158721       0.05223858    -1.0261034      0.0076862405 
   3942000   0.050846201   -1.1584035      0.055035533   -1.0271479      0.013933984  
   3943000   0.051311542   -1.1593566      0.055095036   -1.0273439      0.0067601993 
   3944000   0.052646631   -1.1595428      0.053579556   -1.0270442      0.0030422073 
   3945000   0.049275577   -1.1602977      0.056211499   -1.0302206      0.016000899  
   3946000   0.05251492    -1.1573663      0.051117695   -1.0275271      0.0051348768 
   3947000   0.050696085   -1.1588089      0.052180006   -1.0306338      0.0043218912 
   3948000   0.051251982   -1.1575122      0.052375996   -1.0283078      0.023752309  
   3949000   0.051432815   -1.1603065      0.055448044   -1.027759       0.0025785523 
   3950000   0.05114095    -1.1589347      0.055359878   -1.0269129      0.0077199257 
   3951000   0.053316035   -1.1611129      0.055258247   -1.0259322      0.007219654  
   3952000   0.051841213   -1.1602019      0.054848211   -1.0276421     -0.0082932538 
   3953000   0.051699456   -1.1592317      0.052897312   -1.0288352      0.016004247  
   3954000   0.053725749   -1.1601984      0.054981034   -1.0246808      0.0088868824 
   3955000   0.052061013   -1.1583651      0.054612903   -1.0257111      0.0060289796 
   3956000   0.051539156   -1.160137       0.055800266   -1.0270778      0.02271872   
   3957000   0.052508571   -1.158556       0.051612349   -1.0282316      0.024565767  
   3958000   0.055278736   -1.1598232      0.054690401   -1.0222682      0.017579865  
   3959000   0.053443493   -1.1598028      0.055249138   -1.0244401      0.010892516  
   3960000   0.051355602   -1.1589483      0.052875068   -1.0290895      0.022698404  
   3961000   0.051689312   -1.1599012      0.055045833   -1.0273714      0.004969873  
   3962000   0.052347794   -1.159814       0.054540054   -1.0268029      0.016761476  
   3963000   0.050614706   -1.1594376      0.055990414   -1.0275742      0.004486797  
   3964000   0.050800041   -1.1573943      0.052998475   -1.0282449      0.010302423  
   3965000   0.050953179   -1.1586299      0.05673383    -1.0255156      0.004930827  
   3966000   0.05294776    -1.1598821      0.053365578   -1.0271462      0.0094822712 
   3967000   0.052909319   -1.1584341      0.054935679   -1.0241857      0.017182389  
   3968000   0.054365138   -1.1601085      0.055942144   -1.0226713      0.004623513  
   3969000   0.051431098   -1.157989       0.052109458   -1.0287827      0.0019035057 
   3970000   0.053411681   -1.1601624      0.054799932   -1.0252966      0.016952391  
   3971000   0.050870716   -1.1600907      0.054049433   -1.0297844      0.019487451  
   3972000   0.050581475   -1.159452       0.0554459     -1.0281828      0.020441307  
   3973000   0.05258431    -1.159549       0.054161169   -1.0265622      0.00069792561
   3974000   0.052261751   -1.1607797      0.054190374   -1.0282473      0.024272958  
   3975000   0.05293729    -1.1577424      0.05370844    -1.0246793      0.011101272  
   3976000   0.051192225   -1.1570421      0.054333908   -1.0259694      0.013267043  
   3977000   0.051147694   -1.1576825      0.053434872   -1.0275756      0.00023148929
   3978000   0.051419174   -1.1567086      0.051769504   -1.0278601      0.018669306  
   3979000   0.05158436    -1.1594664      0.053112426   -1.0290274      0.0087225983 
   3980000   0.051527011   -1.1583643      0.053445789   -1.0276778      0.013480359  
   3981000   0.05124045    -1.1586412      0.053946814   -1.0278833      0.024138929  
   3982000   0.051495464   -1.1578913      0.053826942   -1.026871       0.0083240374 
   3983000   0.051787164   -1.1588744      0.05426229    -1.0269814      0.004702104  
   3984000   0.052954981   -1.1597434      0.055203297   -1.0251589     -0.00014773066
   3985000   0.053425479   -1.1581755      0.055407266   -1.0226818      0.0045545224 
   3986000   0.05444679    -1.1600537      0.055774719   -1.0226615      0.0030283441 
   3987000   0.053137788   -1.157674       0.053311389   -1.0247074      0.010237149  
   3988000   0.052652687   -1.159275       0.054570727   -1.0257762      0.013921206  
   3989000   0.052401633   -1.1593499      0.058172804   -1.0226254      0.0066849284 
   3990000   0.051153962   -1.1573817      0.052824239   -1.027876       0.014289274  
   3991000   0.051927838   -1.1592962      0.055064724   -1.0263899      0.018517373  
   3992000   0.051014883   -1.1585995      0.055977621   -1.0261489      0.027883136  
   3993000   0.053511035   -1.1595651      0.056425588   -1.0229247      0.0053469135 
   3994000   0.053015037   -1.1589352      0.056549114   -1.0229149      0.02157827   
   3995000   0.052791004   -1.1579145      0.055021083   -1.023758       0.017149161  
   3996000   0.05243079    -1.1587018      0.05443897    -1.0256674     -0.0045367841 
   3997000   0.052640586   -1.157673       0.05605222    -1.0227108      0.0071111739 
   3998000   0.052763015   -1.1600627      0.055390246   -1.025579       0.021750697  
   3999000   0.050745886   -1.1572992      0.053771865   -1.0274576      0.021360887  
   4000000   0.051286426   -1.1597474      0.054938747   -1.0279286      0.026030345  
   4001000   0.053770526   -1.156329       0.055641881   -1.0200833      0.0077975555 
   4002000   0.052525865   -1.1572633      0.053728366   -1.024797       0.013891064  
   4003000   0.051667419   -1.1593648      0.053447361   -1.0284663      0.012239358  
   4004000   0.052237594   -1.1586984      0.055284574   -1.025108       0.0092511903 
   4005000   0.051478863   -1.1591565      0.05414714    -1.0278409      0.0086567355 
   4006000   0.050396081   -1.1579749      0.05836784    -1.0240617     -0.0040798095 
   4007000   0.052882435   -1.1587533      0.054731561   -1.0247493      0.01570428   
   4008000   0.053031412   -1.1576319      0.052072724   -1.0260634      0.013110512  
   4009000   0.050154301   -1.1597613      0.05497993    -1.0295985     -0.0029057162 
   4010000   0.053273844   -1.1595003      0.054142942   -1.0254981      0.0080671901 
   4011000   0.050544867   -1.1574058      0.054769442   -1.026868      -0.00055478729
   4012000   0.052040732   -1.1589299      0.052469012   -1.0284501      0.0091853514 
   4013000   0.051378524   -1.1592923      0.054241529   -1.0280327      0.013465493  
   4014000   0.051612773   -1.1561452      0.05357227    -1.0252037      0.020024558  
   4015000   0.052739226   -1.1575961      0.05536295    -1.0231753      0.00019977233
   4016000   0.052286505   -1.1584162      0.055896772   -1.0241403      0.011805015  
   4017000   0.051854787   -1.1588281      0.054895705   -1.0262004      0.0077131646 
   4018000   0.050151975   -1.1587468      0.052253524   -1.0313138      0.0065613828 
   4019000   0.053152128   -1.1604978      0.057744729   -1.0230763      0.008702368  
   4020000   0.049308566   -1.1582846      0.055512347   -1.0288571      0.018837837  
   4021000   0.051188728   -1.1577878      0.054643081   -1.0264111      0.023055637  
   4022000   0.