LAMMPS (22 Jul 2025)
OMP_NUM_THREADS environment is not set. Defaulting to 1 thread.
  using 1 OpenMP thread(s) per MPI task
package omp 0
using multi-threaded neighbor list subroutines
# Input Script of lammps for assembly simulation of polimeric network.
# Main code is based on: https://github.com/PipeB62/Hydrogel-Simulation
# Patchy particles are with bond style.

# Felipe Benavides modified by Fco. Vazquez

# Initialization
units lj
dimension 3
boundary p p p

# Styles of atoms and that stuff
atom_style full
bond_style harmonic
angle_style harmonic
pair_style hybrid/overlay zero 0.0 lj/cut/omp 1.12 table/omp linear 5000000 threebody/table

newton on

# Create simulaiton box
region simulation_box block -$L $L -$L $L -$L $L
region simulation_box block -16.752187 $L -$L $L -$L $L
region simulation_box block -16.752187 16.752187 -$L $L -$L $L
region simulation_box block -16.752187 16.752187 -16.752187 $L -$L $L
region simulation_box block -16.752187 16.752187 -16.752187 16.752187 -$L $L
region simulation_box block -16.752187 16.752187 -16.752187 16.752187 -16.752187 $L
region simulation_box block -16.752187 16.752187 -16.752187 16.752187 -16.752187 16.752187
# N-atom-types region-ID keyword value Is necesesary the extra/special/per/atom (# of special neighbors per atom)
create_box 4 simulation_box     bond/types 1     angle/types 2     extra/bond/per/atom 10     extra/angle/per/atom 6     extra/special/per/atom 10
Created orthogonal box = (-16.752187 -16.752187 -16.752187) to (16.752187 16.752187 16.752187)
  2 by 2 by 2 MPI processor grid

# Atom types
mass 1 1.0      # CL
mass 2 1.0      # MO
mass 3 0.1      # PA
mass 4 0.1      # PB

# Coefficients
include potential.in
# Script with the pair-wise interaction and bonds between particles

bond_coeff 1 100.0 0.45
angle_coeff 1 100.0 180
angle_coeff 2 100.0 109.4712
pair_coeff 1 3 zero 0.5
pair_coeff 1 4 zero 0.5
pair_coeff 2 3 zero 0.5
pair_coeff 2 4 zero 0.5
pair_coeff 3 3 zero 0.5
pair_coeff 1 1 lj/cut/omp 1.0 1.0 1.12
pair_coeff 2 2 lj/cut/omp 1.0 1.0 1.12
pair_coeff 1 2 lj/cut/omp 1.0 1.0 1.12
pair_coeff 3 4 table/omp sysFiles/pachTab.table POT 0.6 # sw/omp sysFiles/patchyPot.sw NULL NULL PA PB
Reading pair table potential file sysFiles/pachTab.table with DATE: 2024-07-08
WARNING: 7 of 1000000 force values in table POT are inconsistent with -dE/dr.
WARNING:  Should only be flagged at inflection points (src/pair_table.cpp:469)
pair_coeff 4 4 table/omp sysFiles/pachTab.table POT 0.6 # sw/omp sysFiles/patchyPot.sw NULL NULL PA PB
Reading pair table potential file sysFiles/pachTab.table with DATE: 2024-07-08
WARNING: 7 of 1000000 force values in table POT are inconsistent with -dE/dr.
WARNING:  Should only be flagged at inflection points (src/pair_table.cpp:469)
pair_coeff * * threebody/table swapMech.3b NULL NULL PA PB
pair_modify pair lj/cut/omp shift yes


# Molecules
include molecules.in
# Script with all molecule information and create groups for computes

# Read the molecule information
molecule CL sysFiles/molecule.patchy.CL
Read molecule template CL:
# Patchy Cross-Linker
  1 molecules
  0 fragments
  0 bodies
  5 atoms with max type 3
  4 bonds with max type 1
  6 angles with max type 2
  0 dihedrals with max type 0
  0 impropers with max type 0
molecule MO sysFiles/molecule.patchy.MO
Read molecule template MO:
# Patchy Monomer
  1 molecules
  0 fragments
  0 bodies
  3 atoms with max type 4
  2 bonds with max type 1
  1 angles with max type 1
  0 dihedrals with max type 0
  0 impropers with max type 0

# Introduce the molecules
# ID style args keyword arg
region spawn_box block -$L $L -$L $L -$L $L
region spawn_box block -16.752187 $L -$L $L -$L $L
region spawn_box block -16.752187 16.752187 -$L $L -$L $L
region spawn_box block -16.752187 16.752187 -16.752187 $L -$L $L
region spawn_box block -16.752187 16.752187 -16.752187 16.752187 -$L $L
region spawn_box block -16.752187 16.752187 -16.752187 16.752187 -16.752187 $L
region spawn_box block -16.752187 16.752187 -16.752187 16.752187 -16.752187 16.752187

# create_atoms type style args keyword values
# style_random: N seed region-ID
# keyword_mol: template-ID seed
# keyword_overlap: overlap value = only insert if at least this distance from all existing atoms
# keyword_maxtry: maxtry value = number of attempts to insert a particle before failure
create_atoms 0 random ${NCL} ${seed1} spawn_box mol CL ${seed1} overlap 1.0 maxtry 5000 #xls
create_atoms 0 random 125 ${seed1} spawn_box mol CL ${seed1} overlap 1.0 maxtry 5000 
create_atoms 0 random 125 3234 spawn_box mol CL ${seed1} overlap 1.0 maxtry 5000 
create_atoms 0 random 125 3234 spawn_box mol CL 3234 overlap 1.0 maxtry 5000 
Created 625 atoms
  using lattice units in orthogonal box = (-16.752187 -16.752187 -16.752187) to (16.752187 16.752187 16.752187)
  create_atoms CPU = 0.009 seconds
create_atoms 0 random ${NMO} ${seed2} spawn_box mol MO ${seed2} overlap 1.0 maxtry 5000 #mon
create_atoms 0 random 2375 ${seed2} spawn_box mol MO ${seed2} overlap 1.0 maxtry 5000 
create_atoms 0 random 2375 6321 spawn_box mol MO ${seed2} overlap 1.0 maxtry 5000 
create_atoms 0 random 2375 6321 spawn_box mol MO 6321 overlap 1.0 maxtry 5000 
Created 7125 atoms
  using lattice units in orthogonal box = (-16.752187 -16.752187 -16.752187) to (16.752187 16.752187 16.752187)
  create_atoms CPU = 0.125 seconds

# Create patchy particles
group CrossLinker type 1 3
625 atoms in group CrossLinker
group Monomer type 2 4
7125 atoms in group Monomer
group Patches type 3 4
5250 atoms in group Patches
group CL type 1
125 atoms in group CL
group MO type 2
2375 atoms in group MO
group PA type 3
500 atoms in group PA
group CM type 1 2
2500 atoms in group CM

# Neighbor list
neighbor 1.8 bin # extra-distance style
#neigh_modify delay 0 every 1 check no
#neigh_modify exclude molecule/intra CrossLinker
#neigh_modify exclude molecule/intra Monomer

# COMPUTES

# Compute global kinetic and potential energy and temperature
compute t all temp
compute p all pressure t
compute ep all pe
compute ek all ke
variable eT equal etotal
variable eB equal ebond
variable eA equal eangle
variable eM equal emol
variable ec equal ecouple
variable eC equal econserve

# Potencial energy per pair-wise interaction
compute wcaPair all pair lj/cut/omp epair
compute patchPair all pair table/omp epair
compute swapPair all pair threebody/table epair

# Compute the pressure
compute press all pressure t ke virial
compute pressVirial all pressure t virial
compute pressVirialMod all pressure t pair bond angle

# Computes for the stress
compute cstress all stress/atom t ke pair bond angle
compute cstressVirial all stress/atom t virial
compute cstressVirialMod all stress/atom t pair bond angle
compute stress all reduce sum c_cstress[*]
compute stressVirial all reduce sum c_cstressVirial[*]
compute stressVirialMod all reduce sum c_cstressVirialMod[*]

# Displacement of the central particles
compute disp CM displace/atom
compute redDisp CM reduce ave c_disp[*] # All, because yes

# Get the number of central particles per cluster
compute clusters all aggregate/atom 0.6                             # Create the clusters
compute Nclpart CM chunk/atom c_clusters compress yes discard yes   # Get the number of clusters
compute clsize CM property/chunk Nclpart count                      # Counts the atoms in each chunk
compute idcl CM property/chunk Nclpart id                           # Get the ids of the clusters

# DUMPS and FIXES

thermo ${NsaveStress}
thermo 1000

# Save global energies and temperature
fix Energy all ave/time 1 ${Nsave} ${Nsave} c_t c_wcaPair c_patchPair c_swapPair c_ep c_ek v_eT v_ec v_eC c_p v_eB v_eA v_eM c_redDisp[*] file ${Dir}/${file1_name}
fix Energy all ave/time 1 1000 ${Nsave} c_t c_wcaPair c_patchPair c_swapPair c_ep c_ek v_eT v_ec v_eC c_p v_eB v_eA v_eM c_redDisp[*] file ${Dir}/${file1_name}
fix Energy all ave/time 1 1000 1000 c_t c_wcaPair c_patchPair c_swapPair c_ep c_ek v_eT v_ec v_eC c_p v_eB v_eA v_eM c_redDisp[*] file ${Dir}/${file1_name}
fix Energy all ave/time 1 1000 1000 c_t c_wcaPair c_patchPair c_swapPair c_ep c_ek v_eT v_ec v_eC c_p v_eB v_eA v_eM c_redDisp[*] file /home/franvt/GitRepos/molDynLammps/polymericGels/gel-bonds-1/data/0.050.30.052500-2026-01-16-102953/${file1_name}
fix Energy all ave/time 1 1000 1000 c_t c_wcaPair c_patchPair c_swapPair c_ep c_ek v_eT v_ec v_eC c_p v_eB v_eA v_eM c_redDisp[*] file /home/franvt/GitRepos/molDynLammps/polymericGels/gel-bonds-1/data/0.050.30.052500-2026-01-16-102953/system_assembly.fixf

# Save Pressure and Stress tensor
fix fixStress5 all ave/time 1 ${NsaveStress} ${NsaveStress} c_p c_press[*] c_pressVirial[*] c_pressVirialMod[*] c_stress[*] c_stressVirial[*] c_stressVirialMod[*] file ${Dir}/${file2_name}
fix fixStress5 all ave/time 1 1000 ${NsaveStress} c_p c_press[*] c_pressVirial[*] c_pressVirialMod[*] c_stress[*] c_stressVirial[*] c_stressVirialMod[*] file ${Dir}/${file2_name}
fix fixStress5 all ave/time 1 1000 1000 c_p c_press[*] c_pressVirial[*] c_pressVirialMod[*] c_stress[*] c_stressVirial[*] c_stressVirialMod[*] file ${Dir}/${file2_name}
fix fixStress5 all ave/time 1 1000 1000 c_p c_press[*] c_pressVirial[*] c_pressVirialMod[*] c_stress[*] c_stressVirial[*] c_stressVirialMod[*] file /home/franvt/GitRepos/molDynLammps/polymericGels/gel-bonds-1/data/0.050.30.052500-2026-01-16-102953/${file2_name}
fix fixStress5 all ave/time 1 1000 1000 c_p c_press[*] c_pressVirial[*] c_pressVirialMod[*] c_stress[*] c_stressVirial[*] c_stressVirialMod[*] file /home/franvt/GitRepos/molDynLammps/polymericGels/gel-bonds-1/data/0.050.30.052500-2026-01-16-102953/stress_assembly.fixf

# Save the global cluster information
fix 1 CM ave/time 1 1 ${Ndump} c_idcl c_clsize file ${Dir}/${file3_name} mode vector
fix 1 CM ave/time 1 1 1000 c_idcl c_clsize file ${Dir}/${file3_name} mode vector
fix 1 CM ave/time 1 1 1000 c_idcl c_clsize file /home/franvt/GitRepos/molDynLammps/polymericGels/gel-bonds-1/data/0.050.30.052500-2026-01-16-102953/${file3_name} mode vector
fix 1 CM ave/time 1 1 1000 c_idcl c_clsize file /home/franvt/GitRepos/molDynLammps/polymericGels/gel-bonds-1/data/0.050.30.052500-2026-01-16-102953/clust_assembly.fixf mode vector

# Save atom positions with cluster id
dump dumpID all custom ${Ndump} ${Dir}/traj/${file5_name} id mol c_clusters type x y z vx vy vz
dump dumpID all custom 1000 ${Dir}/traj/${file5_name} id mol c_clusters type x y z vx vy vz
dump dumpID all custom 1000 /home/franvt/GitRepos/molDynLammps/polymericGels/gel-bonds-1/data/0.050.30.052500-2026-01-16-102953/traj/${file5_name} id mol c_clusters type x y z vx vy vz
dump dumpID all custom 1000 /home/franvt/GitRepos/molDynLammps/polymericGels/gel-bonds-1/data/0.050.30.052500-2026-01-16-102953/traj/traj_assembly.*.dumpf id mol c_clusters type x y z vx vy vz
dump_modify dumpID pbc yes # remap atoms via periodic boundary conditions

# RUN SIMULATION

# Brownian Dynamics using Langevin Thermostat

timestep ${tstep}
timestep 0.001

fix VelVerlet all nve # Use Velocity Verlet integrator

# First elevate the temperature
fix ThermoLng all langevin 0.0 ${temp} ${damp} ${seed3} # Brownian Dynamics: langevin + nve
fix ThermoLng all langevin 0.0 0.05 ${damp} ${seed3} 
fix ThermoLng all langevin 0.0 0.05 1 ${seed3} 
fix ThermoLng all langevin 0.0 0.05 1 2010 
run ${stepsheat}
run 500000
WARNING: Using a manybody potential with bonds/angles/dihedrals and special_bond exclusions (src/pair.cpp:250)
Hybrid pair style last /omp style table/omp
Last active /omp style is angle_style harmonic/omp
Neighbor list info ...
  update: every = 1 steps, delay = 0 steps, check = yes
  max neighbors/atom: 2000, page size: 100000
  master list distance cutoff = 2.92
  ghost atom cutoff = 2.92
  binsize = 1.46, bins = 23 23 23
  7 neighbor lists, perpetual/occasional/extra = 6 1 0
  (1) pair zero, perpetual, skip from (7)
      attributes: half, newton on, omp
      pair build: skip/omp
      stencil: none
      bin: none
  (2) pair lj/cut/omp, perpetual, skip from (7)
      attributes: half, newton on, omp
      pair build: skip/omp
      stencil: none
      bin: none
  (3) pair table/omp, perpetual, skip from (7)
      attributes: half, newton on, omp
      pair build: skip/omp
      stencil: none
      bin: none
  (4) pair threebody/table, perpetual, skip from (6)
      attributes: full, newton on, omp
      pair build: skip/omp
      stencil: none
      bin: none
  (5) compute aggregate/atom, occasional, copy from (6)
      attributes: full, newton on, omp
      pair build: copy
      stencil: none
      bin: none
  (6) neighbor class addition, perpetual
      attributes: full, newton on, omp
      pair build: full/bin/omp
      stencil: full/bin/3d
      bin: standard
  (7) neighbor class addition, perpetual, half/full from (6)
      attributes: half, newton on, omp
      pair build: halffull/newton/omp
      stencil: none
      bin: none
Per MPI rank memory allocation (min/avg/max) = 19.8 | 19.8 | 19.81 Mbytes
   Step          Temp          E_pair         E_mol          TotEng         Press     
         0   0              0.00032397144  0.15480456     0.15512854    -0.2141153    
      1000   0.017854229    0              0.030922997    0.057700886   -0.087287975  
      2000   0.01399065     0              0.00031682389  0.021300091   -0.0027837854 
      3000   0.0033166062   0              0.0031076427   0.00808191     0.027088583  
      4000   0.00036893599  0              0.0029773317   0.0035306642   0.025627354  
      5000   0.00066549004  7.3215337e-09  0.00097182206  0.0019699356   0.013018278  
      6000   0.00077240903  1.9153791e-07  0.00035774887  0.0015164045   0.0019751112 
      7000   0.00069737094  0              0.00044843847  0.0014943599  -0.0029134362 
      8000   0.00072118375  1.0321756e-07  0.00053393186  0.0016156711  -0.0034058245 
      9000   0.00085532853 -0.00011697814  0.00058528862  0.0017511377  -0.0020378544 
     10000   0.00097528344 -0.00031691637  0.00062908187  0.0017749019  -0.00028183379
     11000   0.0011876272  -0.00089003717  0.00076476517  0.0016559389   0.0003033396 
     12000   0.0012910241  -0.0014069499   0.00083529477  0.0013646311   0.00084064231
     13000   0.0013761714  -0.0021377668   0.0011841696   0.0011103935   0.00047230235
     14000   0.0015607332  -0.0025209456   0.00096625491  0.00078610697  9.1423798e-05
     15000   0.0016095321  -0.0033322963   0.0013211983   0.00040288858  0.0001048494 
     16000   0.001660258   -0.0037808453   0.0011763628  -0.00011441683 -0.00021144684
     17000   0.0019304518  -0.0047245775   0.0013302981  -0.00049897533 -0.00026300984
     18000   0.0023817939  -0.0067678458   0.0016176292  -0.0015779868  -0.00021026624
     19000   0.0023330419  -0.0078499259   0.0015865476  -0.002764267    0.00015462985
     20000   0.0022594775  -0.0091273864   0.0018606863  -0.0038779212   0.00011918626
     21000   0.002571435   -0.010743619    0.0017333252  -0.0051536386   0.00030649768
     22000   0.0028022737  -0.013043827    0.001883387   -0.0069575713   0.00017803295
     23000   0.0026024846  -0.013716406    0.0019531439  -0.0078600393   0.00049847434
     24000   0.0024800333  -0.01397417     0.0017320367  -0.0085225636   0.00067698452
     25000   0.0030119194  -0.016279518    0.0022742912  -0.0094879311   9.6194021e-05
     26000   0.003496315   -0.018752352    0.00242911    -0.011079447   -0.00041420533
     27000   0.0036368911  -0.02117395     0.0024471296  -0.013272188   -0.00020609732
     28000   0.0034150284  -0.023076683    0.0024007096  -0.015554092    6.0802699e-05
     29000   0.0036369031  -0.024855547    0.0026691073  -0.016731789    0.00028705058
     30000   0.0038285253  -0.027914319    0.0027988701  -0.019373402    0.00043423664
     31000   0.0034922029  -0.029138054    0.0027025758  -0.02119785     0.00031139073
     32000   0.0037169751  -0.03082064     0.0025655242  -0.022680372    0.00038377095
     33000   0.0039788174  -0.032791414    0.0029570651  -0.023866893   -0.00039630445
     34000   0.0041423034  -0.034611013    0.0028019526  -0.025596407    0.00016239078
     35000   0.0043524893  -0.038292155    0.0032116288  -0.028552635    0.00029091364
     36000   0.0044100512  -0.04038983     0.0031365799  -0.030639027    0.00060784444
     37000   0.0044998064  -0.043431572    0.0034249787  -0.033257755    0.00017127923
     38000   0.0047122818  -0.04667696     0.0037922459  -0.035817204    0.00057271053
     39000   0.0047082251  -0.049223455    0.0035086984  -0.03865333     0.00049996445
     40000   0.0047373744  -0.051398003    0.0034771812  -0.040815678    0.00037635356
     41000   0.0049938037  -0.053840586    0.0034388608  -0.042911987   -0.00024317323
     42000   0.0050873654  -0.056265071    0.0038169981  -0.044818009   -2.8265581e-07
     43000   0.0055369819  -0.060066292    0.0037517711  -0.04801012     0.0009919866 
     44000   0.0055288025  -0.063119499    0.0038733859  -0.05095398     0.00057834036
     45000   0.0055121935  -0.066294317    0.004144104   -0.05388299     0.00010650726
     46000   0.0056294298  -0.070056845    0.0042119891  -0.057401801    0.00047890622
     47000   0.0058125764  -0.073452711    0.0041774124  -0.060557559    6.7075419e-05
     48000   0.0054655768  -0.07546822     0.0040840875  -0.063186825   -0.00067632314
     49000   0.0056101076  -0.077334407    0.0040088575  -0.064911474    0.00058041518
     50000   0.0059876788  -0.081078987    0.0040036305  -0.068094997    0.0010228258 
     51000   0.0057766184  -0.082900807    0.0040868782  -0.07015012     0.0011660298 
     52000   0.0065357075  -0.087583474    0.0047290358  -0.073052142    0.0002386757 
     53000   0.007142746   -0.092944213    0.0051953778  -0.077036099    0.00087202083
     54000   0.0064594829  -0.095556166    0.0046159213  -0.081252271    0.00079799755
     55000   0.0063933781  -0.097544037    0.004631007   -0.083324201    0.00047909406
     56000   0.0065289054  -0.10036764     0.0048887131  -0.085686829    0.0005521667 
     57000   0.0065421835  -0.10311296     0.0045452779  -0.088755669   -4.7471266e-05
     58000   0.0063409822  -0.10420938     0.004601883   -0.090097251    0.00037673119
     59000   0.0068090173  -0.10720517     0.004868147   -0.092124815    0.0010498862 
     60000   0.006981086   -0.10990555     0.0051248488  -0.094310428    0.00056695397
     61000   0.0070064834  -0.11265561     0.0048489082  -0.097298328   -0.00011846482
     62000   0.007216012   -0.11663097     0.0053812658  -0.10042708    -4.9510694e-05
     63000   0.0075191486  -0.12042164     0.0055132012  -0.10363118     0.0012543404 
     64000   0.0076533149  -0.12431399     0.0054910262  -0.10734447     0.00012186776
     65000   0.0077352776  -0.12825723     0.0056009936  -0.11105481     0.00088321313
     66000   0.0078616271  -0.13196783     0.0057712041  -0.11440571     0.00020007342
     67000   0.008231662   -0.13668071     0.0057533556  -0.11858146     6.1486875e-05
     68000   0.0075625423  -0.13846384     0.0053750541  -0.12174644     0.00094564133
     69000   0.0073636056  -0.1401805      0.0052927562  -0.12384376     0.0018260973 
     70000   0.0082801425  -0.14601647     0.0060621416  -0.12753571    -0.00082413236
     71000   0.0082710186  -0.14831181     0.0057119769  -0.1301949     -6.1230528e-05
     72000   0.0081166042  -0.15129694     0.005777136   -0.13334646     0.00095360508
     73000   0.0085125294  -0.15564761     0.0057701427  -0.13711032     0.00076506132
     74000   0.008886773   -0.16037363     0.0065337893  -0.1405114      0.0008597973 
     75000   0.0087970356  -0.16502927     0.006607846   -0.14522757    -0.00033472045
     76000   0.0085572087  -0.16751663     0.0061630511  -0.14851942     0.00069611574
     77000   0.009085158   -0.17227322     0.0063167049  -0.15233054     0.00021833252
     78000   0.0087354554  -0.17437236     0.0060702555  -0.15520061     0.00091173136
     79000   0.0088215789  -0.17910415     0.0065005538  -0.15937293    -0.00084923687
     80000   0.0093913657  -0.1829944      0.0066101061  -0.16229906     0.00010391186
     81000   0.009594365   -0.18697071     0.0066858484  -0.16589517     0.00020386357
     82000   0.0095309131  -0.19044284     0.006547611   -0.16960071    -8.5465325e-05
     83000   0.0099453554  -0.19542404     0.0071331521  -0.17337478     0.00047921555
     84000   0.0095706938  -0.19783366     0.0065199651  -0.1769595      0.00024394814
     85000   0.0093789792  -0.20029559     0.0064490366  -0.1797799     -6.8734799e-05
     86000   0.0091647107  -0.20269858     0.0064365183  -0.18251677     0.0010150669 
     87000   0.0092559423  -0.20387641     0.0066050476  -0.18338925     0.00020271906
     88000   0.009607996   -0.20760502     0.0069836013  -0.18621128     0.00021839845
     89000   0.010423765   -0.21175958     0.0072860113  -0.18883994     0.0015062335 
     90000   0.010857107   -0.21849123     0.0080698178  -0.19413786    -0.00015069675
     91000   0.010146308   -0.22089284     0.0074006083  -0.19827473    -0.00081060523
     92000   0.010008533   -0.22263745     0.0069307376  -0.20069586    -0.00045378317
     93000   0.0099285865  -0.22463621     0.0068811568  -0.2028641     -0.00055806132
     94000   0.01009987    -0.22622386     0.0070229453  -0.20405307     0.0011510452 
     95000   0.010381589   -0.23049868     0.0074647207  -0.20746358     0.00075410877
     96000   0.010831553   -0.23404815     0.0074645899  -0.21033832    -0.00066601479
     97000   0.010851487   -0.23728697     0.0078436891  -0.21316815     0.00068610314
     98000   0.010991826   -0.24069728     0.0076988792  -0.21651279    -8.6306888e-05
     99000   0.011225227   -0.24529459     0.0078484903  -0.22061044     0.00027839491
    100000   0.011234183   -0.24829933     0.0079141982  -0.22353603     0.0012568008 
    101000   0.010954921   -0.24993127     0.0073725702  -0.22612844     0.0013585748 
    102000   0.011043495   -0.25256627     0.0079260012  -0.22807716     0.0014564646 
    103000   0.011053002   -0.25592828     0.008210762   -0.23114015    -0.00061763755
    104000   0.012104297   -0.26078208     0.0082843145  -0.23434366     0.00064742995
    105000   0.011752251   -0.26589652     0.0086078236  -0.23966259     0.00022899502
    106000   0.011896083   -0.2681565      0.0083270705  -0.24198761     0.00027891485
    107000   0.011957783   -0.27132386     0.0083906734  -0.24499883     0.00021804254
    108000   0.011918914   -0.27312951     0.0084461844  -0.24680726     0.0015963979 
    109000   0.013256278   -0.2790592      0.0092753132  -0.24990204     0.00059889232
    110000   0.012467205   -0.282755       0.0088584747  -0.25519813    -0.001290662  
    111000   0.013374771   -0.28778075     0.0091519739  -0.25856921     0.0023481102 
    112000   0.01332692    -0.29368346     0.0091548508  -0.26454081     0.00028897746
    113000   0.0137073     -0.29812915     0.0096015089  -0.26796934     0.0033741284 
    114000   0.012743836   -0.30012315     0.0089080002  -0.27210187     0.0017466934 
    115000   0.013141421   -0.30394671     0.0093059908  -0.27493113     0.0013441288 
    116000   0.013107124   -0.30809592     0.0090570148  -0.27938076    -0.00027924944
    117000   0.013257615   -0.31034223     0.0091714555  -0.28128692     0.00048450063
    118000   0.013116677   -0.31339992     0.0088723545  -0.28485509    -0.0005453886 
    119000   0.013055865   -0.31507831     0.0092687324  -0.2862283      0.00081865341
    120000   0.012926084   -0.31706464     0.0092718697  -0.28840615    -0.00012425794
    121000   0.013432672   -0.31951778     0.0092228821  -0.29014849    -0.0010885    
    122000   0.013655464   -0.32217818     0.0094768418  -0.29222079     0.00053780274
    123000   0.013705234   -0.32705225     0.0097944736  -0.29670258     0.00043526393
    124000   0.013571434   -0.33240221     0.009409433   -0.30263825    -0.0010779999 
    125000   0.013962896   -0.33217032     0.0095467576  -0.30168192     2.5300051e-05
    126000   0.014060379   -0.33606562     0.0095130228  -0.30546475     0.00052153858
    127000   0.013422869   -0.33790573     0.0094539088  -0.30832012    -0.00048702191
    128000   0.01364009    -0.33806253     0.0092458877  -0.30835914     0.00090851677
    129000   0.013911048   -0.34343497     0.0099922125  -0.31257888     0.0016796761 
    130000   0.014224901   -0.34530623     0.0098432705  -0.31412836    -0.0022245719 
    131000   0.014006372   -0.34863218     0.010367274   -0.31725806     0.0013579839 
    132000   0.014410076   -0.35186738     0.010462177   -0.31979287    -0.00064074451
    133000   0.014702873   -0.3531292      0.010353219   -0.32072451     0.0027704847 
    134000   0.014933242   -0.35838191     0.010692725   -0.32529221    -0.0017013326 
    135000   0.014946875   -0.36190249     0.010343025   -0.32914205    -0.00038807209
    136000   0.015002328   -0.36434955     0.010479865   -0.33136909     0.00053670213
    137000   0.014758161   -0.36784995     0.010295871   -0.3354197      0.0016199409 
    138000   0.015507123   -0.37121226     0.010825328   -0.33712925    -0.00010056813
    139000   0.015812019   -0.37512845     0.011148885   -0.34026459    -0.0014691689 
    140000   0.015467051   -0.37749771     0.011327822   -0.34297231     0.0022413885 
    141000   0.016049661   -0.38382672     0.010950349   -0.34880499     0.00127901   
    142000   0.01579721    -0.38858123     0.011500085   -0.35338839     0.0015058093 
    143000   0.01548766    -0.39120768     0.011346369   -0.35663282     0.00047863916
    144000   0.015840231   -0.39291471     0.011041643   -0.35811579     0.0039921603 
    145000   0.015957391   -0.39588629     0.011082005   -0.36087129     0.00012379842
    146000   0.015715708   -0.40057575     0.011036056   -0.36596918     0.0028070897 
    147000   0.015322175   -0.40451561     0.010664125   -0.37087119     0.0022108516 
    148000   0.015959825   -0.40356581     0.010939997   -0.36868917     0.003584553  
    149000   0.015766642   -0.40516235     0.010999581   -0.37051586     0.002135878  
    150000   0.016942596   -0.41036416     0.011384817   -0.37356872     0.0011785027 
    151000   0.016867752   -0.41446657     0.011649275   -0.37751893    -0.00043261223
    152000   0.016961278   -0.4163686      0.011406932   -0.37952303     0.00048969409
    153000   0.016516817   -0.42091875     0.01148159    -0.38466513     0.00075858983
    154000   0.01660852    -0.42273765     0.011419104   -0.38640898     0.001513443  
    155000   0.016994849   -0.4283279      0.012206027   -0.39063289     0.0054629473 
    156000   0.017244213   -0.42948573     0.011397722   -0.39222503     0.0022134015 
    157000   0.016572998   -0.43218557     0.011665383   -0.39566389     0.0048978268 
    158000   0.017228663   -0.43498147     0.011916215   -0.39722559     0.0036033235 
    159000   0.018168318   -0.44101648     0.012570227   -0.40119729     0.0020590357 
    160000   0.01719631    -0.44076559     0.011986889   -0.40298757     0.0050423586 
    161000   0.018311395   -0.44770299     0.012813761   -0.40742568    -0.00039920755
    162000   0.018165847   -0.45126542     0.012525285   -0.41149488     0.0035644924 
    163000   0.018201192   -0.455184       0.01281658    -0.41506915     0.00097369125
    164000   0.018125597   -0.4587086      0.013218097   -0.41830561     0.0018572085 
    165000   0.018464213   -0.46279587     0.012809421   -0.4222937     -1.7413657e-05
    166000   0.018139389   -0.46720094     0.012916206   -0.42707916    -0.0020356376 
    167000   0.018053785   -0.46863235     0.012675512   -0.42887965     0.0038537415 
    168000   0.018722748   -0.47413469     0.012994163   -0.43306002     0.0033684937 
    169000   0.017844424   -0.476791       0.012908938   -0.43711888     0.0062348457 
    170000   0.018172061   -0.47858018     0.012623188   -0.43870242    -0.0025147373 
    171000   0.018100852   -0.47736296     0.012577472   -0.43763772     0.0004701506 
    172000   0.018403189   -0.48070151     0.012505224   -0.44059507     0.0026566711 
    173000   0.018260211   -0.48340887     0.012191613   -0.44383047     0.00084434791
    174000   0.018133021   -0.48148319     0.012425379   -0.44186179    -0.0012397895 
    175000   0.018405658   -0.48524145     0.012579087   -0.44505744     0.00065300095
    176000   0.019569362   -0.48690034     0.013173352   -0.44437673     0.0020066748 
    177000   0.019267892   -0.49104557     0.012932751   -0.44921471    -0.0026033116 
    178000   0.018909465   -0.49269604     0.013250687   -0.45108481     0.0052147507 
    179000   0.019527658   -0.49435276     0.013977147   -0.45108791    -0.0020936192 
    180000   0.020577833   -0.49655955     0.014445917   -0.45125087    -0.0037848481 
    181000   0.020433229   -0.49918642     0.014772281   -0.45376825    -0.0059458994 
    182000   0.020732822   -0.50206567     0.014266713   -0.45670374    -0.00099726041
    183000   0.020368011   -0.50636092     0.014272499   -0.46154035     0.00065255814
    184000   0.019873153   -0.50780059     0.014120549   -0.46387416    -0.00043467729
    185000   0.020531126   -0.50920999     0.014542074   -0.4638752      0.0010624425 
    186000   0.020278989   -0.51354859     0.013955486   -0.46917855    -9.5507057e-05
    187000   0.020189708   -0.51445332     0.014398486   -0.46977418     0.0034617121 
    188000   0.020316943   -0.51797357     0.014630336   -0.47287175     0.0025046567 
    189000   0.021009477   -0.52120734     0.01514497    -0.47455222     0.0060608063 
    190000   0.021780881   -0.52283128     0.015384883   -0.47477929     0.0049746841 
    191000   0.022000999   -0.52781892     0.015309162   -0.47951252     0.005514454  
    192000   0.021523754   -0.52727046     0.015032827   -0.47995617    -0.00063117617
    193000   0.022925986   -0.53047718     0.015332611   -0.48076003     0.0013037246 
    194000   0.022233394   -0.53267682     0.01605421    -0.48327682     0.0015917543 
    195000   0.021710481   -0.53932763     0.015762796   -0.49100332    -0.00087383801
    196000   0.02237708    -0.54462644     0.016270276   -0.49479487    -0.0013706871 
    197000   0.022800233   -0.54435134     0.016131671   -0.49402373    -0.00042502617
    198000   0.022950172   -0.5471799      0.01631651    -0.49644258    -0.0011893064 
    199000   0.022570515   -0.55183069     0.015726212   -0.50225308     0.0037669037 
    200000   0.022290535   -0.55257213     0.015940467   -0.50320017    -0.0065074667 
    201000   0.022588956   -0.55386129     0.016290519   -0.50369171    -0.0028694975 
    202000   0.022706908   -0.55679929     0.017224701   -0.50551862     0.0032525826 
    203000   0.023227935   -0.56254227     0.017548489   -0.51015638    -0.0045735387 
    204000   0.023011471   -0.56347995     0.016345032   -0.51262216     0.0034930108 
    205000   0.023196306   -0.56595742     0.017245037   -0.51392241     0.0011627554 
    206000   0.023647357   -0.57045059     0.016775106   -0.51820903     0.0012529997 
    207000   0.023675062   -0.57075521     0.017491551   -0.51775564    -0.0029768922 
    208000   0.023521929   -0.57321249     0.01700278    -0.52093137    -0.0028571833 
    209000   0.023353618   -0.5760863      0.01705324    -0.52400715    -0.004112165  
    210000   0.024240408   -0.58178869     0.017787766   -0.52764501    -0.00575201   
    211000   0.023892417   -0.58247397     0.017502382   -0.52913759    -0.0015652117 
    212000   0.023587871   -0.58356492     0.016017189   -0.53217049     0.0016085036 
    213000   0.023493474   -0.58557201     0.015952732   -0.53438361     0.0038764497 
    214000   0.022870768   -0.58719434     0.015868067   -0.53702455     0.0022276708 
    215000   0.022918855   -0.59213256     0.015826222   -0.54193249     0.0016141542 
    216000   0.022712301   -0.59252574     0.01586989    -0.5425918     -0.00092801173
    217000   0.023372718   -0.59344539     0.016050744   -0.5423401      0.0008210922 
    218000   0.023491545   -0.59596803     0.016304098   -0.54443116     0.0028595292 
    219000   0.024057039   -0.59931424     0.016635415   -0.54659792     0.0016035925 
    220000   0.023402674   -0.60415363     0.01653483    -0.55251932     0.0031726657 
    221000   0.023275352   -0.60312984     0.016861428   -0.55135989     0.00357653   
    222000   0.024070626   -0.60542078     0.016873958   -0.55244554     0.00096351088
    223000   0.023684624   -0.60685574     0.016869338   -0.55446405     0.0019097738 
    224000   0.024447999   -0.61211207     0.016846356   -0.55859845     0.0019418132 
    225000   0.024139355   -0.613013       0.016675545   -0.56013309     0.0024337182 
    226000   0.024180379   -0.61506198     0.017390935   -0.56140516    -0.00083822025
    227000   0.024377803   -0.61841701     0.017158968   -0.56469606     0.00092150812
    228000   0.024255678   -0.61953061     0.016879531   -0.56627226     0.0034917729 
    229000   0.024627775   -0.62272592     0.017793336   -0.56799568    -0.0049229745 
    230000   0.024993671   -0.62444031     0.017824248   -0.5691304      0.0082411685 
    231000   0.024882523   -0.6267262      0.017664799   -0.57174243     0.0033127881 
    232000   0.024439243   -0.63077527     0.017005118   -0.57711602    -0.00066585873
    233000   0.024515555   -0.6283599      0.017349121   -0.57424219     0.0043258725 
    234000   0.025258963   -0.63451534     0.017276071   -0.57935572     0.0018420825 
    235000   0.02524582    -0.63375774     0.017950524   -0.57794338     0.0047406574 
    236000   0.024880981   -0.63471162     0.017230631   -0.58016433     0.0020656868 
    237000   0.025709227   -0.63795383     0.017828854   -0.58156611    -0.00010089298
    238000   0.025501669   -0.63766618     0.017290182   -0.58212843     0.0087894333 
    239000   0.025580557   -0.64225491     0.017988526   -0.5859005      0.0042541023 
    240000   0.025602444   -0.63990432     0.018107865   -0.58339775     0.0027847243 
    241000   0.025653615   -0.64352086     0.018144152   -0.58690125     0.00087166402
    242000   0.025310266   -0.64492223     0.018075034   -0.58888669    -0.0015354408 
    243000   0.026339309   -0.64600956     0.018072412   -0.58843328     0.0045581304 
    244000   0.026284459   -0.65000625     0.018582221   -0.59200243     0.0050616103 
    245000   0.026214868   -0.65037088     0.018627651   -0.592426      -0.0013543316 
    246000   0.025854352   -0.651221       0.018113719   -0.59433076     0.00099420669
    247000   0.026219842   -0.65481962     0.018529571   -0.59696536     0.0022080656 
    248000   0.026242148   -0.65685785     0.018430839   -0.59906887     0.007483063  
    249000   0.026465616   -0.65941176     0.018372909   -0.60134555     0.00028493432
    250000   0.026436619   -0.66258404     0.018787229   -0.604147      -0.0013717373 
    251000   0.027182125   -0.66447867     0.019069259   -0.60464148    -0.0012608995 
    252000   0.026853492   -0.66314653     0.018867419   -0.60400408     0.0056860161 
    253000   0.026766896   -0.66517278     0.01888008    -0.60614754    -0.0017114041 
    254000   0.026528792   -0.66835279     0.018346787   -0.61021795    -0.00187504   
    255000   0.026580362   -0.67277398     0.018895784   -0.6140128      0.00065458078
    256000   0.02684828    -0.66960012     0.019065961   -0.61026693     0.0079281241 
    257000   0.02749989    -0.67148517     0.019160907   -0.61107975     0.0013990359 
    258000   0.026700693   -0.67349361     0.019024294   -0.61442344     0.0019818031 
    259000   0.027404333   -0.67557166     0.01935884    -0.61511163    -0.0015464595 
    260000   0.026907812   -0.67682276     0.018875484   -0.61759076     0.011842846  
    261000   0.026979751   -0.67682735     0.019078135   -0.61728481     0.0096945937 
    262000   0.027696784   -0.68197976     0.019495771   -0.62094418     0.0036332514 
    263000   0.028029297   -0.68049865     0.019556228   -0.6189039      0.0091834339 
    264000   0.028517139   -0.68683161     0.020389378   -0.62367204     0.0060029737 
    265000   0.028561781   -0.68438386     0.020378315   -0.62116841     0.01239122   
    266000   0.028068154   -0.68419134     0.019821791   -0.62227275     0.0044325746 
    267000   0.028565497   -0.68874655     0.02028123    -0.6256226     -0.00096232439
    268000   0.028381568   -0.68929318     0.019966588   -0.62675973     0.0072786343 
    269000   0.028498668   -0.68989374     0.020020071   -0.62713118     0.0055386778 
    270000   0.027928359   -0.6895161      0.020318861   -0.62731011     0.0059852785 
    271000   0.028702839   -0.69447799     0.020690318   -0.63073897     0.0071034709 
    272000   0.028601931   -0.69461725     0.020053549   -0.63166634     0.0065978233 
    273000   0.028529421   -0.6981507      0.020004698   -0.63535739     0.0080099652 
    274000   0.028934382   -0.69790779     0.020595354   -0.63391646     0.0034253941 
    275000   0.029743865   -0.69865669     0.020631874   -0.63341477     0.0024150668 
    276000   0.029116076   -0.69875359     0.020463712   -0.6346214      0.0021076852 
    277000   0.029023534   -0.69950406     0.020845963   -0.63512841     0.0016450228 
    278000   0.028699373   -0.70193034     0.020677929   -0.63820891     0.00092267146
    279000   0.029793338   -0.70294517     0.021947892   -0.63631303     0.00093790463
    280000   0.030080975   -0.70417177     0.021503801   -0.63755233    -0.0020325383 
    281000   0.03041851    -0.70486781     0.02165657    -0.63758936     0.0077320187 
    282000   0.030662254   -0.70560001     0.022312041   -0.63730053     0.0064466733 
    283000   0.030727962   -0.70846159     0.022114307   -0.64026129     0.012328699  
    284000   0.030146438   -0.71615962     0.021562245   -0.64938356     0.00045079028
    285000   0.0308813     -0.71191305     0.022025478   -0.6435716      0.0053581883 
    286000   0.030238699   -0.71277745     0.021090867   -0.64633439     0.0010126048 
    287000   0.030683304   -0.71527419     0.02195708    -0.64729809     0.0029798529 
    288000   0.031135003   -0.72062607     0.022691624   -0.65123797    -0.0020754043 
    289000   0.031423651   -0.72165749     0.022002648   -0.65252545     0.001598493  
    290000   0.031476425   -0.71804558     0.022596761   -0.64824028    -0.0057617103 
    291000   0.031667926   -0.72632378     0.022531652   -0.65629637    -0.00040763843
    292000   0.031702543   -0.72661398     0.022544418   -0.65652188    -0.0024118911 
    293000   0.031290499   -0.72616747     0.02236143    -0.65687635     0.0045089336 
    294000   0.031533147   -0.72672783     0.023004974   -0.65642924     0.00086610226
    295000   0.032018977   -0.73238931     0.022737211   -0.66162983     0.0062879587 
    296000   0.031559216   -0.73072981     0.022565202   -0.66083189     0.0061449355 
    297000   0.031315817   -0.73493882     0.022382831   -0.66558833     0.0034878139 
    298000   0.031415756   -0.73438703     0.022381994   -0.66488748    -0.00012603786
    299000   0.03146433    -0.73921307     0.022476778   -0.66954589    -0.0032224072 
    300000   0.031932233   -0.73739698     0.023263849   -0.66624097     0.0072788611 
    301000   0.032057663   -0.74226636     0.02354381    -0.67064226     0.0026611609 
    302000   0.032104248   -0.73756402     0.022698822   -0.66671504     0.0022011919 
    303000   0.031971614   -0.73839896     0.023019282   -0.66742844    -0.00059441654
    304000   0.032134209   -0.74261565     0.02303393    -0.67138663     0.0029384392 
    305000   0.032377271   -0.74170707     0.022411404   -0.67073602     0.003936103  
    306000   0.032674889   -0.74598618     0.022989421   -0.67399075     0.0059730687 
    307000   0.033316519   -0.74646739     0.023267375   -0.67323169     0.0083699332 
    308000   0.033477232   -0.74880125     0.023675588   -0.67491629     0.0013535143 
    309000   0.032890124   -0.74915175     0.02331507    -0.67650786    -0.0028613391 
    310000   0.033213374   -0.74935149     0.023775861   -0.67576199     0.0062726308 
    311000   0.033231415   -0.75182706     0.023934834   -0.67805154     0.0005843603 
    312000   0.034005962   -0.74909556     0.024174259   -0.67391894     0.0071561546 
    313000   0.033622188   -0.75409928     0.023760823   -0.67991168     0.0016503885 
    314000   0.033742232   -0.75446767     0.024096069   -0.67976479     0.004332998  
    315000   0.033870625   -0.75490406     0.02382595    -0.68027873    -0.0033735674 
    316000   0.034306287   -0.75714596     0.024911739   -0.68078143     0.0051653406 
    317000   0.034597813   -0.7580958      0.0245978     -0.68160798    -0.0002398456 
    318000   0.034323793   -0.76293103     0.024042555   -0.68740943     0.0062179167 
    319000   0.034746521   -0.76509995     0.024919608   -0.68806729     0.0050328819 
    320000   0.03420238    -0.76591055     0.025141722   -0.68947188     0.0093731925 
    321000   0.03386576    -0.76794378     0.025138993   -0.6920127      0.007272702  
    322000   0.034476909   -0.76735022     0.024528357   -0.69111317     0.0029551614 
    323000   0.034994754   -0.77158568     0.025314675   -0.69378565     0.0070557794 
    324000   0.034744028   -0.76869112     0.024685328   -0.69189647     0.0087146033 
    325000   0.035329249   -0.76882255     0.024992612   -0.6908429      0.0038252555 
    326000   0.035454953   -0.76915611     0.025791374   -0.69018917     0.00029044809
    327000   0.035015235   -0.77114893     0.024961597   -0.69367126     0.0071819299 
    328000   0.034678912   -0.77354434     0.024443706   -0.69708898     0.0012848462 
    329000   0.034630303   -0.77307171     0.024849174   -0.69628379    -0.0023854386 
    330000   0.034814362   -0.77368328     0.025357389   -0.69611109     0.0050011313 
    331000   0.03517691    -0.77703103     0.025578192   -0.69869428    -0.00058621407
    332000   0.0353929     -0.77959779     0.025516697   -0.7009986      0.00075075608
    333000   0.035383723   -0.78378484     0.025355092   -0.70536101     0.0015484511 
    334000   0.035529848   -0.78417698     0.02519322    -0.70569587     0.0036780449 
    335000   0.035233798   -0.78168789     0.025651025   -0.70319299     0.0070591799 
    336000   0.037024555   -0.77904056     0.026143158   -0.69736774    -0.0003681402 
    337000   0.036515786   -0.78855281     0.026087747   -0.70769845     0.0073253938 
    338000   0.036411613   -0.78828595     0.027109297   -0.70656628     0.004164211  
    339000   0.037353099   -0.78542554     0.026182329   -0.70322079     0.0019893536 
    340000   0.036808785   -0.78650195     0.026481893   -0.704814       0.0062044127 
    341000   0.037196145   -0.79242899     0.027012886   -0.70962909     0.0042386736 
    342000   0.036740991   -0.79353117     0.027187675   -0.71123912     0.0022564338 
    343000   0.037204308   -0.78954667     0.026853122   -0.70689429    -0.00013157604
    344000   0.038135488   -0.79092713     0.027825753   -0.70590553     0.013029636  
    345000   0.038553728   -0.79039697     0.028538634   -0.7040352     -0.00072056698
    346000   0.038005213   -0.79213042     0.02715721    -0.70797275     0.00083714162
    347000   0.038099443   -0.79850774     0.027597631   -0.71376832     0.0082024707 
    348000   0.037655485   -0.7953833      0.02741303    -0.71149433     0.0015967282 
    349000   0.037443132   -0.80158023     0.027247054   -0.71817573     0.0091560889 
    350000   0.037719698   -0.80213903     0.027009435   -0.71855735     0.0045772155 
    351000   0.038058405   -0.79962484     0.027317379   -0.71522722     0.0036702895 
    352000   0.038044762   -0.80311816     0.028393492   -0.71766489    -0.00039723052
    353000   0.038531998   -0.80320959     0.027974211   -0.71744484     0.0097759179 
    354000   0.038925252   -0.81007905     0.027792464   -0.72390625     0.0067662586 
    355000   0.038278721   -0.81028137     0.027901145   -0.72496955     0.0055576592 
    356000   0.039028517   -0.8126592      0.028136803   -0.72598717     0.0048025973 
    357000   0.038844919   -0.8174026      0.027887609   -0.73125513     0.0038198391 
    358000   0.038641019   -0.81125401     0.027514898   -0.72578506     0.0029898329 
    359000   0.03827528    -0.81511752     0.028074628   -0.72963738     0.0048984184 
    360000   0.038715664   -0.81587692     0.028126373   -0.72968455     0.0041876312 
    361000   0.038394021   -0.81584087     0.027769895   -0.73048737     0.0033470563 
    362000   0.038885569   -0.81885952     0.028432442   -0.73210625     0.0084511035 
    363000   0.039155186   -0.81963232     0.028906246   -0.73200087     0.0057357754 
    364000   0.03957494    -0.82072735     0.028069031   -0.73330357     0.005876317  
    365000   0.039436971   -0.81966217     0.02898548    -0.73152886    -0.00053722687
    366000   0.040078295   -0.8195278      0.029283453   -0.73013466    -0.0015977525 
    367000   0.039500336   -0.81990021     0.029712942   -0.73094441     0.0024006956 
    368000   0.039481709   -0.82633372     0.028510324   -0.73860848    -0.002174902  
    369000   0.03924924    -0.82612711     0.02824729    -0.73901356    -0.0023517021 
    370000   0.039541308   -0.82804664     0.029019101   -0.73972323     0.0053322964 
    371000   0.040320006   -0.8291671      0.02948591    -0.73920899    -0.0031224124 
    372000   0.041078481   -0.82575898     0.029754985   -0.73439422    -0.0054106835 
    373000   0.041054991   -0.82842976     0.029935054   -0.73692016     0.0056503651 
    374000   0.040136834   -0.82915044     0.02985482    -0.73909814     0.0040575755 
    375000   0.04059866    -0.83017324     0.030389755   -0.73889335    -0.0014521963 
    376000   0.039982739   -0.83032726     0.030012942   -0.74034795     0.0029057886 
    377000   0.040542164   -0.83181958     0.029896106   -0.74111807     0.0018068149 
    378000   0.040631733   -0.82658767     0.030589943   -0.73505799    -0.0033458125 
    379000   0.040756782   -0.82876649     0.030080517   -0.73755869    -0.0051505894 
    380000   0.041534755   -0.83442336     0.030484968   -0.74164429     0.0024369273 
    381000   0.040722247   -0.83343895     0.030614866   -0.7417486     -0.0028186014 
    382000   0.04184876    -0.83147174     0.030968738   -0.73773796    -0.00038369072
    383000   0.041264809   -0.84119654     0.030786807   -0.74852051     0.007416405  
    384000   0.041457754   -0.84293739     0.030931942   -0.74982684     0.00095674897
    385000   0.042355024   -0.84447535     0.030230993   -0.75072002    -0.0010256442 
    386000   0.04199069    -0.84606806     0.030947363   -0.75214279    -0.0045092185 
    387000   0.041851258   -0.8463192      0.030732301   -0.75281812     0.0043215337 
    388000   0.04160242    -0.84880505     0.030679204   -0.75573027    -0.0035292005 
    389000   0.041148105   -0.84453283     0.030225608   -0.75259303     0.0024356439 
    390000   0.041704883   -0.85279033     0.030523197   -0.75971789    -5.9553039e-05
    391000   0.042356771   -0.84857287     0.032755767   -0.75229014     0.0017879762 
    392000   0.043840385   -0.85316333     0.032280044   -0.7551312      0.00096610729
    393000   0.043195647   -0.85530034     0.032974159   -0.75754107     0.002512164  
    394000   0.043198574   -0.84888176     0.032121399   -0.75197086     0.00978995   
    395000   0.04284359    -0.85308327     0.032576492   -0.75624969    -0.001386856  
    396000   0.042695345   -0.85930242     0.031748011   -0.76351966     0.012260341  
    397000   0.04312562    -0.8571435      0.031839562   -0.76062386     0.0026154116 
    398000   0.042447317   -0.86158681     0.031235142   -0.76668891     0.0092951587 
    399000   0.042764608   -0.85997693     0.032305775   -0.76353252     0.014603018  
    400000   0.042661868   -0.86632416     0.032684768   -0.76965484     0.0030577829 
    401000   0.043074299   -0.85975426     0.032769376   -0.76238177    -0.0019286554 
    402000   0.043283962   -0.86234389     0.031952876   -0.76547345     0.0045304344 
    403000   0.043267031   -0.86061221     0.03328923    -0.76243081     0.0040574915 
    404000   0.04333734    -0.86284812     0.03338272    -0.76446778    -0.0051468606 
    405000   0.04386016    -0.86828149     0.032726813   -0.76977293    -0.0039687542 
    406000   0.04301817    -0.8653403      0.033141994   -0.76767938    -0.0082337979 
    407000   0.042991762   -0.85927871     0.033232167   -0.76156722     0.00049090126
    408000   0.04335834    -0.86479952     0.033538306   -0.76623209    -0.0075391793 
    409000   0.043997285   -0.86721321     0.033173715   -0.76805208     0.001353112  
    410000   0.043353894   -0.86849323     0.033221083   -0.7702497      0.0032409018 
    411000   0.044623712   -0.86968907     0.034766235   -0.76799591     0.011078329  
    412000   0.04502802    -0.86742875     0.034466097   -0.76542934     0.00034429233
    413000   0.045407713   -0.87193838     0.034838951   -0.76899664    -0.0070910014 
    414000   0.044555108   -0.87325292     0.035353746   -0.77107513    -0.0080747958 
    415000   0.044977759   -0.87663398     0.034767248   -0.7744088     -0.0024082971 
    416000   0.04496394    -0.87698684     0.034909606   -0.77464002     0.0041930135 
    417000   0.044945436   -0.87560895     0.03501322    -0.77318627     0.0071968274 
    418000   0.04504664    -0.87814863     0.035389894   -0.77519749     0.0041473563 
    419000   0.044166863   -0.88249283     0.034981649   -0.78126943    -0.0052770633 
    420000   0.044900463   -0.87656194     0.034370423   -0.77484951     0.0081299859 
    421000   0.04505736    -0.88004835     0.03415166    -0.77831937    -0.00033532375
    422000   0.044813101   -0.88640705     0.034966195   -0.78422988    -0.0021535229 
    423000   0.045059602   -0.87961607     0.034554151   -0.77748124    -0.0016551271 
    424000   0.044970434   -0.88383813     0.035034168   -0.78135702     0.002707621  
    425000   0.045089399   -0.88393106     0.03607793    -0.78022776    -0.0047774916 
    426000   0.045188122   -0.88543713     0.03632129    -0.7813424      0.011880893  
    427000   0.045224727   -0.88641597     0.036179881   -0.78240775    -0.0016600049 
    428000   0.045785416   -0.88740193     0.036051967   -0.7826807      0.0022009501 
    429000   0.046425681   -0.89048722     0.036692185   -0.7841655      0.00050815849
    430000   0.046341621   -0.8878039      0.036352148   -0.78194828     0.0032655168 
    431000   0.04568115    -0.89191051     0.036839829   -0.7865578      0.011768292  
    432000   0.046255806   -0.89211477     0.036367233   -0.78637278    -0.0010957434 
    433000   0.04588171    -0.89417904     0.036431181   -0.78893418     0.0020096178 
    434000   0.046182958   -0.89276791     0.037027385   -0.78647503    -0.0055653096 
    435000   0.046911021   -0.89200312     0.037286604   -0.78435906    -0.0073236251 
    436000   0.047034987   -0.89288336     0.038108999   -0.78423098    -0.009433044  
    437000   0.047596413   -0.89866321     0.038884161   -0.78839364    -0.0037139284 
    438000   0.047281752   -0.89391767     0.037109699   -0.7858945     -0.0051311742 
    439000   0.047548302   -0.89393687     0.038706459   -0.78391716    -0.0020204408 
    440000   0.047668181   -0.89893842     0.039798334   -0.78764704    -0.014387414  
    441000   0.048025533   -0.90163833     0.039903236   -0.78970609    -0.0025695532 
    442000   0.048494232   -0.90667624     0.039451609   -0.79449267    -0.0013098332 
    443000   0.048006823   -0.90216209     0.03902193    -0.79113922    -0.0011936874 
    444000   0.047818995   -0.90658592     0.039666859   -0.79519982    -0.011380353  
    445000   0.047866553   -0.9062814      0.03987762    -0.79461321    -0.011071459  
    446000   0.048626806   -0.90501746     0.039213027   -0.79287364    -0.0067371755 
    447000   0.048303317   -0.90929158     0.039122129   -0.79772382    -0.0052562817 
    448000   0.048050702   -0.91325708     0.039373313   -0.80181702    -0.0021242503 
    449000   0.049768612   -0.90909221     0.039111654   -0.79533727    -0.011581159  
    450000   0.049082886   -0.91138496     0.040972654   -0.79679747    -0.012575427  
    451000   0.049319728   -0.90824809     0.039917944   -0.7943601      0.0026723366 
    452000   0.047769397   -0.91382062     0.03955752    -0.80261825    -0.0054532539 
    453000   0.048681697   -0.91112376     0.039843179   -0.79826746    -0.013981767  
    454000   0.049136357   -0.91718538     0.040500143   -0.80299021    -0.00047928234
    455000   0.049773901   -0.91870304     0.040314726   -0.80373709    -0.0054815443 
    456000   0.050147976   -0.91580443     0.041906672   -0.7986855     -0.013347432  
    457000   0.048963909   -0.91957853     0.04193812    -0.80420402    -0.020734945  
    458000   0.050217609   -0.92467392     0.041230956   -0.80812627    -0.0084851896 
    459000   0.049253956   -0.91231945     0.041471845   -0.7969762     -9.6345239e-05
    460000   0.049636684   -0.92140266     0.042379525   -0.80457771    -0.012072887  
    461000   0.050374921   -0.92110019     0.042251771   -0.80329579    -0.010966213  
    462000   0.050486665   -0.92527502     0.042238067   -0.80731673    -0.004647505  
    463000   0.050030569   -0.92499771     0.042051432   -0.80791011    -0.00660428   
    464000   0.049955246   -0.91993247     0.041991711   -0.80301756    -0.0055327092 
    465000   0.050968746   -0.92563565     0.042069447   -0.80712295     0.0059625019 
    466000   0.051182766   -0.92593646     0.042592184   -0.80658004    -0.00069370528
    467000   0.051670166   -0.92970032     0.043366022   -0.80883905    -0.004288292  
    468000   0.050200887   -0.92704527     0.043420991   -0.80833267     0.0053528723 
    469000   0.051012444   -0.93237653     0.043417582   -0.81245015    -0.01087348   
    470000   0.051054781   -0.93614576     0.044369708   -0.81520377    -0.0034773967 
    471000   0.050440326   -0.94010992     0.044671295   -0.8197879     -0.0083600089 
    472000   0.050565679   -0.93582463     0.043654669   -0.81633122     0.0009240416 
    473000   0.051782079   -0.93158999     0.044100603   -0.80982629     0.0023091594 
    474000   0.051906857   -0.93717442     0.045317848   -0.81400633    -0.0030314913 
    475000   0.051686629   -0.93403282     0.044874085   -0.81163879     0.00057907801
    476000   0.051391724   -0.93391954     0.044181926   -0.81265998    -0.0070269755 
    477000   0.05113194    -0.93905627     0.04516775    -0.81720051    -0.0086061368 
    478000   0.050965363   -0.93922919     0.045879751   -0.81691126    -0.0042207772 
    479000   0.051543573   -0.94399359     0.04342044    -0.82326777     0.0046932173 
    480000   0.052941962   -0.94173588     0.044424511   -0.81790867    -0.0027135346 
    481000   0.051237586   -0.94446058     0.045269463   -0.82234465    -0.0093516655 
    482000   0.052404373   -0.95243548     0.044442091   -0.82939697     0.0088934225 
    483000   0.052173618   -0.94484668     0.044861583   -0.82173477    -0.0011101136 
    484000   0.05198356    -0.94310632     0.044634539   -0.8205065      0.0067825832 
    485000   0.052864581   -0.94857264     0.045781632   -0.82350437    -0.0064246582 
    486000   0.05337483    -0.94746377     0.045051436   -0.82236042    -0.002200824  
    487000   0.053112849   -0.94866264     0.045416433   -0.82358721     0.0087406895 
    488000   0.054352556   -0.95368889     0.045669579   -0.82650099     0.0042985305 
    489000   0.053470031   -0.95275123     0.046378216   -0.82617831    -0.005462159  
    490000   0.052426814   -0.95842557     0.04673809    -0.83305741    -0.00035972413
    491000   0.052830097   -0.95316664     0.046852773   -0.82707894    -0.0090066488 
    492000   0.052872318   -0.95733648     0.047350332   -0.83068791     0.0030575311 
    493000   0.053799647   -0.95305367     0.048004387   -0.82436023     0.013299348  
    494000   0.053236132   -0.95368976     0.048154117   -0.82569175     0.002945596  
    495000   0.053006914   -0.95183873     0.047851499   -0.82448712     0.0045236069 
    496000   0.05380396    -0.95597752     0.049264322   -0.82601767     0.00071748923
    497000   0.054412397   -0.96371337     0.048075668   -0.83402964    -8.5451999e-05
    498000   0.053632188   -0.95964227     0.047829565   -0.8313748     -0.0037369025 
    499000   0.05431019    -0.96178219     0.047208111   -0.83311931    -0.0015345207 
    500000   0.054780415   -0.9643175      0.048807845   -0.83334963     0.0097681013 
Loop time of 418.955 on 8 procs for 500000 steps with 7750 atoms

Performance: 103113.787 tau/day, 1193.447 timesteps/s, 9.249 Matom-step/s
92.8% CPU use with 8 MPI tasks x 1 OpenMP threads

MPI task timing breakdown:
Section |  min time  |  avg time  |  max time  |%varavg| %total
---------------------------------------------------------------
Pair    | 85.273     | 97.936     | 112.17     |  92.7 | 23.38
Bond    | 19.377     | 20.989     | 22.633     |  21.8 |  5.01
Neigh   | 0.9039     | 0.90453    | 0.90515    |   0.0 |  0.22
Comm    | 45.181     | 60.833     | 74.703     | 127.8 | 14.52
Output  | 5.7547     | 5.8364     | 5.9029     |   1.9 |  1.39
Modify  | 228.14     | 228.81     | 229.32     |   2.7 | 54.61
Other   |            | 3.645      |            |       |  0.87

Nlocal:         968.75 ave        1450 max         741 min
Histogram: 3 1 1 0 1 1 0 0 0 1
Nghost:        1373.62 ave        1658 max        1125 min
Histogram: 1 1 1 0 1 2 0 0 1 1
Neighs:              0 ave           0 max           0 min
Histogram: 8 0 0 0 0 0 0 0 0 0
FullNghs:      36432.2 ave       61602 max       18501 min
Histogram: 2 0 2 1 0 0 1 1 0 1

Total # of neighbors = 291458
Ave neighs/atom = 37.607484
Ave special neighs/atom = 2.1612903
Neighbor list builds = 556
Dangerous builds = 0

unfix ThermoLng

# Now we let the system to create the polymeric network
fix ThermoLng all langevin ${temp} ${temp} ${damp} ${seed3} # Brownian Dynamics: langevin + nve
fix ThermoLng all langevin 0.05 ${temp} ${damp} ${seed3} 
fix ThermoLng all langevin 0.05 0.05 ${damp} ${seed3} 
fix ThermoLng all langevin 0.05 0.05 1 ${seed3} 
fix ThermoLng all langevin 0.05 0.05 1 2010 
run ${steps}
run 8000000
WARNING: Using a manybody potential with bonds/angles/dihedrals and special_bond exclusions (src/pair.cpp:250)
Hybrid pair style last /omp style table/omp
Last active /omp style is angle_style harmonic/omp
Per MPI rank memory allocation (min/avg/max) = 23.86 | 23.87 | 23.89 Mbytes
   Step          Temp          E_pair         E_mol          TotEng         Press     
    500000   0.054780415   -0.9643175      0.048807845   -0.83334963     0.0073066217 
    501000   0.053897637   -0.96989085     0.048976952   -0.84007788     0.0070533674 
    502000   0.053966384   -0.96546303     0.049104376   -0.83541952    -0.0038303624 
    503000   0.054112838   -0.96356199     0.049636222   -0.83276698     0.0055841513 
    504000   0.054748569   -0.9633325      0.049467875   -0.83175236     0.0047642556 
    505000   0.054784562   -0.96854526     0.049476044   -0.83690297    -0.0050869036 
    506000   0.053816963   -0.97152042     0.048964629   -0.84184076    -0.0088193028 
    507000   0.05440126    -0.96639734     0.049196848   -0.83560913    -0.0064724132 
    508000   0.054430397   -0.96683082     0.050763731   -0.83443203    -0.0056422014 
    509000   0.053711378   -0.96528812     0.048888727   -0.83584272     0.0010776957 
    510000   0.054286969   -0.96496831     0.048651671   -0.83489669     0.0070453917 
    511000   0.054201725   -0.97219541     0.050035988   -0.84086733    -0.0039114525 
    512000   0.054552513   -0.97110023     0.049349439   -0.83993258    -0.0077555756 
    513000   0.055202403   -0.96859542     0.048489744   -0.83731276     0.0025950133 
    514000   0.053230269   -0.96081062     0.04971727    -0.83125825    -0.0024746547 
    515000   0.054655936   -0.97501323     0.050201908   -0.842838      -0.0018139427 
    516000   0.054529472   -0.9722031      0.049059278   -0.84136017     0.0076686313 
    517000   0.054041777   -0.96239712     0.049641504   -0.83170341     0.0024435526 
    518000   0.054273168   -0.97520591     0.050106868   -0.84369979     0.00941745   
    519000   0.054512627   -0.97107604     0.050572422   -0.83874523     0.00038026482
    520000   0.053887829   -0.9732284      0.05092223    -0.84148485    -0.012488639  
    521000   0.055723431   -0.97168422     0.052054984   -0.83605487    -0.0025188166 
    522000   0.055543143   -0.97653542     0.051445516   -0.84178594    -0.00084315953
    523000   0.054277596   -0.97262697     0.050336826   -0.84088426     0.007568896  
    524000   0.055691251   -0.98047939     0.05047126    -0.84648203    -0.014573713  
    525000   0.054654885   -0.98224523     0.051241761   -0.84903172    -0.0089115488 
    526000   0.054224995   -0.98190792     0.050353232   -0.85022769    -0.010845411  
    527000   0.053764979   -0.98090939     0.051071151   -0.84920118     0.0034301505 
    528000   0.05443695    -0.9850752      0.051425282   -0.85200503    -0.00049124533
    529000   0.053572739   -0.98427662     0.052466747   -0.85146114     0.014114798  
    530000   0.054502169   -0.98803846     0.052106034   -0.85418972     0.0042884177 
    531000   0.05489759    -0.98917193     0.052020973   -0.85481519    -0.0049411782 
    532000   0.053970292   -0.99051309     0.051524581   -0.85804352    -0.0074348434 
    533000   0.05425957    -0.98683211     0.05306639    -0.85238687     0.0040236287 
    534000   0.055424344   -0.98513629     0.051802964   -0.85020754    -0.0094797151 
    535000   0.054728145   -0.98360583     0.052455021   -0.84906919    -0.031565073  
    536000   0.05426466    -0.99126672     0.05299849    -0.85688175    -0.0066351145 
    537000   0.05489561    -0.99203537     0.053653029   -0.85604955    -0.0041756778 
    538000   0.055166804   -0.98446775     0.05353603    -0.84819219    -0.0083560349 
    539000   0.054972465   -0.9945207      0.052312296   -0.85976034    -0.0059981489 
    540000   0.053856242   -0.98916453     0.052783696   -0.85560689    -0.0018593392 
    541000   0.053331186   -0.99561064     0.052496299   -0.86312788     0.0084593668 
    542000   0.054100906   -0.99775787     0.052690953   -0.86392603    -0.0014523878 
    543000   0.054335987   -0.99663679     0.053011974   -0.86213135    -0.002281208  
    544000   0.053867989   -0.99627497     0.052624952   -0.86285846     0.0018985004 
    545000   0.054186984   -0.98817483     0.051797461   -0.85510738     0.012023416  
    546000   0.053906721   -0.98298848     0.052900625   -0.84923821    -0.0049771243 
    547000   0.054175494   -0.98455107     0.052513791   -0.85078452    -0.0028679141 
    548000   0.05409257    -0.99542934     0.053448475   -0.86085248    -0.0067033622 
    549000   0.054945178   -0.99296692     0.052217181   -0.8583426      0.0014726816 
    550000   0.053514738   -0.99199701     0.053942018   -0.85779325     0.015170275  
    551000   0.055270827   -0.99529469     0.053019431   -0.85937972     0.012446787  
    552000   0.055008191   -0.99861546     0.05436964    -0.86174418     0.0090195537 
    553000   0.05491307    -1.0012579      0.05367933    -0.86521962    -0.0059829668 
    554000   0.054163883   -1.0022569      0.054633486   -0.86638809    -0.0077067906 
    555000   0.053346763   -0.99760212     0.053378065   -0.86421424     0.0098959801 
    556000   0.053818906   -1.0069881      0.053941988   -0.87232814    -0.0021628966 
    557000   0.054398498   -1.0036208      0.054325876   -0.86770773     0.0062530978 
    558000   0.054584758   -1.0047171      0.052933206   -0.86991728    -0.0012313367 
    559000   0.054283854   -1.0029452      0.054314276   -0.86721564     0.0027776332 
    560000   0.054126128   -1.0042746      0.054549563   -0.86854633     0.0075220509 
    561000   0.053992286   -1.0068223      0.054956179   -0.87088812    -0.0094281916 
    562000   0.054618873   -1.0079204      0.054670173   -0.87133249     0.004257398  
    563000   0.054410845   -1.0005886      0.054673719   -0.86430916     0.014830639  
    564000   0.054080237   -1.0076896      0.054873702   -0.87170605    -0.0035481596 
    565000   0.054024231   -1.0032028      0.055469542   -0.86670736    -0.0027703556 
    566000   0.054762358   -1.0059141      0.055572277   -0.86820888    -0.0022153937 
    567000   0.053748808   -1.0075123      0.055303454   -0.87159607     0.0025775361 
    568000   0.054663008   -1.0061703      0.056018889   -0.8681675      0.015083556  
    569000   0.054911153   -1.0077341      0.056270779   -0.86910725     0.014021497  
    570000   0.054562843   -1.0050604      0.056800824   -0.86642583     0.0011225424 
    571000   0.054881235   -1.0017183      0.056067957   -0.86333916     0.0026668005 
    572000   0.055229915   -1.0066223      0.056771265   -0.86701687    -0.000216467  
    573000   0.054957126   -1.0074606      0.055917268   -0.8691183      0.001079009  
    574000   0.055222614   -1.0026863      0.05581082    -0.86405225    -0.002439948  
    575000   0.054253508   -1.0127241      0.058330002   -0.87302431    -0.0097110361 
    576000   0.054639076   -1.0106671      0.057176017   -0.87154301    -0.00018502803
    577000   0.055428409   -1.0099639      0.058074594   -0.86875747    -0.0029431492 
    578000   0.055371465   -1.0062165      0.057090356   -0.86607964     0.0035856415 
    579000   0.054652332   -1.0089586      0.055661824   -0.87132889    -0.0061417238 
    580000   0.054270534   -1.0086609      0.056409119   -0.87085647    -0.010866125  
    581000   0.054914161   -1.0071475      0.058426071   -0.86636087     0.01342166   
    582000   0.055014545   -1.0075296      0.058445564   -0.86657291    -0.0053863951 
    583000   0.05506175    -1.0183521      0.058795808   -0.87697433     0.0075101165 
    584000   0.054829468   -1.0094451      0.059375592   -0.86783587     0.007177131  
    585000   0.054507043   -1.0055335      0.058357418   -0.86542611     0.0055593838 
    586000   0.05472322    -1.0134745      0.059844775   -0.87155553     0.0033297946 
    587000   0.055416846   -1.0130817      0.058871028   -0.87109611     0.011251691  
    588000   0.054919343   -1.0134369      0.059807369   -0.87126114    -0.0041152588 
    589000   0.055043679   -1.0150471      0.060377287   -0.87211499    -0.0068054799 
    590000   0.055307664   -1.01337        0.059801831   -0.87061733     0.0012612746 
    591000   0.055590437   -1.0098381      0.059785188   -0.86667803     0.0022605993 
    592000   0.055726055   -1.0139132      0.058876826   -0.87145806     0.012517012  
    593000   0.054842449   -1.0173733      0.058676255   -0.87644403     0.0063168481 
    594000   0.055703478   -1.0184467      0.061572182   -0.87333012     0.0031404143 
    595000   0.055475531   -1.0116775      0.062371628   -0.86610334     0.007851195  
    596000   0.055880997   -1.0216818      0.060021273   -0.87784985     0.00015772368
    597000   0.054534731   -1.019384       0.060277043   -0.87731543     0.0076908308 
    598000   0.055050841   -1.017574       0.059847205   -0.87516118    -0.00044497227
    599000   0.0552263     -1.0159156      0.059282013   -0.87380482     0.0007873598 
    600000   0.054917557   -1.0319262      0.060343129   -0.8892174     -0.0070063454 
    601000   0.055135816   -1.0213554      0.06101683    -0.87764551    -0.0016250271 
    602000   0.055120025   -1.0207064      0.060993831   -0.87704325    -0.0072200316 
    603000   0.054497212   -1.0208645      0.060189393   -0.87893982    -0.0081597105 
    604000   0.056278074   -1.0241052      0.061899627   -0.87779934     0.0010753942 
    605000   0.055382724   -1.0290442      0.06256158    -0.88341926     0.010881296  
    606000   0.054619477   -1.0218867      0.061751807   -0.87821627     0.02336913   
    607000   0.053908637   -1.0236715      0.063073357   -0.87974565    -0.0020652827 
    608000   0.054154361   -1.0205993      0.061200312   -0.87817794    -0.0014698848 
    609000   0.055242757   -1.02418        0.061551608   -0.87977496     0.006913322  
    610000   0.054787879   -1.0296694      0.062777756   -0.88472046     0.003039107  
    611000   0.05534981    -1.0189377      0.063081704   -0.87284201     0.0054919548 
    612000   0.055726147   -1.0252458      0.062677922   -0.87898943     0.0036910483 
    613000   0.055534583   -1.0340095      0.063529996   -0.8871884      0.00532406   
    614000   0.055928649   -1.0284854      0.062707891   -0.88189539     0.017231472  
    615000   0.05502461    -1.0286513      0.063204367   -0.88292064     0.01203856   
    616000   0.056009536   -1.0277968      0.062919622   -0.88087376     0.006383992  
    617000   0.05619485    -1.0350626      0.064473519   -0.88630769     0.0034866099 
    618000   0.056058606   -1.0280132      0.065457672   -0.87847851     0.018618191  
    619000   0.05579006    -1.0296066      0.064703117   -0.88122917    -0.0036799707 
    620000   0.055119342   -1.0299344      0.06514358    -0.8821225      0.0016042326 
    621000   0.055450105   -1.0370206      0.064816993   -0.88903914    -0.0055086909 
    622000   0.055858696   -1.0337055      0.064640538   -0.88528772     0.0013233219 
    623000   0.055369469   -1.0352361      0.064931056   -0.88726158     0.0011479692 
    624000   0.055781962   -1.0282119      0.06592605    -0.87862369    -0.0075516655 
    625000   0.054650594   -1.0397328      0.064949305   -0.89281818    -0.0043001541 
    626000   0.055419578   -1.0322507      0.064864746   -0.88426727     0.00752158   
    627000   0.054909714   -1.0344211      0.065446298   -0.8866209      0.00013336023
    628000   0.05542868    -1.0326498      0.064337573   -0.88517995    -0.0066702986 
    629000   0.055801882   -1.0308833      0.066825738   -0.8803655     -0.0041592058 
    630000   0.054832924   -1.034999       0.065944628   -0.88681558     0.0053915834 
    631000   0.055073139   -1.034598       0.06571797    -0.88628097     0.0089821536 
    632000   0.054801708   -1.0388563      0.065813297   -0.890851      -0.006639885  
    633000   0.05514727    -1.0317624      0.067677422   -0.88137476    -0.015738046  
    634000   0.05469262    -1.0422328      0.064934868   -0.89526959    -0.010671459  
    635000   0.054203671   -1.0453457      0.06469827    -0.89935241    -0.010019684  
    636000   0.055271345   -1.0356202      0.064810233   -0.88791367    -0.0074223261 
    637000   0.055536957   -1.0482022      0.065559091   -0.89934843     0.0037350544 
    638000   0.055220172   -1.0393763      0.065114589   -0.89144214    -0.012442134  
    639000   0.055738563   -1.035845       0.066854242   -0.88539372    -0.0065021938 
    640000   0.055667373   -1.0425535      0.066913643   -0.89214962    -0.014135478  
    641000   0.056673437   -1.0442861      0.068182761   -0.89110412     0.00054275984
    642000   0.056903669   -1.0420467      0.068532103   -0.88817006    -0.0068748927 
    643000   0.056234316   -1.040391       0.06852708    -0.88752335    -0.0056534101 
    644000   0.055378743   -1.0368152      0.0686281     -0.88512974    -0.0063022558 
    645000   0.055546494   -1.0362316      0.0690227     -0.88389995    -0.013133118  
    646000   0.056293896   -1.0398498      0.067659378   -0.88776046    -0.0033450034 
    647000   0.056269671   -1.0476323      0.069045494   -0.89419318    -0.023443276  
    648000   0.055890222   -1.0416825      0.068578558   -0.8892794      0.0045607797 
    649000   0.056283764   -1.0424349      0.069505979   -0.88851415    -0.02532466   
    650000   0.056264517   -1.0472275      0.068640428   -0.89420115    -0.0044325326 
    651000   0.055715707   -1.0552798      0.069454067   -0.90226299    -0.020098566  
    652000   0.056408697   -1.0510069      0.068152176   -0.89825256    -0.011397853  
    653000   0.05493152    -1.0479421      0.069344253   -0.89621122    -0.021466199  
    654000   0.055956555   -1.054175       0.068819691   -0.90143134     0.012898325  
    655000   0.056007778   -1.0441994      0.068148955   -0.89204966    -0.0067589032 
    656000   0.055418094   -1.0577091      0.066633758   -0.90795894    -0.0061247956 
    657000   0.056404605   -1.0508285      0.065955654   -0.9002769      0.013915183  
    658000   0.056223936   -1.0403925      0.06815604    -0.88791149    -0.0096432558 
    659000   0.056087323   -1.0544651      0.069353414   -0.90099151    -0.0078296573 
    660000   0.056363866   -1.0502427      0.068869142   -0.89683866    -0.013427455  
    661000   0.056283008   -1.0498784      0.0696854     -0.8957794     -0.00060710454
    662000   0.056354783   -1.0490595      0.067196438   -0.89734182     0.0052271181 
    663000   0.054965158   -1.0512632      0.069149843   -0.89967622    -0.010940128  
    664000   0.056383479   -1.0511118      0.067695777   -0.89885175    -0.001168758  
    665000   0.056392253   -1.046258       0.069445023   -0.89223547    -0.0031997542 
    666000   0.056277266   -1.0542377      0.069791348   -0.90004132    -0.0074628385 
    667000   0.056057727   -1.0561683      0.069266313   -0.90282621     0.011480416  
    668000   0.0561845     -1.0515748      0.068943145   -0.89836573    -0.0063122006 
    669000   0.056031565   -1.0502627      0.070572751   -0.89565347    -0.0029020924 
    670000   0.055888218   -1.0589581      0.069267762   -0.90586885    -0.0025011311 
    671000   0.056158626   -1.0575435      0.071119899   -0.90219653    -0.0042394799 
    672000   0.056649758   -1.0574693      0.069551401   -0.90295426    -0.012628017  
    673000   0.05652933    -1.0623524      0.069295083   -0.90827423     0.0090763492 
    674000   0.056156589   -1.0676226      0.070382068   -0.91301648    -0.017187733  
    675000   0.055944261   -1.0561874      0.070707478   -0.90157434    -0.0064043167 
    676000   0.056669315   -1.0490808      0.070344339   -0.89374349    -0.02037707   
    677000   0.055187371   -1.0592502      0.070636591   -0.90584328    -0.0052607271 
    678000   0.056137505   -1.0564688      0.071548016   -0.9007254     -0.028498113  
    679000   0.056553191   -1.0632412      0.07112916    -0.90729315    -0.0045815212 
    680000   0.055806192   -1.0661528      0.071776988   -0.91067734    -0.013716989  
    681000   0.056325635   -1.0651501      0.070318285   -0.91035422    -0.0098564447 
    682000   0.055830503   -1.0606018      0.070251101   -0.90661576    -0.0117366    
    683000   0.055079725   -1.0556689      0.071461066   -0.90159886     0.0058002065 
    684000   0.05633187    -1.0659972      0.071008074   -0.91050222    -0.011775133  
    685000   0.056574625   -1.0606282      0.072237128   -0.90354011     0.0029887661 
    686000   0.055995141   -1.0651754      0.071593735   -0.90959976     0.0043737981 
    687000   0.056786801   -1.0640163      0.07170096    -0.90714614    -0.0074144467 
    688000   0.055980351   -1.064848       0.072892529   -0.90799578     0.020187327  
    689000   0.056045406   -1.0619111      0.072662222   -0.90519157    -0.014503154  
    690000   0.057119833   -1.0661773      0.071457569   -0.90905109     0.0075994948 
    691000   0.056329534   -1.063855       0.073389972   -0.90598165    -0.008644214  
    692000   0.056213378   -1.0575803      0.072071669   -0.90119948    -0.0047860623 
    693000   0.056075975   -1.0597093      0.073214429   -0.90239175    -0.0013057309 
    694000   0.056395027   -1.0570844      0.073060013   -0.89944273    -0.0090763256 
    695000   0.057283025   -1.0706135      0.074059896   -0.91064011     0.0034207561 
    696000   0.056437624   -1.0755081      0.073060364   -0.91780223     0.00091336728
    697000   0.056442644   -1.0688246      0.071145526   -0.91302606    -0.0044380417 
    698000   0.056041936   -1.0723233      0.07419113    -0.9140801     -0.0059077666 
    699000   0.056756986   -1.0635832      0.071182896   -0.90727582    -0.017621888  
    700000   0.055991938   -1.0702709      0.072777074   -0.91351674    -0.014011781  
    701000   0.055545365   -1.0664311      0.072571557   -0.91055226     0.0044481096 
    702000   0.055796798   -1.0615656      0.071652938   -0.90622828    -0.016506314  
    703000   0.055727725   -1.0704104      0.073353721   -0.91347592    -0.00097878105
    704000   0.055443578   -1.0741614      0.072962368   -0.91804441    -0.0018949039 
    705000   0.055903577   -1.0688269      0.07200295    -0.91297945    -0.0048144907 
    706000   0.056228125   -1.0707193      0.071736989   -0.91465103     0.0024019786 
    707000   0.057159069   -1.0754932      0.073306466   -0.91645921     0.0015009602 
    708000   0.056856816   -1.0763144      0.073335048   -0.91770517    -0.009558025  
    709000   0.056337079   -1.0874442      0.075220798   -0.92772869     0.0018306744 
    710000   0.056553492   -1.0613836      0.073306791   -0.90325756     0.0033392463 
    711000   0.056295325   -1.0658879      0.074895244   -0.9065606      0.012805972  
    712000   0.056886152   -1.0641169      0.074896905   -0.90390181    -0.0023807897 
    713000   0.057107621   -1.0785516      0.073573669   -0.9193276     -0.017596544  
    714000   0.055739204   -1.0652529      0.072340346   -0.90931458    -0.0095438111 
    715000   0.05651115    -1.0711973      0.070947851   -0.9154937     -0.0038282373 
    716000   0.055639966   -1.0718944      0.069829661   -0.91861554    -0.0097364518 
    717000   0.055651881   -1.0791219      0.070841527   -0.92481333    -0.011745823  
    718000   0.056310123   -1.0717171      0.070465466   -0.91679731    -0.017480186  
    719000   0.056254227   -1.0758501      0.071813455   -0.9196662     -0.002153446  
    720000   0.056568957   -1.0803663      0.070257896   -0.92526588    -0.015081941  
    721000   0.056556454   -1.0783401      0.070853846   -0.92266254    -0.0052626673 
    722000   0.055859281   -1.0742058      0.072474167   -0.91795356    -0.012894669  
    723000   0.055467269   -1.0807506      0.072125059   -0.92543539    -0.017530785  
    724000   0.057138679   -1.0738124      0.07123304    -0.91688242    -0.013896966  
    725000   0.056715684   -1.0690159      0.072716717   -0.91123668    -0.020561917  
    726000   0.056266089   -1.0789656      0.072616665   -0.92196069    -0.02557694   
    727000   0.056207559   -1.0842803      0.071282018   -0.92869782    -0.012548896  
    728000   0.055242596   -1.0777638      0.07207412    -0.9228365     -0.027679779  
    729000   0.055931835   -1.08026        0.073412963   -0.92296016    -0.005597752  
    730000   0.055768401   -1.0692152      0.073525085   -0.91204832    -0.0033729567 
    731000   0.056555023   -1.0796779      0.07240957    -0.92244676     0.0042425697 
    732000   0.056980005   -1.0861102      0.072537007   -0.92811417    -0.0083112239 
    733000   0.056300581   -1.0728253      0.073900045   -0.91448532    -0.01172256   
    734000   0.05584918    -1.0870391      0.072387772   -0.93088839    -0.017627577  
    735000   0.055566388   -1.0812526      0.072397393   -0.92551637    -0.014238496  
    736000   0.056109      -1.0777477      0.072157956   -0.92143713    -0.007344382  
    737000   0.05621766    -1.0768661      0.073484018   -0.91906647    -0.020787498  
    738000   0.056863259   -1.0810877      0.074898621   -0.92090524    -0.0064845746 
    739000   0.056495982   -1.0819546      0.073012379   -0.92420914    -0.012435158  
    740000   0.055529313   -1.0843579      0.073749822   -0.9273249     -0.0098004181 
    741000   0.056149369   -1.0839166      0.073640022   -0.92606344    -0.01059248   
    742000   0.0557634     -1.0866109      0.073682651   -0.92929396    -0.010069697  
    743000   0.055163883   -1.0831415      0.074162131   -0.92624424    -0.0052768202 
    744000   0.054636305   -1.0759592      0.073828607   -0.92018672    -0.0048382182 
    745000   0.055662389   -1.0807586      0.074829562   -0.92244623    -0.019049007  
    746000   0.056484334   -1.0841288      0.073633417   -0.92577985    -0.0060713564 
    747000   0.056267452   -1.0931394      0.074117805   -0.93463132    -0.002832267  
    748000   0.055183181   -1.0856643      0.074187411   -0.92871279    -0.0099340039 
    749000   0.05701067    -1.084855       0.074036837   -0.92531321     0.0068935294 
    750000   0.056224396   -1.085585       0.073765354   -0.92749389    -0.015482397  
    751000   0.056563917   -1.079935       0.074729118   -0.92037093    -0.00040246231
    752000   0.056536894   -1.0722372      0.075355993   -0.91208684    -0.013485241  
    753000   0.056185252   -1.079048       0.073778819   -0.92100217    -0.0036251224 
    754000   0.056615011   -1.0896226      0.075170599   -0.92954041    -0.0058954196 
    755000   0.057415889   -1.091305       0.074396328   -0.93079591     0.0026837351 
    756000   0.05618381    -1.0857886      0.075526653   -0.92599712     0.0037680626 
    757000   0.055517524   -1.0850412      0.074341149   -0.92743448    -0.015075425  
    758000   0.056772969   -1.0814298      0.072434909   -0.92384643    -0.0027672401 
    759000   0.056766727   -1.0874111      0.073109167   -0.92916282    -0.022801689  
    760000   0.055599252   -1.0834099      0.075421365   -0.92460044    -0.022884021  
    761000   0.056466854   -1.0868834      0.072614842   -0.92957925    -0.013794197  
    762000   0.056544659   -1.0805076      0.073415117   -0.92228639    -0.011243039  
    763000   0.056157036   -1.0857646      0.072405513   -0.92913437    -0.0024262268 
    764000   0.055649167   -1.0879712      0.073579081   -0.93092915    -0.019458985  
    765000   0.056212007   -1.0838234      0.073733639   -0.92578263    -0.016441858  
    766000   0.055342665   -1.0950202      0.074581445   -0.93743543    -0.0082916147 
    767000   0.055169841   -1.0849066      0.074271703   -0.92789085    -0.009652932  
    768000   0.055771217   -1.0822396      0.072868398   -0.92572517    -0.014884885  
    769000   0.056390088   -1.0874792      0.074682534   -0.92822244    -0.0027483559 
    770000   0.056994244   -1.0866104      0.073803508   -0.92732657    -0.019690328  
    771000   0.056813801   -1.098629       0.073542259   -0.93987705    -0.0045110419 
    772000   0.057787155   -1.094511       0.073649648   -0.93419182    -0.020895835  
    773000   0.056688689   -1.0845026      0.074544096   -0.92493641    -0.0076523454 
    774000   0.056400882   -1.0878076      0.074179379   -0.92903783    -0.016508055  
    775000   0.05621712    -1.0932617      0.074240235   -0.93470666    -0.011955298  
    776000   0.05698138    -1.0984323      0.075313677   -0.93765761    -0.017138262  
    777000   0.055978545   -1.0895751      0.075476717   -0.93014141    -0.013382924  
    778000   0.05603243    -1.0976815      0.073207336   -0.94043641    -0.019013648  
    779000   0.056349796   -1.0881971      0.072964714   -0.93071858    -0.010112111  
    780000   0.056739126   -1.0937161      0.074864078   -0.93375434    -0.0088502153 
    781000   0.057077769   -1.089361       0.074826761   -0.92892867    -0.022626907  
    782000   0.05585057    -1.0971868      0.073399614   -0.94002211    -0.0045224945 
    783000   0.056381807   -1.1003141      0.074305268   -0.94144708    -0.0023688714 
    784000   0.055940782   -1.0982598      0.074754627   -0.9396048      0.0035758454 
    785000   0.056424364   -1.1008327      0.07308685    -0.94312024    -0.0058644993 
    786000   0.055994883   -1.1026937      0.074477825   -0.94423439    -0.0078020363 
    787000   0.056179416   -1.1040089      0.07303012    -0.94672049    -0.0017649629 
    788000   0.054838727   -1.0934952      0.074227509   -0.93702025    -0.0059317799 
    789000   0.056241614   -1.0930447      0.075664017   -0.93302911    -0.015840563  
    790000   0.056164773   -1.0915924      0.074600363   -0.93275573    -0.013386821  
    791000   0.056807453   -1.0977909      0.074635818   -0.9379549     -0.021210146  
    792000   0.057120709   -1.0866563      0.073267223   -0.92771908    -5.0847921e-06
    793000   0.057245461   -1.0934005      0.07443656    -0.93310683     0.0085704127 
    794000   0.056088441   -1.0888727      0.074230292   -0.93052061     0.0070353276 
    795000   0.056482537   -1.0923361      0.074928772   -0.93269449    -0.0079646122 
    796000   0.055947416   -1.0919528      0.074383004   -0.93365954    -0.0093238515 
    797000   0.056803531   -1.0956859      0.075071586   -0.93542005    -0.007438329  
    798000   0.0561339     -1.098069       0.07383067    -0.94004832     0.0080114358 
    799000   0.055831429   -1.1003768      0.074250699   -0.94238981    -0.025647121  
    800000   0.056829881   -1.0978148      0.07317069    -0.93941027     0.00078293245
    801000   0.056961729   -1.1027877      0.074165104   -0.94319102    -0.0095448535 
    802000   0.056475567   -1.0925124      0.07470367    -0.93310627    -0.0098700181 
    803000   0.056311334   -1.1078479      0.074470644   -0.94892112     0.0039244362 
    804000   0.056895737   -1.0997802      0.074587436   -0.93986021    -0.0041552985 
    805000   0.056135722   -1.0986518      0.073854455   -0.94060464     0.0030408587 
    806000   0.056437148   -1.1013714      0.074512975   -0.94221361    -0.010387972  
    807000   0.056441727   -1.0975883      0.074384357   -0.93855231    -0.011230437  
    808000   0.056077345   -1.1003186      0.073615307   -0.94259816    -0.003271126  
    809000   0.055692009   -1.1100673      0.074600435   -0.95193961    -0.010700574  
    810000   0.056886747   -1.1011631      0.076201204   -0.93964282    -0.016750441  
    811000   0.057765632   -1.0994578      0.075894934   -0.93692559     0.0034807617 
    812000   0.056819449   -1.0937751      0.07656831    -0.9319886     -0.00012445637
    813000   0.056599726   -1.0966097      0.077130893   -0.93459019    -0.010063582  
    814000   0.057163735   -1.0989824      0.076138703   -0.93710914    -0.019219326  
    815000   0.05632659    -1.1024866      0.077330304   -0.94067735    -0.017972673  
    816000   0.056020971   -1.0945889      0.074954601   -0.93561373    -0.0017550049 
    817000   0.056471138   -1.1046823      0.076414088   -0.94357244    -0.001541459  
    818000   0.05594188    -1.1077597      0.076532994   -0.9473247     -0.022680921  
    819000   0.056140074   -1.096528       0.076148871   -0.93617985    -0.018760934  
    820000   0.057005488   -1.1012189      0.07746539    -0.93825631    -0.014356799  
    821000   0.057077047   -1.1053312      0.074489615   -0.94523709    -0.0092979126 
    822000   0.057206271   -1.094037       0.076744295   -0.93149438    -0.027473146  
    823000   0.056215055   -1.1077155      0.074550961   -0.94885281    -0.0085836821 
    824000   0.056099886   -1.1007299      0.075386826   -0.94120413    -0.023349306  
    825000   0.056117835   -1.104793       0.075512556   -0.94511451    -0.0014028617 
    826000   0.055751797   -1.1022185      0.075271571   -0.94333004    -0.010848116  
    827000   0.056118172   -1.1058443      0.074632018   -0.94704589    -0.027310178  
    828000   0.056018321   -1.1066315      0.07460542    -0.9480094     -0.017704215  
    829000   0.055929211   -1.1025642      0.074877182   -0.94380399    -0.0080757011 
    830000   0.056303292   -1.1056699      0.073751197   -0.94747469    -0.00066999436
    831000   0.057473247   -1.1001388      0.074455317   -0.93948478    -0.0014775924 
    832000   0.057306865   -1.104656       0.074557373   -0.94414938    -0.01039942   
    833000   0.056398114   -1.1062651      0.073778756   -0.94790005    -0.030099231  
    834000   0.056282393   -1.1115404      0.074703103   -0.95242459    -0.013724384  
    835000   0.056312507   -1.0992341      0.075407083   -0.93936915    -0.016450517  
    836000   0.056698521   -1.0964635      0.075839124   -0.93558759    -0.0020672154 
    837000   0.055516081   -1.1053128      0.074806437   -0.94724298    -0.0042772064 
    838000   0.055664379   -1.1013796      0.075445911   -0.94244794    -0.0016836868 
    839000   0.056566109   -1.1057781      0.075968307   -0.94497163    -0.0025132331 
    840000   0.056826444   -1.1103293      0.077375302   -0.94772535     0.0077205474 
    841000   0.056786964   -1.1011392      0.076637865   -0.93933189    -0.0021302669 
    842000   0.056280768   -1.1040431      0.077117435   -0.94251536    -0.019808389  
    843000   0.057190366   -1.0998077      0.07533106    -0.93870219     0.025330881  
    844000   0.057496133   -1.0976724      0.076464645   -0.93497473     0.014492267  
    845000   0.057036579   -1.110849       0.076138843   -0.9491663      0.001205297  
    846000   0.055688338   -1.1041647      0.077624796   -0.94301818    -0.0002679303 
    847000   0.056559835   -1.1076141      0.076385839   -0.9463995      0.0037636163 
    848000   0.056388469   -1.1008529      0.07601141    -0.94026968     0.01426056   
    849000   0.055464962   -1.1053727      0.076366377   -0.94581961    -0.0078573434 
    850000   0.057842282   -1.105231       0.076253071   -0.94222573     0.010914478  
    851000   0.056758755   -1.1027093      0.077163802   -0.94041831    -0.0037192976 
    852000   0.056731167   -1.1132438      0.077203795   -0.95095427    -0.0030280497 
    853000   0.056781635   -1.101208       0.077141193   -0.93890534     0.0053568681 
    854000   0.055101171   -1.1118748      0.075899917   -0.9533338      0.0049646226 
    855000   0.056470461   -1.0953471      0.075995361   -0.93465698     0.0084343231 
    856000   0.055767326   -1.1178572      0.078529547   -0.95568747     0.0014421545 
    857000   0.056642916   -1.1104664      0.078200774   -0.9473122      0.0032566884 
    858000   0.056093291   -1.1090718      0.076298398   -0.94864428    -0.0056180387 
    859000   0.05644285    -1.1059104      0.077498444   -0.94375856     0.0028362905 
    860000   0.056002834   -1.1097545      0.077992023   -0.94776904    -0.0071545359 
    861000   0.056766606   -1.1071205      0.076459893   -0.94552167    -0.008791599  
    862000   0.056207875   -1.1083519      0.078536934   -0.945514       0.001054116  
    863000   0.056230857   -1.1133278      0.077135953   -0.95185642     0.0024368088 
    864000   0.056033924   -1.1156536      0.078356491   -0.95325703    -0.0055623729 
    865000   0.056243658   -1.1154364      0.07838817    -0.95269366    -0.010836387  
    866000   0.05681367    -1.1095793      0.077942736   -0.94642708    -0.00060360123
    867000   0.057079741   -1.1118255      0.078603075   -0.94761391    -0.012671789  
    868000   0.056741131   -1.1105371      0.078543649   -0.94689279     0.0029447834 
    869000   0.056659391   -1.1096312      0.077696206   -0.94695684     0.0019269688 
    870000   0.056444095   -1.1082114      0.078009896   -0.94554627    -0.0098347636 
    871000   0.056442353   -1.1096448      0.076304005   -0.94868822    -0.0020802924 
    872000   0.057069216   -1.1047553      0.077146531   -0.94201598    -0.0056630679 
    873000   0.055877452   -1.111144       0.07900258    -0.94833605    -0.0076702108 
    874000   0.056621168   -1.1146432      0.078724466   -0.95099799     0.001300247  
    875000   0.056984687   -1.1179083      0.079103069   -0.95333919    -0.0074377803 
    876000   0.056859253   -1.1154902      0.078627206   -0.95158508     0.012749611  
    877000   0.05595486    -1.1108027      0.079168165   -0.94771305    -0.0048969812 
    878000   0.056532418   -1.1178274      0.078734979   -0.95430474    -0.0069581322 
    879000   0.05560481    -1.1151119      0.078465172   -0.95325023     0.00038933476
    880000   0.05672582    -1.1117853      0.078984405   -0.94772314    -0.0086517737 
    881000   0.057584922   -1.1095304      0.078646455   -0.94451775    -0.0044889799 
    882000   0.055977631   -1.1037043      0.079247592   -0.9405011     -0.011422403  
    883000   0.055960519   -1.1136482      0.07906434    -0.95065394     0.006877034  
    884000   0.056177719   -1.1086416      0.078314959   -0.94607096     0.009952467  
    885000   0.056165398   -1.1088805      0.079096752   -0.94554653    -0.0025941963 
    886000   0.056502008   -1.102091       0.077693439   -0.93965544     0.0037253237 
    887000   0.056003234   -1.118067       0.079628486   -0.95444449    -0.018095589  
    888000   0.055829227   -1.1062141      0.078544731   -0.94393638     0.018118725  
    889000   0.056310337   -1.119377       0.080060262   -0.95486213     0.0022558887 
    890000   0.056596119   -1.1207882      0.078149636   -0.95775536    -0.0044855498 
    891000   0.056107431   -1.1169057      0.079470204   -0.95328516    -0.019954249  
    892000   0.056196014   -1.1165781      0.078633841   -0.95366115     0.0039608592 
    893000   0.056260598   -1.1134974      0.078278069   -0.95083935    -0.012535063  
    894000   0.056216683   -1.1209322      0.078205709   -0.9584123     -0.0049268661 
    895000   0.056105758   -1.1104254      0.080172615   -0.94610498    -0.016426982  
    896000   0.056515393   -1.1147367      0.079614973   -0.95035953    -0.019032381  
    897000   0.055936988   -1.1176541      0.081508207   -0.95225124    -0.006440532  
    898000   0.056777827   -1.1104384      0.077014834   -0.94826779    -0.0029318784 
    899000   0.056038834   -1.1150872      0.076808187   -0.95423159     0.0090415727 
    900000   0.055139627   -1.1261579      0.078824829   -0.96463429    -0.007160533  
    901000   0.055781567   -1.1129773      0.078358292   -0.95095744     0.00043254188
    902000   0.055699399   -1.1124112      0.078344026   -0.95052884    -0.008624229  
    903000   0.05601641    -1.1151159      0.077268053   -0.9538341      0.0016344723 
    904000   0.055899873   -1.119465       0.079137221   -0.95648877    -0.0015532347 
    905000   0.056565793   -1.1193405      0.080148394   -0.95435432     0.01003309   
    906000   0.056440782   -1.1238892      0.079218824   -0.96002014    -0.0087683702 
    907000   0.056156404   -1.1075685      0.078539793   -0.94480499    -0.0084346523 
    908000   0.05578677    -1.1229906      0.080436186   -0.95888504    -0.0084278212 
    909000   0.057436414   -1.1124936      0.078905357   -0.9474447     -0.0056791939 
    910000   0.0568029     -1.1130568      0.079663796   -0.94819966    -0.010320995  
    911000   0.056815014   -1.1207601      0.080139465   -0.95540915     0.00043207939
    912000   0.056872434   -1.1157276      0.081503389   -0.94892656    -0.005482823  
    913000   0.05690226    -1.1163955      0.08078573    -0.95026741     0.0084502368 
    914000   0.057447659   -1.1203745      0.078915481   -0.95529869    -0.0035939701 
    915000   0.057551301   -1.1267082      0.081062346   -0.95933005    -0.0096723165 
    916000   0.057184817   -1.1197872      0.082743239   -0.95127785     0.0017374468 
    917000   0.056816012   -1.1190461      0.080976188   -0.95285689    -0.0086108694 
    918000   0.057812616   -1.1203146      0.07929296    -0.95431388    -0.010461548  
    919000   0.057137722   -1.1081931      0.078339796   -0.94415778     0.010540027  
    920000   0.057147809   -1.121712       0.081263194   -0.95473816    -0.0072845205 
    921000   0.055840153   -1.1149945      0.08038339    -0.95086173    -0.0019956808 
    922000   0.057728597   -1.1154267      0.081623326   -0.94722169    -0.0059792877 
    923000   0.057087411   -1.1143898      0.08215622    -0.94661348    -0.005191902  
    924000   0.057272957   -1.1302201      0.081034755   -0.96328699     0.010154485  
    925000   0.05656625    -1.1229434      0.080218909   -0.95788605    -0.010184946  
    926000   0.056000384   -1.113138       0.08043421    -0.94871408     0.014648678  
    927000   0.056704124   -1.1220676      0.080457622   -0.95656473    -0.0068236301 
    928000   0.056630277   -1.1279731      0.080813664   -0.96222501    -0.001192973  
    929000   0.057007044   -1.1113775      0.080926212   -0.94495171     0.0065764836 
    930000   0.056233557   -1.1233486      0.082930354   -0.95607874     0.0011564295 
    931000   0.057174663   -1.1153785      0.083510462   -0.94611708    -0.0033178993 
    932000   0.057289131   -1.1197997      0.081848971   -0.95202815    -0.0098757789 
    933000   0.05727125    -1.1138473      0.08294342    -0.94500809     0.0050701503 
    934000   0.057349953   -1.1183117      0.084130972   -0.94816689     0.002094495  
    935000   0.057412861   -1.1228932      0.084048937   -0.95273606    -0.016016684  
    936000   0.057026213   -1.1189219      0.083914986   -0.94947863    -0.00029409351
    937000   0.057813548   -1.1250513      0.08279093    -0.95555126    -0.0058760212 
    938000   0.057469725   -1.1301268      0.084734976   -0.95919841    -0.0098162618 
    939000   0.056428658   -1.1281386      0.083855011   -0.95965152    -0.015288421  
    940000   0.057579011   -1.1232454      0.082995275   -0.95389275     0.003517783  
    941000   0.056741255   -1.1216685      0.085158259   -0.95140938    -0.0090300603 
    942000   0.056701174   -1.1284976      0.08564316    -0.95781364    -0.014106176  
    943000   0.056753488   -1.1277872      0.08455283    -0.95811513    -0.00053115898
    944000   0.057288423   -1.1268419      0.083857872   -0.95706252    -0.0053203706 
    945000   0.057178106   -1.1152672      0.083189538   -0.94632154    -0.0016038282 
    946000   0.057285309   -1.1182342      0.083398576   -0.94891876     0.0027221946 
    947000   0.057143916   -1.1248929      0.084252364   -0.95493571    -0.0056056022 
    948000   0.056393919   -1.1225444      0.085588695   -0.95237577    -0.000312765  
    949000   0.057525655   -1.1270314      0.085826682   -0.95492736    -0.015468308  
    950000   0.056611949   -1.1252963      0.086167344   -0.95422203    -0.0011496057 
    951000   0.056840868   -1.1124557      0.08436422    -0.94284122     0.0053944872 
    952000   0.055919947   -1.1219163      0.085608705   -0.95243854    -0.012047671  
    953000   0.056988941   -1.1148003      0.086369934   -0.94295796    -0.014751159  
    954000   0.057301406   -1.1135863      0.087070605   -0.94057463    -0.015870588  
    955000   0.05788676    -1.1284328      0.084951871   -0.95666204     0.013132325  
    956000   0.05745042    -1.12529        0.085882373   -0.95324315    -0.0013107971 
    957000   0.057911356   -1.1265113      0.086674246   -0.95298124    -0.0028952681 
    958000   0.056330663   -1.1291046      0.085534397   -0.95908512     0.0039409768 
    959000   0.056383621   -1.1205419      0.086039573   -0.94993785     0.0098480848 
    960000   0.057584494   -1.1262326      0.085305096   -0.95456192     0.0023364912 
    961000   0.057609327   -1.1267956      0.087088693   -0.95330408     0.011834007  
    962000   0.05789395    -1.1244757      0.087342862   -0.95030316     0.0065366294 
    963000   0.057911378   -1.1227124      0.087448169   -0.94840833     0.0062588886 
    964000   0.056329375   -1.1281613      0.085490646   -0.95818745     0.0020526633 
    965000   0.056986942   -1.1276198      0.085383495   -0.95676689     0.0025499872 
    966000   0.056710584   -1.1245218      0.085631806   -0.95383514    -0.010724689  
    967000   0.057163689   -1.1226682      0.087052363   -0.94988138     0.0088175463 
    968000   0.056767036   -1.1325189      0.085343077   -0.96203621    -0.0098922971 
    969000   0.057356026   -1.1335258      0.083532838   -0.96397       -0.016824593  
    970000   0.057703321   -1.1260729      0.086050874   -0.95347826    -0.0080459862 
    971000   0.057486197   -1.1358019      0.087110104   -0.96247361     0.0072784229 
    972000   0.057580897   -1.1207812      0.086817376   -0.94760359     0.00053373105
    973000   0.057035474   -1.1263197      0.087053057   -0.95372444    -0.0080573738 
    974000   0.057863371   -1.1254922      0.086789478   -0.95191883    -0.015965762  
    975000   0.057161935   -1.1323852      0.08778816    -0.95886523    -0.015593722  
    976000   0.057764944   -1.1218584      0.085789494   -0.94943264     0.0026840029 
    977000   0.057145185   -1.1304888      0.087705344   -0.95707672     0.0030390338 
    978000   0.057002697   -1.1336001      0.086897844   -0.96120929     0.0055526842 
    979000   0.057563684   -1.1260959      0.086729878   -0.95303159    -0.0034894763 
    980000   0.056998666   -1.1286557      0.085916053   -0.95725265    -0.00080782293
    981000   0.057023126   -1.1287         0.086367101   -0.95680926    -0.0072697353 
    982000   0.056462992   -1.1174828      0.08601103    -0.9467882      0.00076464164
    983000   0.057098077   -1.1282595      0.086992312   -0.95563108    -0.020681906  
    984000   0.056293902   -1.1291744      0.086324258   -0.95842021    -0.0092777054 
    985000   0.056122384   -1.122519       0.088568542   -0.94977771    -0.0079359247 
    986000   0.056881263   -1.1366314      0.08983623    -0.96148427    -0.010160908  
    987000   0.056947953   -1.1291107      0.08750338    -0.95619643     0.0011522264 
    988000   0.057511151   -1.1319947      0.08742573    -0.95831337    -0.0049382349 
    989000   0.057077991   -1.1303805      0.088575205   -0.9561994     -0.0032819855 
    990000   0.057172025   -1.1379213      0.088412094   -0.96376225    -0.007814197  
    991000   0.057724479   -1.1257513      0.089115278   -0.95006049    -0.004770813  
    992000   0.056909272   -1.1276872      0.089020967   -0.95331336     0.00035789234
    993000   0.057342544   -1.1309781      0.088130401   -0.95684503    -0.0048313347 
    994000   0.057311722   -1.1248095      0.088329057   -0.95052397     0.001783471  
    995000   0.057138318   -1.129435       0.087864747   -0.95587379     0.0017861984 
    996000   0.05733217    -1.1400874      0.088727465   -0.96537278    -0.0065349561 
    997000   0.057277755   -1.1337529      0.089741653   -0.95810565     0.0089669979 
    998000   0.058246785   -1.1321738      0.088034932   -0.95678001    -0.017944392  
    999000   0.058591155   -1.1382716      0.088565423   -0.96183081    -0.002883404  
   1000000   0.05847821    -1.1384616      0.088895971   -0.96185964    -0.001633526  
   1001000   0.056935233   -1.1285928      0.09011416    -0.95308677    -0.0055725256 
   1002000   0.057388305   -1.1322926      0.090350541   -0.95587068    -0.014528169  
   1003000   0.056798497   -1.1356329      0.088063155   -0.96238298    -0.0093070439 
   1004000   0.057540392   -1.119051       0.087514461   -0.94523712    -0.0020115035 
   1005000   0.056394454   -1.1264051      0.090443347   -0.95138101     0.015228305  
   1006000   0.057358095   -1.1260542      0.089169538   -0.95085858    -0.0061073269 
   1007000   0.056265692   -1.141337       0.089946661   -0.96700268    -0.0076601903 
   1008000   0.057135839   -1.133964       0.090479775   -0.95779149    -0.011828123  
   1009000   0.056371685   -1.1338831      0.08921036    -0.96012611     0.0066688331 
   1010000   0.057009872   -1.1241903      0.089004501   -0.94968203     0.00032819661
   1011000   0.057398932   -1.1313965      0.089407118   -0.95590205     0.0024625547 
   1012000   0.057905384   -1.126876       0.088792433   -0.95123674    -9.2626016e-05
   1013000   0.057872336   -1.1234989      0.089798578   -0.94690302     0.010760832  
   1014000   0.057880557   -1.1317672      0.090636104   -0.95432147     0.0054593502 
   1015000   0.057314289   -1.1359231      0.089460848   -0.96050194     0.0037310113 
   1016000   0.057249031   -1.1410934      0.088556043   -0.9666749      0.001870257  
   1017000   0.057126645   -1.1425316      0.089048193   -0.96780446     0.010832483  
   1018000   0.057741804   -1.127655       0.09022251    -0.95083093     0.0091574925 
   1019000   0.057080596   -1.1346232      0.090699155   -0.95831425     0.013305507  
   1020000   0.057593798   -1.1357511      0.091448385   -0.95792316    -0.0021106508 
   1021000   0.05750166    -1.1375906      0.091869383   -0.95947983    -0.0015913647 
   1022000   0.057397291   -1.1338624      0.091985891   -0.9557917      0.009004931  
   1023000   0.057331932   -1.1313352      0.090431035   -0.95491738     0.00660375   
   1024000   0.057357309   -1.1267035      0.090485343   -0.95019334     0.00203352   
   1025000   0.057568525   -1.1369446      0.09053485    -0.96006807     0.00060922569
   1026000   0.056721532   -1.1305756      0.091122434   -0.95438182    -0.0051617989 
   1027000   0.058685351   -1.1400579      0.090486332   -0.96155486    -0.0096986828 
   1028000   0.057689987   -1.1433497      0.090409899   -0.96641598     0.0068770727 
   1029000   0.05815991    -1.1274293      0.090887581   -0.94931308    -0.014136432  
   1030000   0.058007134   -1.1335806      0.090619809   -0.95596132    -0.0087871625 
   1031000   0.057305166   -1.1419183      0.090833144   -0.96513846    -0.0069287422 
   1032000   0.057002368   -1.1355497      0.090485985   -0.95957123     0.0020652855 
   1033000   0.05730256    -1.1339243      0.09039044    -0.9575911      0.011204121  
   1034000   0.057816957   -1.1385475      0.091637618   -0.96019562     0.0048851206 
   1035000   0.056999058   -1.1299977      0.089119064   -0.95539105     0.0032090038 
   1036000   0.056727239   -1.1307933      0.088921779   -0.95679163    -0.0039452784 
   1037000   0.056938849   -1.137064       0.089477234   -0.96218953    -0.006726589  
   1038000   0.056377331   -1.1332859      0.087485426   -0.96124544    -0.0050946653 
   1039000   0.057582759   -1.1275829      0.089242649   -0.95197728     0.014943695  
   1040000   0.057886476   -1.1301602      0.088821382   -0.95452027     0.0033499238 
   1041000   0.058522797   -1.1353997      0.089935768   -0.95769111     0.00422239   
   1042000   0.058184394   -1.138832       0.089891643   -0.96167502    -0.0053990432 
   1043000   0.058298912   -1.1404689      0.089191599   -0.96384025    -0.0063156042 
   1044000   0.0575427     -1.137317       0.090330489   -0.96068361    -0.0095926871 
   1045000   0.057855444   -1.1264888      0.09001254    -0.94970433    -0.0024614867 
   1046000   0.057472554   -1.140164       0.089538681   -0.96442757    -0.0072659188 
   1047000   0.057864993   -1.1493618      0.089468775   -0.97310674    -0.0058466614 
   1048000   0.057336643   -1.1414873      0.088469448   -0.967024      -0.013386155  
   1049000   0.058425475   -1.1315173      0.091985171   -0.95190521    -0.005844869  
   1050000   0.057592539   -1.1374246      0.090217405   -0.96082955     0.0091101524 
   1051000   0.057146705   -1.1476143      0.090433684   -0.97147164    -0.0049673418 
   1052000   0.058131722   -1.1482204      0.09107632    -0.96995771    -0.01026958   
   1053000   0.057936388   -1.1372553      0.091312305   -0.95904967    -0.0033633961 
   1054000   0.057382357   -1.1383839      0.090948964   -0.96137255    -0.0039043898 
   1055000   0.057758229   -1.132034       0.091119117   -0.95428875    -0.015396531  
   1056000   0.05791933    -1.1448596      0.090557268   -0.96743452    -0.01840175   
   1057000   0.057151607   -1.1436389      0.090021411   -0.96790116    -0.0056908195 
   1058000   0.056884125   -1.1398578      0.088336699   -0.96620589    -0.0025239993 
   1059000   0.057544082   -1.1378896      0.089994884   -0.96158977    -0.01123393   
   1060000   0.058571287   -1.1358659      0.090232815   -0.95778749     0.0039597264 
   1061000   0.05775104    -1.1347181      0.09143517    -0.95666759    -0.0072857317 
   1062000   0.056944418   -1.1354571      0.090498942   -0.95955258    -0.013427343  
   1063000   0.057873564   -1.1414249      0.088287692   -0.96633809    -0.020307877  
   1064000   0.0573482     -1.1379094      0.091542588   -0.96035557    -0.015016384  
   1065000   0.058887565   -1.1499237      0.091320195   -0.97028357    -0.0066823601 
   1066000   0.058020956   -1.1388068      0.089396383   -0.96239026    -0.020946185  
   1067000   0.058531488   -1.1410325      0.090534244   -0.96271234    -0.023090795  
   1068000   0.058639157   -1.1275217      0.090760551   -0.94881375     0.0053028501 
   1069000   0.057624591   -1.1368067      0.089783415   -0.96059755    -0.0018270283 
   1070000   0.057566247   -1.1463749      0.089819505   -0.97021713    -0.0099078358 
   1071000   0.058555275   -1.1352374      0.089840919   -0.95757493    -0.0093581478 
   1072000   0.058445978   -1.140532       0.090407883   -0.9624665     -0.0064727571 
   1073000   0.05801944    -1.1391608      0.09066351    -0.96147937    -0.0044515185 
   1074000   0.057274826   -1.1506764      0.091731138   -0.9730441     -0.0024730774 
   1075000   0.056996983   -1.1354701      0.092448398   -0.95753731    -0.018165161  
   1076000   0.057857433   -1.142712       0.091543348   -0.96439372    -0.013730808  
   1077000   0.058132143   -1.1400376      0.090656743   -0.96219393    -0.0029736794 
   1078000   0.057081977   -1.1407635      0.091167692   -0.96398392     0.0056859199 
   1079000   0.056951598   -1.1344494      0.090103187   -0.95892981     0.0057142006 
   1080000   0.057164287   -1.1467724      0.09100117    -0.97003587    -0.0252078    
   1081000   0.057370521   -1.1462392      0.090586125   -0.96960839    -0.005860845  
   1082000   0.058082433   -1.1344186      0.091356754   -0.95594947    -0.0013734392 
   1083000   0.058819811   -1.1461283      0.090893318   -0.96701667     0.0091200016 
   1084000   0.058695192   -1.1397274      0.090765486   -0.96093052    -0.0088882605 
   1085000   0.058424511   -1.1452065      0.09108763    -0.96649337    -7.0476061e-05
   1086000   0.058637552   -1.1514757      0.09128293    -0.97224782    -0.0019086209 
   1087000   0.058079656   -1.1379443      0.088383332   -0.96245276    -0.0060464979 
   1088000   0.057379841   -1.1408047      0.091663222   -0.9630828     -0.011461687  
   1089000   0.058105153   -1.1360838      0.09062815    -0.9583092     -0.015373057  
   1090000   0.057566834   -1.1426727      0.090360582   -0.96597306    -0.017690739  
   1091000   0.057872731   -1.1457711      0.090104005   -0.96886924    -0.020869748  
   1092000   0.056628377   -1.1283422      0.090565186   -0.95284541     0.0024609129 
   1093000   0.057243784   -1.1416631      0.088273653   -0.96753485    -0.010177802  
   1094000   0.057632789   -1.1299833      0.088616905   -0.95492832     0.0012316168 
   1095000   0.057446062   -1.14327        0.087420369   -0.96969166    -0.012178553  
   1096000   0.057583718   -1.1422827      0.089130218   -0.96678807    -0.012185238  
   1097000   0.056980652   -1.1404289      0.088334124   -0.9666348     -0.013356173  
   1098000   0.058007663   -1.1312578      0.09052311    -0.95373442     0.0072959562 
   1099000   0.057147557   -1.1410484      0.088562014   -0.96677613    -0.0068286043 
   1100000   0.057731918   -1.146846       0.088217345   -0.97204199    -0.012065045  
   1101000   0.056003414   -1.1409923      0.086490922   -0.97050708    -0.0050772889 
   1102000   0.057134293   -1.1358274      0.089095065   -0.96104192    -0.006680927  
   1103000   0.057041031   -1.1435417      0.089660109   -0.96833107     0.0096855374 
   1104000   0.05748323    -1.1494325      0.088058314   -0.97516048    -0.001103239  
   1105000   0.057621476   -1.143248       0.089092271   -0.9677347     -0.019277924  
   1106000   0.057298105   -1.1413015      0.08784486    -0.96752061     0.0015145212 
   1107000   0.058230845   -1.1483415      0.087814747   -0.97319179    -0.011309141  
   1108000   0.058516172   -1.1347557      0.086641388   -0.96035139    -0.01027303   
   1109000   0.05749554    -1.1463088      0.08964876    -0.97042784    -0.015370454  
   1110000   0.056441823   -1.1404104      0.088262262   -0.96749637    -0.0076323852 
   1111000   0.057495148   -1.1385719      0.087092643   -0.96524768    -0.0042428331 
   1112000   0.057273438   -1.1415161      0.089145196   -0.9664718     -0.022235266  
   1113000   0.057475707   -1.1424361      0.086860576   -0.96937306     0.0045494552 
   1114000   0.057592269   -1.1424261      0.088029296   -0.9680195     -0.0038953915 
   1115000   0.05661954    -1.1550874      0.088501479   -0.98166755    -0.0042805382 
   1116000   0.057270034   -1.1506067      0.087704135   -0.97700856    -0.011049808  
   1117000   0.05787344    -1.1396229      0.086704488   -0.96611947    -0.0049398818 
   1118000   0.058373572   -1.1485904      0.088596288   -0.97244509    -0.012210142  
   1119000   0.057196596   -1.1376598      0.088709463   -0.96316656    -0.017207437  
   1120000   0.05818286    -1.1481712      0.088803874   -0.97210432    -0.02848676   
   1121000   0.057316286   -1.1455239      0.08797275    -0.97158784     0.00081721024
   1122000   0.05725946    -1.1466871      0.087893183   -0.97291585    -0.013025308  
   1123000   0.056748574   -1.1387575      0.086550132   -0.96709546    -0.008751061  
   1124000   0.057812908   -1.14425        0.087803364   -0.96973851     0.0028655883 
   1125000   0.056937729   -1.1444944      0.087610718   -0.9714881     -0.023345227  
   1126000   0.057622894   -1.1536353      0.08884743    -0.97836465    -0.0099994087 
   1127000   0.057082497   -1.1572271      0.087592294   -0.98402214    -0.0042140915 
   1128000   0.057685903   -1.1435539      0.087399628   -0.96963658    -0.0004362953 
   1129000   0.057515261   -1.1410194      0.086809434   -0.96794822     0.0051381738 
   1130000   0.056314411   -1.1569281      0.087135552   -0.98533183    -0.0082391045 
   1131000   0.057470696   -1.1543402      0.086373627   -0.98177167     0.0042498034 
   1132000   0.057800651   -1.143533       0.08876361    -0.9680796     -0.00100994   
   1133000   0.057300804   -1.1508119      0.089894348   -0.97497743    -0.0085374177 
   1134000   0.057753539   -1.1505454      0.086554036   -0.97737225     0.0029542933 
   1135000   0.056184458   -1.1413159      0.089207956   -0.9678421     -0.021296272  
   1136000   0.056952196   -1.146506       0.086498974   -0.97458972    -0.016135073  
   1137000   0.056856016   -1.1484013      0.086606155   -0.97652209    -0.014705457  
   1138000   0.057665749   -1.1500865      0.087522583   -0.97607642     0.014403255  
   1139000   0.058002948   -1.1417712      0.088611297   -0.96616674     0.0067963987 
   1140000   0.058031353   -1.1521688      0.086669096   -0.97846389    -0.0027235059 
   1141000   0.057203662   -1.1481889      0.087132199   -0.97526225    -0.0074098333 
   1142000   0.057062083   -1.1452186      0.08717974    -0.97245678    -0.0027949041 
   1143000   0.057942752   -1.1508651      0.085821322   -0.97814082    -0.01273105   
   1144000   0.057548785   -1.1510285      0.087339943   -0.97737653    -0.0047378089 
   1145000   0.057625233   -1.1469059      0.086795396   -0.97368376    -0.00083064624
   1146000   0.057887179   -1.1449431      0.086697179   -0.97142636     0.0099811359 
   1147000   0.058364331   -1.150156       0.086962639   -0.97565821    -0.032181806  
   1148000   0.057408873   -1.1479395      0.087091241   -0.97474603    -0.014251172  
   1149000   0.056544919   -1.1566965      0.087022806   -0.98486728    -0.0035652149 
   1150000   0.057178675   -1.1565265      0.088386145   -0.98238345     0.0034956751 
   1151000   0.057782715   -1.1514292      0.087172391   -0.97759388    -0.010492652  
   1152000   0.057812307   -1.1461543      0.088217204   -0.97122982     0.015088177  
   1153000   0.057556634   -1.1581336      0.086366946   -0.9854428      0.004921422  
   1154000   0.057526432   -1.1413313      0.087846878   -0.96720592    -0.027035856  
   1155000   0.057026921   -1.1517236      0.087327862   -0.97886644    -0.0048067812 
   1156000   0.057943072   -1.1523434      0.086255372   -0.97918463     0.016374139  
   1157000   0.057910094   -1.1460534      0.087631282   -0.97156817    -0.0086812724 
   1158000   0.058364141   -1.1494237      0.087181611   -0.97470715    -0.012630643  
   1159000   0.057675826   -1.1394491      0.087909453   -0.96503708     0.003657272  
   1160000   0.057480759   -1.1515541      0.088065866   -0.97727819     0.0019122488 
   1161000   0.057366568   -1.1455305      0.087535056   -0.97195669    -0.026239087  
   1162000   0.057006551   -1.1498748      0.085727551   -0.97864842    -0.014734764  
   1163000   0.05715385    -1.1478429      0.086321018   -0.9758022     -0.0046634356 
   1164000   0.057835599   -1.1487233      0.090237311   -0.97174377    -0.017323149  
   1165000   0.058257137   -1.149709       0.089158125   -0.97317643     0.0062518878 
   1166000   0.057382496   -1.1520999      0.086986275   -0.97905099     0.0070219529 
   1167000   0.05725128    -1.1541211      0.089230423   -0.97902487    -0.0087799339 
   1168000   0.057627322   -1.1483977      0.08860364    -0.97336426     0.010106247  
   1169000   0.058098486   -1.143358       0.088107018   -0.96811447    -0.018933281  
   1170000   0.057167979   -1.1557782      0.088285377   -0.98175191     0.0029765035 
   1171000   0.057761138   -1.1458476      0.087812356   -0.97140467     0.0038973787 
   1172000   0.057490306   -1.1466314      0.088579078   -0.97182799    -0.010914311  
   1173000   0.057155165   -1.146866       0.087184344   -0.97395997    -0.014803224  
   1174000   0.056752537   -1.1476363      0.088490399   -0.97402804    -0.0084152057 
   1175000   0.056674943   -1.1568854      0.088715203   -0.98316873    -0.0048384087 
   1176000   0.057087893   -1.1495782      0.088347086   -0.9756103     -0.0015862783 
   1177000   0.058331322   -1.1501388      0.089647192   -0.9730059     -0.0075478456 
   1178000   0.058120075   -1.1467847      0.087740185   -0.97187564    -0.013560305  
   1179000   0.057376109   -1.1501543      0.090800439   -0.97330081    -0.033546608  
   1180000   0.058230282   -1.1432969      0.088652109   -0.96731063    -0.021763087  
   1181000   0.057190585   -1.1476733      0.089375662   -0.97252286    -0.020822945  
   1182000   0.0582499     -1.1502425      0.08906324    -0.9738157     -0.01400549   
   1183000   0.058506328   -1.1504757      0.088688498   -0.97403899    -0.027729701  
   1184000   0.057394958   -1.1544926      0.088531189   -0.97988009    -0.015596366  
   1185000   0.057000963   -1.147586       0.08763444    -0.97446113    -0.0074068302 
   1186000   0.05687133    -1.1420545      0.089157012   -0.96760146    -0.0085759873 
   1187000   0.057320343   -1.1560913      0.087917099   -0.98220483    -0.011510925  
   1188000   0.058442892   -1.1498135      0.089232655   -0.9729278     -0.020769441  
   1189000   0.057587643   -1.1500435      0.089849374   -0.97382384    -0.021514293  
   1190000   0.058098841   -1.1482636      0.089412543   -0.97171407    -0.00060162942
   1191000   0.057590319   -1.14191        0.089080903   -0.96645475    -0.0084797979 
   1192000   0.058092125   -1.1438402      0.088045735   -0.96866749    -0.017871426  
   1193000   0.056862365   -1.1482992      0.089393377   -0.97362327    -0.013177733  
   1194000   0.056955444   -1.1391243      0.089889413   -0.96381276    -0.015817513  
   1195000   0.057477679   -1.1528014      0.089460904   -0.97713515    -0.0091680455 
   1196000   0.056943346   -1.1552323      0.090093696   -0.97973462    -0.016261898  
   1197000   0.057557118   -1.1372778      0.08963905    -0.96131422    -0.029177123  
   1198000   0.057602665   -1.146836       0.089819786   -0.97062337    -0.0091406469 
   1199000   0.056923971   -1.1491032      0.08959444    -0.97413378    -0.025462679  
   1200000   0.056320469   -1.1606805      0.088355563   -0.98785509    -0.019614115  
   1201000   0.056787636   -1.152141       0.088465388   -0.97850518     0.00050566313
   1202000   0.057998844   -1.1485114      0.087824486   -0.97369991    -0.021624004  
   1203000   0.057007542   -1.1516753      0.090217453   -0.97595753    -0.018231546  
   1204000   0.057231332   -1.1473043      0.087208378   -0.97425998    -0.018893166  
   1205000   0.056615503   -1.1588701      0.088993368   -0.98496448    -0.024688702  
   1206000   0.057746044   -1.1508486      0.087156015   -0.97708465    -0.021913583  
   1207000   0.05802625    -1.1495006      0.089742284   -0.97273013    -0.019128266  
   1208000   0.058204117   -1.1543046      0.090294958   -0.97671476    -0.010539325  
   1209000   0.057245975   -1.1499891      0.088723161   -0.9754081     -0.0098848698 
   1210000   0.05827276    -1.1489418      0.089498155   -0.97204577    -0.013167962  
   1211000   0.057003792   -1.1580796      0.087917376   -0.98466755    -0.0038166154 
   1212000   0.057549718   -1.1421105      0.087439495   -0.96835754     0.0013933788 
   1213000   0.057697218   -1.1545178      0.08912026    -0.97886291    -0.027503575  
   1214000   0.05847506    -1.1421368      0.088540073   -0.96589543    -0.022968389  
   1215000   0.058403331   -1.1538762      0.089402915   -0.97687963    -0.029362111  
   1216000   0.057420716   -1.1383191      0.08919695    -0.96300222    -0.019203526  
   1217000   0.056716436   -1.1564962      0.089413331   -0.98201914    -0.019822487  
   1218000   0.056721322   -1.1490447      0.088471672   -0.975502       0.0068317533 
   1219000   0.057601924   -1.1573206      0.089692946   -0.98123591    -0.017308624  
   1220000   0.056862949   -1.1492506      0.089694877   -0.97427231    -0.026308424  
   1221000   0.058498165   -1.150916       0.090295205   -0.97288485    -0.012355016  
   1222000   0.056875533   -1.1594807      0.091618599   -0.9825598     -0.015469426  
   1223000   0.058414675   -1.1328156      0.088272171   -0.95693271    -0.015750805  
   1224000   0.057609314   -1.1489794      0.088571995   -0.97400457    -0.022878667  
   1225000   0.058101563   -1.1597405      0.089418786   -0.9831806     -0.0046696411 
   1226000   0.057529525   -1.1474052      0.088567836   -0.97255422    -0.015417792  
   1227000   0.056866243   -1.1522932      0.088332649   -0.97867223    -0.00062164669
   1228000   0.057911312   -1.151528       0.089811085   -0.97486119     0.0035496976 
   1229000   0.057258552   -1.1527113      0.090979614   -0.97585495    -0.0066052414 
   1230000   0.058007111   -1.1569394      0.090709292   -0.97923067    -0.027101822  
   1231000   0.057950129   -1.1538475      0.088877039   -0.9780565     -0.010437707  
   1232000   0.057832453   -1.1508981      0.089059574   -0.97510106    -0.011503234  
   1233000   0.057378961   -1.141445       0.090185131   -0.96520256    -0.0215813    
   1234000   0.056973428   -1.150109       0.090489332   -0.97417058    -0.023841005  
   1235000   0.057881243   -1.1556621      0.088626933   -0.98022446    -0.0098069935 
   1236000   0.059510745   -1.1529636      0.088974393   -0.97473465    -0.019925774  
   1237000   0.057670384   -1.1559391      0.089466406   -0.97997828    -0.01776568   
   1238000   0.057405586   -1.1509888      0.090099226   -0.97479235    -0.024325959  
   1239000   0.056407029   -1.1572945      0.088332856   -0.98436204    -0.0048450578 
   1240000   0.057474343   -1.1491103      0.08972381    -0.97318606    -0.021443884  
   1241000   0.056726952   -1.1508811      0.09019488    -0.97560677    -0.013420841  
   1242000   0.057232914   -1.1530728      0.089539917   -0.9776946     -0.030713688  
   1243000   0.058029186   -1.149054       0.088456476   -0.97356494    -0.015695859  
   1244000   0.057033673   -1.1489566      0.089057038   -0.97436012    -0.021482237  
   1245000   0.057163438   -1.1528974      0.089941745   -0.97722158    -0.018024552  
   1246000   0.058151153   -1.1490605      0.087726436   -0.97411855    -0.033867914  
   1247000   0.057839515   -1.1518492      0.089725066   -0.9753761     -0.036542526  
   1248000   0.058392519   -1.1503931      0.089306912   -0.97350867    -0.026055264  
   1249000   0.057302922   -1.1498181      0.089164704   -0.97471007    -0.012482447  
   1250000   0.057582634   -1.154436       0.088519809   -0.97955338    -0.020651427  
   1251000   0.058403928   -1.1488964      0.089614518   -0.97168725    -0.025191124  
   1252000   0.057661164   -1.1504577      0.089687012   -0.97429013    -0.022923225  
   1253000   0.057464292   -1.1529773      0.088569327   -0.9782227     -0.016974264  
   1254000   0.057837923   -1.157958       0.090759242   -0.98045304    -0.011865095  
   1255000   0.058314122   -1.1503035      0.089059225   -0.97378442    -0.020517351  
   1256000   0.057678076   -1.1584995      0.089937376   -0.98205614    -0.020076169  
   1257000   0.057834662   -1.1525744      0.090057758   -0.97577581    -0.017631858  
   1258000   0.05835589    -1.16127        0.088795598   -0.98495186    -0.016494839  
   1259000   0.058081307   -1.1465238      0.090156868   -0.96925619    -0.022720887  
   1260000   0.058943708   -1.1494552      0.089541153   -0.97150989    -0.0082832825 
   1261000   0.058084698   -1.1612011      0.088827781   -0.98525755    -0.016776937  
   1262000   0.058864516   -1.1502998      0.087998785   -0.97401564    -0.01311883   
   1263000   0.058461414   -1.1490336      0.088940954   -0.97241185    -0.0015098079 
   1264000   0.058227111   -1.1498666      0.089888923   -0.97264827    -0.012724956  
   1265000   0.057163276   -1.1528978      0.08961231    -0.97755162    -0.024905991  
   1266000   0.058176163   -1.1609736      0.087749047   -0.98597161    -0.023353128  
   1267000   0.058238711   -1.1528434      0.089138284   -0.97635832     0.00044541673
   1268000   0.057795811   -1.1492559      0.089655264   -0.97291812    -0.032771127  
   1269000   0.058382995   -1.1423153      0.090744612   -0.96400753    -0.0036283413 
   1270000   0.058348694   -1.1536374      0.089701601   -0.97642402    -0.0020373231 
   1271000   0.058556963   -1.1604401      0.08850593    -0.98411008    -0.024814745  
   1272000   0.058559596   -1.1492609      0.089844217   -0.97158865    -0.023845525  
   1273000   0.0575595     -1.150898       0.090093173   -0.9744767     -0.011205995  
   1274000   0.057906849   -1.1479302      0.08969964    -0.9713815      0.0015739455 
   1275000   0.057652153   -1.157289       0.089698859   -0.98112311    -0.010945873  
   1276000   0.058884968   -1.1490437      0.088005646   -0.97272195     0.00035654624
   1277000   0.057457921   -1.1520667      0.089500455   -0.97639044    -0.012941094  
   1278000   0.058066147   -1.1511633      0.087495318   -0.97657996    -0.0044443122 
   1279000   0.057789725   -1.1699896      0.091592728   -0.99172346    -0.01287281   
   1280000   0.057632588   -1.1565795      0.08961766    -0.98052411    -0.010448813  
   1281000   0.058251791   -1.1498231      0.09171146    -0.97074525    -0.015094657  
   1282000   0.058825263   -1.1581279      0.090740807   -0.97916057    -0.01735284   
   1283000   0.057944022   -1.1486905      0.092811892   -0.96897381    -0.029369991  
   1284000   0.058370994   -1.1629918      0.092885057   -0.98256159    -0.021714502  
   1285000   0.057906493   -1.1472546      0.091567549   -0.96883847    -0.014699054  
   1286000   0.057903169   -1.1532149      0.091802336   -0.97456901    -0.019921357  
   1287000   0.058525299   -1.1593503      0.090656472   -0.98091719    -0.013307009  
   1288000   0.057240167   -1.1654382      0.093128887   -0.98646017    -0.0086028459 
   1289000   0.057412496   -1.1518972      0.092366232   -0.97342338    -0.013758024  
   1290000   0.057218838   -1.1486425      0.09026701    -0.97255828    -0.020826848  
   1291000   0.058089331   -1.1597422      0.089153016   -0.9834664     -0.01687325   
   1292000   0.056383818   -1.1584657      0.091443333   -0.98245752     0.0044475289 
   1293000   0.056752689   -1.1498193      0.090804276   -0.97389701    -0.019562887  
   1294000   0.057494503   -1.1534868      0.092866792   -0.97438939    -0.019909953  
   1295000   0.057077848   -1.1555012      0.091873186   -0.97802228    -0.017030767  
   1296000   0.057624123   -1.1662808      0.091651313   -0.98820447    -0.013617426  
   1297000   0.059062705   -1.1491475      0.092082853   -0.96848206    -0.027775104  
   1298000   0.05822877    -1.1546669      0.094677479   -0.9726575     -0.015240938  
   1299000   0.05862068    -1.1503074      0.093686221   -0.96870153    -0.02009982   
   1300000   0.058886453   -1.1459249      0.092847138   -0.96475953    -0.015081493  
   1301000   0.058430043   -1.1514558      0.093179633   -0.9706424     -0.024706178  
   1302000   0.057505224   -1.1415662      0.094454997   -0.96086453    -0.010571298  
   1303000   0.057770076   -1.1601428      0.093634229   -0.97986465    -0.038055248  
   1304000   0.058532919   -1.1593056      0.092839642   -0.97867787    -0.01547546   
   1305000   0.057976216   -1.1441789      0.092474774   -0.96475101    -0.036298239  
   1306000   0.057679579   -1.1549533      0.093645701   -0.97479941    -0.014467323  
   1307000   0.057050119   -1.1526635      0.093718696   -0.97338063    -0.023754158  
   1308000   0.057822462   -1.1608294      0.094073217   -0.9800337     -0.0073441789 
   1309000   0.058346661   -1.1592099      0.095781941   -0.97591927    -0.011522674  
   1310000   0.058496623   -1.1655549      0.095011621   -0.98280968    -0.011051022  
   1311000   0.058646279   -1.1527577      0.095157802   -0.96964179    -0.015425109  
   1312000   0.057862018   -1.1537055      0.095217914   -0.97170574    -0.0078227089 
   1313000   0.057392304   -1.1644478      0.093947782   -0.98442265     0.00017474867
   1314000   0.058049225   -1.1527232      0.095418246   -0.97024238    -0.006698935  
   1315000   0.05773934    -1.1586368      0.095488766   -0.97655021    -0.017433883  
   1316000   0.057837522   -1.156566       0.093822878   -0.975998       0.0031652918 
   1317000   0.058135904   -1.1621545      0.097435926   -0.97752597    -0.015753247  
   1318000   0.058202939   -1.1556756      0.095578389   -0.97280407    -0.0017209338 
   1319000   0.057432458   -1.1591889      0.095350128   -0.9777012     -0.0026336821 
   1320000   0.058305497   -1.1620528      0.095409556   -0.97919628    -0.020319027  
   1321000   0.05827488    -1.1612366      0.09385697    -0.97997861    -0.019612654  
   1322000   0.05776863    -1.1619024      0.096032655   -0.97922793     0.0024802231 
   1323000   0.057929291   -1.1521637      0.094682468   -0.97059852    -0.0024174729 
   1324000   0.058730444   -1.1675656      0.094893487   -0.98458785     0.0089767364 
   1325000   0.058226792   -1.1550812      0.09665701    -0.97109522    -0.021891286  
   1326000   0.0588945     -1.1559138      0.095958384   -0.97162502    -0.0049582378 
   1327000   0.059412661   -1.1569254      0.095466321   -0.9723516     -0.0053352213 
   1328000   0.05822973    -1.1566151      0.094540295   -0.97474153     0.017749302  
   1329000   0.058565903   -1.1594595      0.095141411   -0.97648059    -0.0041885124 
   1330000   0.058714096   -1.1618127      0.093774953   -0.979978      -0.0039823612 
   1331000   0.058815709   -1.1526265      0.093931271   -0.97048304    -0.018594728  
   1332000   0.058287767   -1.1518348      0.095467637   -0.96894682    -0.0036950671 
   1333000   0.058690817   -1.1659181      0.095191803   -0.98270139     0.00011356147
   1334000   0.05952793    -1.1632827      0.094582631   -0.97941972    -0.006080154  
   1335000   0.058212653   -1.1595925      0.094193111   -0.97809166    -0.01628456   
   1336000   0.058311788   -1.1555364      0.096659225   -0.97142081    -0.0069872224 
   1337000   0.057247744   -1.1672803      0.096491299   -0.9849285     -0.013447235  
   1338000   0.058015647   -1.149828       0.094797069   -0.96801869    -0.019015744  
   1339000   0.058717288   -1.163512       0.097302095   -0.9781453     -0.0070050117 
   1340000   0.059044942   -1.1534131      0.094050549   -0.97080661     0.0085439102 
   1341000   0.058946108   -1.1569061      0.094502754   -0.97399562    -0.0075714263 
   1342000   0.057793959   -1.156454       0.094654882   -0.97511941    -0.013132687  
   1343000   0.058053206   -1.1560977      0.094926491   -0.97410264     0.0086458377 
   1344000   0.05801803    -1.1542097      0.095540481   -0.97165338    -0.013321401  
   1345000   0.059010081   -1.1532577      0.093843995   -0.97091001    -0.016237912  
   1346000   0.058229956   -1.1572224      0.095844805   -0.97404398    -0.014706078  
   1347000   0.058741079   -1.1508151      0.096906026   -0.96580882     0.00059934654
   1348000   0.0578201     -1.1607059      0.096333055   -0.97765389    -0.003455178  
   1349000   0.057617653   -1.1612521      0.096923644   -0.9779131     -0.014111662  
   1350000   0.058713322   -1.1585353      0.096058251   -0.97441848    -0.012533518  
   1351000   0.058516627   -1.1568397      0.097675892   -0.97140022    -0.014570518  
   1352000   0.058050667   -1.162018       0.098435196   -0.97651802    -0.013146844  
   1353000   0.05848745    -1.1675046      0.095963558   -0.98382121    -0.0029607135 
   1354000   0.059268969   -1.1695471      0.095914852   -0.98474028    -0.022116015  
   1355000   0.058320634   -1.1621286      0.095420151   -0.9792388     -4.3550362e-05
   1356000   0.058481764   -1.1621826      0.093613352   -0.98085787    -0.014191467  
   1357000   0.05913418    -1.155044       0.093073786   -0.97328034     0.0040139525 
   1358000   0.057876274   -1.1558771      0.09368767    -0.97538625    -0.012005964  
   1359000   0.058939503   -1.1592405      0.094883077   -0.97595953    -0.016469446  
   1360000   0.058151574   -1.1576392      0.095182294   -0.97524075    -0.014298788  
   1361000   0.059073656   -1.1690587      0.093544815   -0.98691484    -0.0075167408 
   1362000   0.059188617   -1.1605083      0.093485699   -0.97825116    -0.030294778  
   1363000   0.059185945   -1.1654752      0.093404438   -0.98330333    -0.0067336937 
   1364000   0.05832133    -1.1601511      0.094457112   -0.97822327    -0.0014259245 
   1365000   0.057659038   -1.1657598      0.09254543    -0.98673701    -0.0037477951 
   1366000   0.058208048   -1.1704779      0.092439198   -0.99073795    -0.0081954709 
   1367000   0.057466715   -1.1579157      0.093238565   -0.97848823    -0.016382879  
   1368000   0.058677385   -1.1654503      0.093922511   -0.98352311     0.0043008715 
   1369000   0.058174545   -1.1656757      0.093588072   -0.98483712    -0.01671174   
   1370000   0.058122363   -1.1623612      0.092833166   -0.98235569     0.00034352988
   1371000   0.057454828   -1.1595071      0.09234865    -0.9809873     -0.013522263  
   1372000   0.058077077   -1.160112       0.093095596   -0.97991207    -0.018604655  
   1373000   0.057955538   -1.170689       0.091947117   -0.99181981    -0.0092451106 
   1374000   0.058357221   -1.1610513      0.093649042   -0.97987773     0.0018424649 
   1375000   0.058289079   -1.1614978      0.093453597   -0.98062191     0.015004898  
   1376000   0.057946633   -1.1612831      0.095631471   -0.9787429     -0.023514759  
   1377000   0.057140619   -1.1572669      0.092525622   -0.97904137    -0.0071819306 
   1378000   0.057703404   -1.158147       0.092406648   -0.97919645     0.013003572  
   1379000   0.056916241   -1.1721951      0.092370593   -0.99446111    -0.020919143  
   1380000   0.057904073   -1.1556919      0.093497636   -0.97534936    -0.0059804374 
   1381000   0.057352779   -1.1719588      0.092917108   -0.99302362    -0.01215653   
   1382000   0.058251317   -1.1706414      0.093664884   -0.9896108     -0.011071555  
   1383000   0.058365944   -1.1581191      0.092951773   -0.97762971    -0.014225438  
   1384000   0.058597982   -1.159004       0.094495421   -0.97662294    -4.3278372e-05
   1385000   0.058173362   -1.165502       0.094087157   -0.98416604    -0.0051170611 
   1386000   0.058399172   -1.1638431      0.093346251   -0.98290942    -0.025090796  
   1387000   0.058329896   -1.1624499      0.093313237   -0.98165308    -0.02193639   
   1388000   0.058020168   -1.1639606      0.093584735   -0.98335682    -0.010645006  
   1389000   0.058398026   -1.1554457      0.094557514   -0.97330245    -0.0078393634 
   1390000   0.058852769   -1.1637816      0.095678203   -0.97983559    -0.0096084409 
   1391000   0.05804286    -1.1587098      0.095062837   -0.97659395    -0.0090936983 
   1392000   0.057188792   -1.1606695      0.093964588   -0.98093282    -0.029915035  
   1393000   0.057586871   -1.1658108      0.094318174   -0.98512343    -0.029673356  
   1394000   0.057988063   -1.1632063      0.095288148   -0.9809473     -0.020558807  
   1395000   0.058178139   -1.1670515      0.096142652   -0.98365285    -0.0017991124 
   1396000   0.05850078    -1.1595733      0.09474176    -0.97709169    -0.016184122  
   1397000   0.058331195   -1.1560378      0.095166341   -0.97338596    -0.013650552  
   1398000   0.057802495   -1.163044       0.096260312   -0.98009118    -0.018741434  
   1399000   0.058082071   -1.1612688      0.096315885   -0.97784106    -0.018805129  
   1400000   0.058358917   -1.1745407      0.096114361   -0.99089927    -0.010767978  
   1401000   0.057857019   -1.1666363      0.097629559   -0.98223245    -0.031650996  
   1402000   0.058466659   -1.1654561      0.097040312   -0.98072708    -0.016539403  
   1403000   0.059416343   -1.1719914      0.093819064   -0.98905933    -0.015222467  
   1404000   0.058794029   -1.1678778      0.09301485    -0.98668329    -0.0095623853 
   1405000   0.058370855   -1.1667307      0.092500163   -0.9866855     -0.014825399  
   1406000   0.057384354   -1.1587523      0.093118236   -0.97956864    -0.017256362  
   1407000   0.058061311   -1.1647933      0.093245584   -0.98446696    -0.014309675  
   1408000   0.058708009   -1.150758       0.092900105   -0.96980728    -0.036208842  
   1409000   0.058049583   -1.1620908      0.091918432   -0.98310923    -0.0053560952 
   1410000   0.058374325   -1.1625313      0.091652537   -0.98332857    -0.016476064  
   1411000   0.058878133   -1.1574823      0.090992505   -0.97818403    -0.015045413  
   1412000   0.058278833   -1.1595714      0.092863302   -0.97930117    -0.020700561  
   1413000   0.058852235   -1.1648788      0.09076236    -0.98584947    -0.0057370517 
   1414000   0.05849044    -1.1569737      0.092293967   -0.97695538    -0.015530926  
   1415000   0.058957317   -1.1567762      0.092213496   -0.97613815    -0.013460344  
   1416000   0.058682014   -1.165919       0.092815364   -0.98509197    -0.019872871  
   1417000   0.057592953   -1.1722786      0.091936491   -0.99396386    -0.022226904  
   1418000   0.05756381    -1.1730452      0.092516954   -0.99419368    -0.031274025  
   1419000   0.058115185   -1.1786729      0.093213127   -0.99829827    -0.015851081  
   1420000   0.058374872   -1.1579814      0.092464305   -0.97796607    -0.03137276   
   1421000   0.057390762   -1.1735517      0.09285166    -0.99462496    -0.030344121  
   1422000   0.057857292   -1.1669763      0.091977603   -0.98822399    -0.022783465  
   1423000   0.058547439   -1.1727428      0.090950424   -0.99398251    -0.0044555914 
   1424000   0.057436546   -1.1677415      0.093570511   -0.98802725    -0.011767815  
   1425000   0.058093866   -1.1650548      0.091276978   -0.98664831    -0.018927997  
   1426000   0.0568994     -1.1581339      0.093021242   -0.97977454    -0.021380858  
   1427000   0.057615158   -1.1636403      0.091713524   -0.98551516    -0.0024426034 
   1428000   0.058150319   -1.1629668      0.092141317   -0.98361126    -0.021367382  
   1429000   0.058870721   -1.171851       0.09185869    -0.99169764    -0.0072401672 
   1430000   0.058568574   -1.169801       0.094374494   -0.98758495    -0.032832768  
   1431000   0.057665495   -1.1645704      0.095196141   -0.9828872     -0.01591677   
   1432000   0.058214396   -1.1645963      0.09421528    -0.98307074    -0.015770316  
   1433000   0.059353191   -1.171487       0.091449021   -0.99101965    -0.018843678  
   1434000   0.057881933   -1.1751233      0.090825724   -0.9974859     -0.0082298464 
   1435000   0.059425115   -1.1723582      0.09104449    -0.99218751    -0.0078694932 
   1436000   0.059097536   -1.1641006      0.091127524   -0.98433823    -0.014562599  
   1437000   0.05850867    -1.1676788      0.090683499   -0.98924358    -0.0066350786 
   1438000   0.058686796   -1.1642432      0.09056057    -0.98566379     0.0096437735 
   1439000   0.058910812   -1.1671783      0.090870346   -0.9879531     -0.028419087  
   1440000   0.05821603    -1.1559143      0.090516521   -0.97808504    -0.0043597749 
   1441000   0.058004658   -1.1644933      0.090407212   -0.98709029    -0.013101746  
   1442000   0.057772596   -1.1758132      0.089901395   -0.99926406     0.014922335  
   1443000   0.058138638   -1.1638281      0.090484636   -0.98614676    -0.016975688  
   1444000   0.057659078   -1.1657032      0.091937188   -0.98728859    -0.003036421  
   1445000   0.058223752   -1.1535878      0.092015834   -0.97424765    -0.030130912  
   1446000   0.058173534   -1.1641553      0.089162515   -0.98774377     0.002793463  
   1447000   0.057417638   -1.1565409      0.09187465    -0.97855094    -0.023995543  
   1448000   0.057004347   -1.16934        0.091682899   -0.99216161    -0.0038360146 
   1449000   0.057718734   -1.1640691      0.090958829   -0.98654333    -0.0060773314 
   1450000   0.057729996   -1.1735488      0.090936138   -0.99602885    -0.015863454  
   1451000   0.057779344   -1.1588037      0.092134803   -0.98001102    -0.016060394  
   1452000   0.057883655   -1.1758663      0.091977359   -0.99707464    -0.0027815719 
   1453000   0.058628921   -1.1748859      0.09004265    -0.99691125     0.001012265  
   1454000   0.05778769    -1.165296       0.090807293   -0.98781836    -0.015881962  
   1455000   0.058403244   -1.1654742      0.089780404   -0.98810021    -0.0069972759 
   1456000   0.057066407   -1.1538651      0.090494641   -0.97778194     0.0027451296 
   1457000   0.057868873   -1.168795       0.091994624   -0.99000826     0.0065624393 
   1458000   0.058957095   -1.1835292      0.090107017   -1.0049979      0.0029779948 
   1459000   0.057737141   -1.1767012      0.091793237   -0.99831347     0.0076009078 
   1460000   0.057438782   -1.159675       0.091839394   -0.98168859     0.0022707224 
   1461000   0.056896666   -1.1601154      0.091592334   -0.9831891     -0.0084847848 
   1462000   0.057126684   -1.1654784      0.089440648   -0.99035875     0.0005882823 
   1463000   0.057335131   -1.1702566      0.090306165   -0.99395882    -0.011133523  
   1464000   0.057315117   -1.1673165      0.091495076   -0.98985985    -0.0010165134 
   1465000   0.056484188   -1.171494       0.09168695    -0.99509172    -0.0054685329 
   1466000   0.058295068   -1.1726833      0.09181268    -0.99343934     0.0063487932 
   1467000   0.057750121   -1.1712035      0.092970145   -0.99161935     0.0082597936 
   1468000   0.058422918   -1.1613433      0.09159186    -0.98212837     0.010363133  
   1469000   0.058343154   -1.1775556      0.091226325   -0.99882588    -0.011928139  
   1470000   0.05754073    -1.1697071      0.092327894   -0.99107922    -0.0010222575 
   1471000   0.058588082   -1.173535       0.092775622   -0.99288858    -0.0089126453 
   1472000   0.058664844   -1.1670198      0.093546832   -0.98548705    -0.0070752006 
   1473000   0.057928428   -1.1600002      0.090696912   -0.98242182     0.014146773  
   1474000   0.057699904   -1.1678607      0.092348437   -0.98897353    -0.0053701648 
   1475000   0.058189401   -1.1604527      0.092410033   -0.98076979     0.0027928965 
   1476000   0.057635898   -1.1669125      0.092002225   -0.98846754     0.013293949  
   1477000   0.058380495   -1.175872       0.090457025   -0.99785549     0.0055092737 
   1478000   0.058056249   -1.1747572      0.092838292   -0.99484573     0.0085237544 
   1479000   0.057566164   -1.1726454      0.09135707    -0.99495026     0.011471648  
   1480000   0.057743404   -1.1675702      0.093308057   -0.9876582     -0.0044346156 
   1481000   0.058164063   -1.1791358      0.091927288   -0.99997363    -0.00090188793
   1482000   0.058053831   -1.1698772      0.092347882   -0.99045978     0.011919763  
   1483000   0.057863172   -1.1656958      0.094083831   -0.98482838     0.0058734235 
   1484000   0.059049064   -1.166228       0.093156322   -0.98450951     0.014363756  
   1485000   0.05859591    -1.1671941      0.094948544   -0.98436306    -0.001854536  
   1486000   0.058418081   -1.170219       0.094507114   -0.98809611     0.012250663  
   1487000   0.058139922   -1.1738887      0.094250266   -0.9924398     -0.010629428  
   1488000   0.058515913   -1.1681707      0.093330933   -0.98707722    -0.0072180302 
   1489000   0.057963698   -1.168943       0.092271868   -0.98973677     0.0075519893 
   1490000   0.058320118   -1.1719502      0.092715367   -0.99176599     0.0080741969 
   1491000   0.05799232    -1.1572949      0.095269655   -0.97504796     0.0070575587 
   1492000   0.059031651   -1.1704643      0.095380897   -0.98654738     0.0099527816 
   1493000   0.058216249   -1.179785       0.094116195   -0.99835573     0.0021275825 
   1494000   0.057217166   -1.1686515      0.094493001   -0.98834381     0.00038306048
   1495000   0.057748098   -1.1685491      0.093690577   -0.98824759     0.0016629976 
   1496000   0.057826512   -1.1668922      0.093447114   -0.98671648     0.019256438  
   1497000   0.057391933   -1.1575353      0.091549596   -0.97990891    -0.006663267  
   1498000   0.05733357    -1.172273       0.095015627   -0.99126811     0.0014313203 
   1499000   0.057392208   -1.1727678      0.095268151   -0.99142245    -0.0075493022 
   1500000   0.058738132   -1.159247       0.094767948   -0.97638324    -0.0025885559 
   1501000   0.058557204   -1.163636       0.094957619   -0.98085393    -0.01585581   
   1502000   0.059225161   -1.1694788      0.094418245   -0.98623432     0.016603425  
   1503000   0.058824949   -1.1712741      0.093734926   -0.98931314    -0.0070736776 
   1504000   0.058080182   -1.1698687      0.094634247   -0.9881254     -0.0005777887 
   1505000   0.057700801   -1.1565611      0.093144701   -0.97687633    -0.0046749451 
   1506000   0.058261365   -1.1759772      0.094132168   -0.99446424    -0.0053679036 
   1507000   0.0586692     -1.1731984      0.09419199    -0.99101396    -0.014173912  
   1508000   0.058720608   -1.1642378      0.093263617   -0.98290463     0.0011019696 
   1509000   0.05789267    -1.1590032      0.094492697   -0.97768269     0.0070752477 
   1510000   0.059305197   -1.1774549      0.094228254   -0.99428037    -0.016949706  
   1511000   0.058829159   -1.1706472      0.091348072   -0.9910668      0.00077275018
   1512000   0.05859878    -1.1692756      0.092704723   -0.98868408    -0.0095844964 
   1513000   0.057917004   -1.1757237      0.090691481   -0.99816788     0.0018014172 
   1514000   0.058379587   -1.181506       0.090650292   -1.0032976      0.0071530877 
   1515000   0.058653465   -1.1801843      0.090752537   -1.001463      -0.00062319924
   1516000   0.05799389    -1.1717276      0.091333016   -0.99341498    -0.018454949  
   1517000   0.058168451   -1.167611       0.09178986    -0.98857971    -0.020666057  
   1518000   0.058753462   -1.1596794      0.091517892   -0.98004266    -0.020688476  
   1519000   0.058278597   -1.1714752      0.091857545   -0.99221109    -0.015898338  
   1520000   0.059138116   -1.1714562      0.092386234   -0.99037424     0.0030647651 
   1521000   0.059365813   -1.1766378      0.091454533   -0.99614604    -0.012837201  
   1522000   0.058284656   -1.169595       0.091175026   -0.99100427    -0.018238928  
   1523000   0.058047778   -1.1665874      0.093528758   -0.98599823    -0.030952992  
   1524000   0.058869811   -1.1676886      0.093755552   -0.98563973    -0.00033534798
   1525000   0.058545454   -1.1697442      0.092420726   -0.98951658    -0.012113327  
   1526000   0.058944109   -1.1713333      0.093087576   -0.98984099     0.0044858564 
   1527000   0.058403235   -1.1561099      0.093075196   -0.97544116     0.0066505235 
   1528000   0.058893115   -1.1603513      0.0943843     -0.97763871    -0.018211918  
   1529000   0.058980536   -1.1698967      0.092998076   -0.98843925    -0.018541265  
   1530000   0.05886447    -1.168694       0.09374377    -0.98666491    -0.0098847454 
   1531000   0.059379308   -1.1781302      0.093579388   -0.99549332    -0.006002338  
   1532000   0.057869335   -1.1696967      0.094123773   -0.98878009    -0.036602372  
   1533000   0.058910492   -1.1627112      0.093994112   -0.98036273    -0.018138492  
   1534000   0.057635879   -1.1710137      0.09413806    -0.99043301    -0.01665187   
   1535000   0.058763663   -1.1634501      0.094300991   -0.98101498    -0.01948612   
   1536000   0.057626681   -1.1714309      0.095933102   -0.98906891     0.0017679181 
   1537000   0.057853271   -1.1660834      0.093820249   -0.98549448    -0.028059253  
   1538000   0.057113937   -1.1809277      0.093845571   -1.0014223     -0.0020622216 
   1539000   0.058666559   -1.1829836      0.091968323   -1.0030268     -0.018414337  
   1540000   0.058573431   -1.1677976      0.092720596   -0.98722819    -0.017949807  
   1541000   0.058186567   -1.1717381      0.09449618    -0.98997336    -0.021385233  
   1542000   0.057708409   -1.176725       0.094648184   -0.9955254     -0.019752631  
   1543000   0.058516087   -1.1622088      0.094859652   -0.97958633    -0.028470378  
   1544000   0.059217641   -1.1755082      0.094419307   -0.99227394    -0.023778069  
   1545000   0.058673014   -1.1689121      0.093359619   -0.9875543     -0.022867367  
   1546000   0.057910715   -1.1712071      0.09369273    -0.99065947    -0.011416565  
   1547000   0.057405519   -1.1873185      0.094239235   -1.0069821     -0.0064024379 
   1548000   0.058549394   -1.1760909      0.094056275   -0.99422191    -0.021356745  
   1549000   0.058032579   -1.1773662      0.095282938   -0.99504566    -0.0056230518 
   1550000   0.058252635   -1.1637583      0.094534435   -0.98185617    -0.027539708  
   1551000   0.0591123     -1.1758958      0.093772465   -0.99346636    -0.016189636  
   1552000   0.058457816   -1.1809131      0.095555261   -0.99768242    -0.015044289  
   1553000   0.057783105   -1.1808721      0.095313718   -0.99889488    -0.029825753  
   1554000   0.05837389    -1.1790363      0.095338377   -0.99614839    -0.0081924555 
   1555000   0.059189169   -1.1699689      0.092494142   -0.98870251    -0.030708034  
   1556000   0.058382474   -1.16349        0.093739346   -0.9821882     -0.0053311759 
   1557000   0.057822769   -1.1660436      0.095662984   -0.98365761    -0.01973298   
   1558000   0.059148934   -1.1826768      0.094269525   -0.99969529    -0.015629855  
   1559000   0.058547068   -1.1685332      0.095252226   -0.98547172    -0.0082762874 
   1560000   0.058587091   -1.1663936      0.093762999   -0.98476132    -0.017877867  
   1561000   0.058529545   -1.1778822      0.094687687   -0.99541149    -0.0061756823 
   1562000   0.058164431   -1.1781185      0.095005549   -0.99587758    -0.0073234964 
   1563000   0.058772965   -1.1712458      0.094497728   -0.98860005    -0.013729766  
   1564000   0.05937563    -1.1723021      0.095196182   -0.98805401    -0.021454223  
   1565000   0.058382945   -1.1675701      0.095450693   -0.98455625    -0.013198991  
   1566000   0.058819422   -1.1890173      0.096372053   -1.0044275     -0.03208029   
   1567000   0.058917838   -1.1676101      0.096927304   -0.98231741    -0.024064106  
   1568000   0.058145502   -1.1735611      0.094856464   -0.99149763     0.0097090146 
   1569000   0.059778556   -1.1679403      0.096094717   -0.98218935    -0.011686566  
   1570000   0.059974992   -1.1820225      0.097014027   -0.99505759    -0.0048755563 
   1571000   0.058617898   -1.1724246      0.097349195   -0.9871599     -0.001036267  
   1572000   0.058627441   -1.1796274      0.095650393   -0.99604721    -0.026845634  
   1573000   0.058394444   -1.1733532      0.096628118   -0.98914469    -0.01843409   
   1574000   0.057878618   -1.1709502      0.096481929   -0.98766159    -0.013986754  
   1575000   0.058612405   -1.180109       0.095475098   -0.99672666    -0.016725608  
   1576000   0.057787745   -1.1757596      0.097174231   -0.99191498    -0.033467137  
   1577000   0.057694424   -1.1721701      0.094665699   -0.99097396    -0.0039737146 
   1578000   0.057853928   -1.1759845      0.096308755   -0.99290609    -0.016568364  
   1579000   0.058693049   -1.1633119      0.097423637   -0.97786003    -0.016783707  
   1580000   0.058758682   -1.1720299      0.097049956   -0.98685326    -0.025106153  
   1581000   0.059285713   -1.1881524      0.095606749   -1.0036286     -0.010123734  
   1582000   0.058709995   -1.172659       0.096209216   -0.98839615    -0.0062469223 
   1583000   0.059688919   -1.1835458      0.095630901   -0.99839312    -0.01625914   
   1584000   0.0586181     -1.167076       0.098463004   -0.98069718    -0.012225938  
   1585000   0.058686267   -1.1749308      0.095548256   -0.99136451    -0.018684849  
   1586000   0.059510681   -1.1774489      0.095715919   -0.99247845    -0.0081851564 
   1587000   0.058546052   -1.1842788      0.097501227   -0.99896983    -0.013974142  
   1588000   0.057815233   -1.1706636      0.095728646   -0.98822333    -0.020529309  
   1589000   0.05910665    -1.1694618      0.096819354   -0.98399392    -0.0082095431 
   1590000   0.058849288   -1.183929       0.096919465   -0.998747      -0.015164431  
   1591000   0.057790552   -1.170296       0.093672318   -0.98994899    -0.024618486  
   1592000   0.058077131   -1.1741039      0.095584756   -0.99141471    -0.024925157  
   1593000   0.057096775   -1.1713452      0.095555015   -0.99015611    -0.010773712  
   1594000   0.058566915   -1.1651009      0.09494914    -0.98231275    -0.0048506061 
   1595000   0.057760957   -1.1757365      0.096096253   -0.99300999    -0.025172658  
   1596000   0.057777271   -1.1715176      0.095816617   -0.98904625    -0.022143599  
   1597000   0.057774055   -1.1738199      0.095630889   -0.99153907    -0.028481949  
   1598000   0.058817245   -1.1728012      0.095444509   -0.98914217    -0.013178608  
   1599000   0.057730047   -1.1788467      0.09702465    -0.99523812    -0.017680149  
   1600000   0.058383913   -1.1732717      0.095910462   -0.98979669    -0.024130127  
   1601000   0.058170567   -1.1652596      0.097229033   -0.98078594    -0.031340718  
   1602000   0.058529237   -1.1753662      0.097225373   -0.99035827    -0.01975169   
   1603000   0.058703814   -1.1760815      0.097730811   -0.99030633    -0.031757549  
   1604000   0.058425361   -1.1805325      0.097168763   -0.99573696    -0.030028018  
   1605000   0.058343198   -1.1650352      0.096728485   -0.98080319    -0.010160243  
   1606000   0.057525735   -1.1716822      0.099150021   -0.9862547     -0.024398359  
   1607000   0.057771953   -1.1676982      0.09759585    -0.98345562    -0.012936289  
   1608000   0.058172705   -1.1727264      0.09748775    -0.98799085    -0.014377996  
   1609000   0.058733604   -1.1739973      0.09812185    -0.98778646    -0.031687261  
   1610000   0.059116764   -1.185236       0.098967295   -0.99760504    -0.015849228  
   1611000   0.056618433   -1.1638137      0.097664441   -0.98123254    -0.01633252   
   1612000   0.057552766   -1.1858914      0.098712851   -1.0008606     -0.032870767  
   1613000   0.058192212   -1.1763622      0.096305148   -0.99277997    -0.019495137  
   1614000   0.058851795   -1.17128        0.098983147   -0.98403058    -0.010961114  
   1615000   0.059139745   -1.1662165      0.097825431   -0.97969291    -0.0017974502 
   1616000   0.059087876   -1.1749434      0.097920593   -0.98840243    -0.012586385  
   1617000   0.059741888   -1.1671971      0.096162772   -0.98143306    -0.010559776  
   1618000   0.059495944   -1.179133       0.096794091   -0.99310654    -0.025472122  
   1619000   0.05929153    -1.1881845      0.094679475   -1.0045792     -0.019116562  
   1620000   0.059001715   -1.1688378      0.095894361   -0.98445232    -0.0096556447 
   1621000   0.059094104   -1.1662148      0.094497702   -0.98308738     0.0073387729 
   1622000   0.058674451   -1.1765164      0.094228325   -0.9942877     -0.010779191  
   1623000   0.058854047   -1.1799044      0.095293314   -0.99634141    -0.023198397  
   1624000   0.058972991   -1.1766048      0.095757889   -0.99239888    -0.0095388053 
   1625000   0.058130861   -1.1683017      0.095122961   -0.98599374    -0.0075789635 
   1626000   0.058681305   -1.1707499      0.093888438   -0.9888509     -0.009517788  
   1627000   0.058085666   -1.1781855      0.095493779   -0.99557446    -0.030930923  
   1628000   0.059433871   -1.1740042      0.095797906   -0.98906699     0.011763371  
   1629000   0.059291538   -1.1785847      0.09559233    -0.9940665      0.0008722205 
   1630000   0.058040185   -1.1737427      0.095057436   -0.99163621    -0.032201883  
   1631000   0.057637639   -1.1642193      0.09362221    -0.98415183     0.0065559637 
   1632000   0.058500587   -1.1822732      0.095364843   -0.99916875    -0.018325477  
   1633000   0.05943214    -1.1701588      0.094511721   -0.98651035    -0.015719357  
   1634000   0.059892751   -1.1875539      0.096928804   -1.0007975     -0.014607855  
   1635000   0.058110434   -1.1826062      0.096223282   -0.9992285     -0.019645238  
   1636000   0.058146377   -1.1673944      0.097781166   -0.98240495    -0.01493893   
   1637000   0.058086387   -1.1789377      0.096357371   -0.99546195    -0.028384403  
   1638000   0.057939645   -1.1785382      0.096106262   -0.9955337     -0.014530254  
   1639000   0.058644723   -1.1816696      0.097162957   -0.99655091    -0.032652841  
   1640000   0.058482909   -1.172472       0.096695948   -0.98806299    -0.025488339  
   1641000   0.058587708   -1.1733383      0.095353335   -0.99011471    -0.016529338  
   1642000   0.058469784   -1.1701346      0.096410139   -0.98603111    -0.016528366  
   1643000   0.059156634   -1.1790643      0.096034929   -0.99430584    -0.037844412  
   1644000   0.059881998   -1.1694053      0.095658789   -0.98393511    -0.023734958  
   1645000   0.058994777   -1.1847961      0.098162463   -0.99815288    -0.02663977   
   1646000   0.058076384   -1.1764027      0.097641396   -0.99165794    -0.016485681  
   1647000   0.057915819   -1.1795473      0.096955061   -0.99572969    -0.0088520402 
   1648000   0.058422943   -1.1742512      0.097701907   -0.98892615    -0.021900749  
   1649000   0.058923036   -1.1844268      0.097242541   -0.99881108    -0.026200407  
   1650000   0.058240215   -1.1763634      0.098232322   -0.99078206    -0.026642303  
   1651000   0.058370062   -1.1763423      0.095123825   -0.99367472    -0.022990533  
   1652000   0.057694938   -1.1871066      0.096869081   -1.0037063     -0.020163759  
   1653000   0.057920945   -1.1910873      0.096771371   -1.0074457     -0.021620861  
   1654000   0.057934777   -1.1781461      0.09667788    -0.99457723    -0.032024894  
   1655000   0.058647804   -1.1832122      0.097329177   -0.99792268    -0.018863684  
   1656000   0.058454648   -1.1963434      0.098569028   -1.0101038     -0.018202005  
   1657000   0.057666108   -1.1726845      0.097396171   -0.98880033    -0.014044854  
   1658000   0.059009649   -1.1820426      0.097054143   -0.99648543    -0.030636604  
   1659000   0.057929931   -1.1711382      0.096499191   -0.98775529    -0.019625814  
   1660000   0.05864894    -1.1761298      0.097248874   -0.9909189     -0.0087546543 
   1661000   0.058990941   -1.1810992      0.097260093   -0.9953641     -0.003342329  
   1662000   0.058582967   -1.1831505      0.098471797   -0.9968156     -0.015503924  
   1663000   0.059274739   -1.1771738      0.09763846    -0.99063473    -0.032017554  
   1664000   0.058858114   -1.1747727      0.097732358   -0.98876454    -0.018892637  
   1665000   0.058107899   -1.1852435      0.097556808   -1.0005361     -0.018519014  
   1666000   0.059077994   -1.1838539      0.097953654   -0.99729467    -0.026573522  
   1667000   0.059300875   -1.1816598      0.097229268   -0.99549074    -0.006947241  
   1668000   0.058698467   -1.1790649      0.096616765   -0.99441181    -0.019901858  
   1669000   0.058703095   -1.1796137      0.099372266   -0.9921982     -0.024564621  
   1670000   0.058991166   -1.1840483      0.099196844   -0.9963761     -0.033130472  
   1671000   0.057850411   -1.1762609      0.098939671   -0.99055679    -0.020689506  
   1672000   0.058262639   -1.1835372      0.099903758   -0.99625077    -0.023610591  
   1673000   0.058833068   -1.1832198      0.098307143   -0.99667441    -0.0091739286 
   1674000   0.059444185   -1.1788002      0.09958323    -0.99006216    -0.026720317  
   1675000   0.058621543   -1.1874355      0.098488352   -1.0010262     -0.0144402    
   1676000   0.058605782   -1.1759274      0.099358829   -0.98867128    -0.020650617  
   1677000   0.058090202   -1.1719833      0.097765786   -0.98709345    -0.020566084  
   1678000   0.058484773   -1.1756125      0.098905746   -0.98899092    -0.024887625  
   1679000   0.058859557   -1.1806834      0.097417173   -0.99498829    -0.0035541733 
   1680000   0.059077765   -1.1677539      0.098373133   -0.98077552    -0.015276247  
   1681000   0.058935885   -1.1815945      0.098971398   -0.99423063    -0.00075677662
   1682000   0.059664792   -1.1830331      0.099749809   -0.99379761    -0.01421207   
   1683000   0.058834039   -1.1797669      0.09936938    -0.99215783    -0.026730101  
   1684000   0.059122958   -1.1831132      0.097712569   -0.99672764    -0.019570135  
   1685000   0.058824549   -1.1911025      0.098640398   -1.0042367     -0.012029615  
   1686000   0.05742174    -1.1767973      0.099408001   -0.99126779    -0.016120062  
   1687000   0.058616563   -1.1826155      0.09971438    -0.99498767    -0.026241309  
   1688000   0.060464776   -1.1900848      0.097894994   -1.0015043     -0.020111257  
   1689000   0.058426119   -1.1750536      0.099901275   -0.98752443    -0.025473971  
   1690000   0.057964894   -1.1867612      0.10044344    -0.99938168    -0.022905983  
   1691000   0.058901347   -1.18046        0.099714045   -0.99240536    -0.01347178   
   1692000   0.058784145   -1.1791026      0.099048777   -0.99188896    -0.020956545  
   1693000   0.058057428   -1.1754326      0.098235929   -0.99012182    -0.019654654  
   1694000   0.059448955   -1.1825741      0.099357633   -0.9940545     -0.017743245  
   1695000   0.058441593   -1.1802415      0.099146438   -0.99344396    -0.015705464  
   1696000   0.058959805   -1.185139       0.10090612    -0.99580454    -0.015885774  
   1697000   0.060085863   -1.1858562      0.099699788   -0.99603922    -0.018401919  
   1698000   0.058664537   -1.1814694      0.099882034   -0.9936019     -0.021937359  
   1699000   0.059187759   -1.1781184      0.098167908   -0.9911803     -0.016585307  
   1700000   0.059425732   -1.1796837      0.097061545   -0.99349505    -0.0022473322 
   1701000   0.058834466   -1.1704433      0.097482989   -0.98472005    -0.023119784  
   1702000   0.059446402   -1.1817755      0.097590065   -0.9950273     -0.0057251444 
   1703000   0.059599423   -1.1795372      0.097482243   -0.99266733     0.0021690695 
   1704000   0.058981239   -1.1689512      0.099734058   -0.98075668    -0.020374064  
   1705000   0.05833349    -1.1820367      0.09782495    -0.99672277    -0.018890366  
   1706000   0.05819854    -1.1840152      0.096260155   -1.0004685     -0.0090616086 
   1707000   0.058940494   -1.1653129      0.095528229   -0.98138534    -0.02103909   
   1708000   0.059330147   -1.1920031      0.09497525    -1.0080442     -0.0068294829 
   1709000   0.05958585    -1.1894771      0.097187065   -1.0029228     -0.010168328  
   1710000   0.059585606   -1.1832015      0.09790739    -0.9959272     -0.017755486  
   1711000   0.059595493   -1.1860537      0.096385369   -1.0002866     -0.0071002763 
   1712000   0.060163151   -1.1790289      0.097031947   -0.99176384    -0.021759454  
   1713000   0.058676388   -1.1739389      0.097480755   -0.98845495    -0.022023662  
   1714000   0.059950524   -1.1895039      0.096570876   -1.0030188     -0.018385657  
   1715000   0.059628323   -1.1753509      0.0974621     -0.98845783     0.0002339891 
   1716000   0.05928592    -1.184593       0.09691251    -0.99876304    -0.020108476  
   1717000   0.059432911   -1.1909674      0.097756783   -1.0040728     -0.0074170894 
   1718000   0.059823772   -1.1871499      0.097439317   -0.99998653    -0.0058351494 
   1719000   0.060063212   -1.1666194      0.098142604   -0.97839356    -0.0073293063 
   1720000   0.05917919    -1.1795172      0.099097107   -0.99166277    -0.021307456  
   1721000   0.058681763   -1.1762047      0.098579126   -0.98961424    -0.012107614  
   1722000   0.059811461   -1.1846773      0.1008061     -0.9941656     -0.027787106  
   1723000   0.059527063   -1.1836431      0.098630798   -0.99573321     0.011389346  
   1724000   0.059394781   -1.1773372      0.098504053   -0.98975248    -0.0088611858 
   1725000   0.059182842   -1.1703624      0.097367751   -0.98423185    -0.00050906955
   1726000   0.060205175   -1.1784058      0.09859534    -0.98951437     0.0037312992 
   1727000   0.059514737   -1.1872618      0.096281087   -1.0017201      0.00012257308
   1728000   0.059428396   -1.194538       0.099345851   -1.006061      -0.009297218  
   1729000   0.059413047   -1.1808298      0.1010258     -0.9906959     -0.01396979   
   1730000   0.05994964    -1.1761871      0.099646631   -0.98662762    -0.011451469  
   1731000   0.059741113   -1.1686709      0.099743548   -0.97932722    -0.023288212  
   1732000   0.059419121   -1.1876557      0.10065762    -0.99788089    -0.011059014  
   1733000   0.059332278   -1.1807696      0.098639546   -0.99314316     0.0020296922 
   1734000   0.058033595   -1.1671955      0.098791742   -0.98136463    -0.017795718  
   1735000   0.059731991   -1.1809736      0.10047753    -0.99090961     0.010994745  
   1736000   0.060478409   -1.1776979      0.10209773    -0.98489426    -0.024778588  
   1737000   0.059414267   -1.1830201      0.10028932    -0.99362085    -0.017115238  
   1738000   0.060248341   -1.1829365      0.10252681    -0.99004887     0.0011625914 
   1739000   0.060556778   -1.1805749      0.10220089    -0.9875506     -0.0022211798 
   1740000   0.058737448   -1.1908028      0.10335624    -0.99935179    -0.005015236  
   1741000   0.060018399   -1.1824272      0.10068354    -0.99172767    -0.0040947244 
   1742000   0.059510265   -1.1824357      0.10268523    -0.99049656    -0.033907193  
   1743000   0.058555667   -1.1747659      0.10169128    -0.98525247    -0.022834846  
   1744000   0.060277163   -1.1786207      0.10265696    -0.98555963    -0.017717451  
   1745000   0.059179459   -1.1805215      0.10093877    -0.99082497    -0.011472128  
   1746000   0.05891656    -1.1787127      0.10266681    -0.98768246    -0.025641978  
   1747000   0.059477652   -1.1832591      0.10228398    -0.99177019    -0.011892028  
   1748000   0.06043966    -1.1830064      0.10288002    -0.98947858    -0.0018162725 
   1749000   0.059557003   -1.1794121      0.10184496    -0.98824312    -0.0036021997 
   1750000   0.059587716   -1.1868981      0.10244717    -0.99508094    -0.011109857  
   1751000   0.060215538   -1.1692819      0.10365602    -0.97531419    -0.00066798549
   1752000   0.060252503   -1.1770927      0.1040334     -0.98269217    -0.020478658  
   1753000   0.060854047   -1.1772215      0.10340905    -0.98254312    -0.012488015  
   1754000   0.060137016   -1.1848957      0.10316689    -0.99153496    -0.0048829133 
   1755000   0.060341268   -1.189865       0.103944      -0.99542082    -0.0084463685 
   1756000   0.060211792   -1.1826975      0.10470231    -0.98768918    -0.0089231348 
   1757000   0.060831993   -1.1793515      0.10633682    -0.98177845     0.0010658405 
   1758000   0.060331428   -1.1779215      0.10401858    -0.98341746    -0.0031288315 
   1759000   0.061197718   -1.1830301      0.10482971    -0.98641562    -0.0028713098 
   1760000   0.059703019   -1.1664832      0.10398864    -0.97295162    -0.017402465  
   1761000   0.059937126   -1.1741604      0.10441563    -0.97985065    -0.0031446488 
   1762000   0.059949709   -1.1749726      0.10287686    -0.98218276    -0.0068965152 
   1763000   0.058644204   -1.1786725      0.10326148    -0.98745607    -0.019536011  
   1764000   0.058492208   -1.1886038      0.10353787    -0.99733893    -0.011548521  
   1765000   0.058746856   -1.1921799      0.10355567    -1.0005154     -0.0097344416 
   1766000   0.059038544   -1.1783806      0.10480495    -0.98502923    -0.015724327  
   1767000   0.05978632    -1.1820308      0.1042478     -0.98811513    -0.0090393337 
   1768000   0.059660547   -1.1802204      0.10453016    -0.98621101    -0.013256761  
   1769000   0.058591737   -1.1870187      0.10595482    -0.99318757    -0.0067260569 
   1770000   0.060145142   -1.1805715      0.10388711    -0.98647835    -0.0090681032 
   1771000   0.060111465   -1.1957993      0.10365755    -1.0019862     -0.011530767  
   1772000   0.059502555   -1.1800771      0.10576853    -0.9850662     -0.014139616  
   1773000   0.058966475   -1.1751238      0.10576524    -0.98092024    -0.018475242  
   1774000   0.059823368   -1.1793194      0.10626209    -0.98333385    -0.010688245  
   1775000   0.059764281   -1.1801574      0.10592852    -0.98459399    -0.024836095  
   1776000   0.060282872   -1.1757894      0.10541322    -0.9799635     -0.0033864671 
   1777000   0.059881147   -1.1823174      0.10566698    -0.98684028    -0.020267384  
   1778000   0.06015707    -1.1795161      0.10559487    -0.98369728    -0.01193832   
   1779000   0.060791728   -1.1790712      0.10470881    -0.98318658    -0.0043029773 
   1780000   0.059649369   -1.18287        0.10428479    -0.98912266    -0.018495925  
   1781000   0.059520466   -1.1868662      0.10539791    -0.99219915    -0.021778913  
   1782000   0.059395712   -1.1831341      0.10426721    -0.9897848     -0.00098930542
   1783000   0.059904315   -1.1849052      0.1050289     -0.99003141    -0.014769456  
   1784000   0.059505582   -1.1744426      0.1057236     -0.97947209     0.0003126274 
   1785000   0.060576703   -1.189315       0.10600415    -0.99245756     0.0078380818 
   1786000   0.060507679   -1.179074       0.10505669    -0.98326752    -0.018451429  
   1787000   0.060701766   -1.1788903      0.10471727    -0.98313212    -0.016410264  
   1788000   0.060170648   -1.1877662      0.10401711    -0.99350475    -0.013071228  
   1789000   0.059718148   -1.1865334      0.10435868    -0.99260902    -0.021145376  
   1790000   0.060217668   -1.1643872      0.10643561    -0.9676367      0.0028188396 
   1791000   0.061415324   -1.1789379      0.10706239    -0.97976439    -0.0084038384 
   1792000   0.060328653   -1.1804089      0.10708863    -0.98283895    -0.013715599  
   1793000   0.060199115   -1.1836952      0.10560651    -0.98780171    -0.025085866  
   1794000   0.061161257   -1.186419       0.10451045    -0.99017851    -0.017245956  
   1795000   0.060166849   -1.1912207      0.10539679    -0.99558524    -0.016575634  
   1796000   0.059453008   -1.1961388      0.10546058    -1.0015102     -0.0063883897 
   1797000   0.058767169   -1.1770879      0.10416065    -0.98478784    -0.0087059461 
   1798000   0.059346043   -1.178075       0.10397978    -0.9850876     -0.02862907   
   1799000   0.06053342    -1.1925828      0.10543643    -0.99635796    -0.01267526   
   1800000   0.060809357   -1.1717737      0.10520198    -0.97536949    -0.026425158  
   1801000   0.060312916   -1.1909207      0.1055551     -0.99490794    -0.015050881  
   1802000   0.061377645   -1.1734964      0.1081322     -0.97330957    -0.0073058871 
   1803000   0.061256539   -1.1749173      0.1061749     -0.97686945    -0.021385392  
   1804000   0.05973717    -1.1865211      0.10571709    -0.9912098     -0.0082393921 
   1805000   0.05995486    -1.1897619      0.10413997    -0.99570127    -0.0019976493 
   1806000   0.060694026   -1.1776582      0.10495956    -0.98166931    -0.0098248903 
   1807000   0.060113817   -1.1858643      0.1059924     -0.98971277    -0.004868125  
   1808000   0.059497808   -1.1830265      0.10467054    -0.98912073     9.8482041e-05
   1809000   0.059305394   -1.1773429      0.10461549    -0.98378077    -0.0065669229 
   1810000   0.05965663    -1.1790643      0.1043475     -0.9852434     -0.0080064659 
   1811000   0.060063937   -1.1792263      0.10623704    -0.98290495    -0.010498494  
   1812000   0.060311268   -1.1815166      0.10612866    -0.98493266    -0.0084321052 
   1813000   0.059894919   -1.1836736      0.10540292    -0.98843986    -0.014217095  
   1814000   0.059789671   -1.1793033      0.10637925    -0.98325108    -0.014860324  
   1815000   0.060516102   -1.1906992      0.10580738    -0.99412936    -0.0057635573 
   1816000   0.060166847   -1.1890429      0.10719991    -0.99160434    -0.01052189   
   1817000   0.060334713   -1.1834912      0.10652242    -0.98647843    -0.0059702001 
   1818000   0.059887539   -1.1951432      0.10435343    -1.00097       -0.023697269  
   1819000   0.060566073   -1.173977       0.10387548    -0.97926416    -0.010001793  
   1820000   0.060704301   -1.1878699      0.10149256    -0.99533261    -0.0021791301 
   1821000   0.058923564   -1.1842484      0.10346975    -0.99240473    -0.016000441  
   1822000   0.060173805   -1.1857633      0.10220641    -0.99330787    -0.010034634  
   1823000   0.060928668   -1.1887569      0.10403375    -0.99334198     0.0035364377 
   1824000   0.061265557   -1.1744948      0.10392521    -0.97868307    -0.0045048974 
   1825000   0.060863571   -1.1871561      0.10350031    -0.99237222    -0.014603707  
   1826000   0.060318819   -1.1892617      0.10377479    -0.99502033    -0.0050615847 
   1827000   0.059153861   -1.1936064      0.10417855    -1.0007085     -0.031439237  
   1828000   0.060439401   -1.1869418      0.10340399    -0.99289041    -0.016886058  
   1829000   0.060375118   -1.1838383      0.10485903    -0.98842828    -0.0044557977 
   1830000   0.059695218   -1.1988673      0.1039811     -1.0053549     -0.014632761  
   1831000   0.059853817   -1.1885655      0.10348841    -0.99530791    -0.0022836453 
   1832000   0.060130584   -1.1873222      0.10442073    -0.99271719    -0.013760241  
   1833000   0.05983196    -1.1742573      0.104873      -0.97964799    -0.015967374  
   1834000   0.058956394   -1.1804907      0.10452853    -0.98753902    -0.0018557758 
   1835000   0.059299766   -1.1887922      0.10486333    -0.99499067    -0.0075867114 
   1836000   0.060475069   -1.196464       0.10378775    -1.0019753     -0.00022256605
   1837000   0.059327833   -1.1772869      0.10607333    -0.98223332    -0.02078913   
   1838000   0.059850297   -1.1778818      0.10403978    -0.9840782     -0.012068837  
   1839000   0.059836699   -1.1836177      0.10345294    -0.99042128    -0.019313754  
   1840000   0.060672004   -1.1899283      0.10680302    -0.99212905    -0.013880514  
   1841000   0.05979337    -1.1862455      0.1039439     -0.99262311    -0.01066376   
   1842000   0.059787382   -1.1832612      0.1033092     -0.99028249    -0.014346705  
   1843000   0.059886489   -1.189911       0.1036407     -0.99645213    -0.016493399  
   1844000   0.060448653   -1.193868       0.10429538    -0.99891137    -0.0031230727 
   1845000   0.059789306   -1.1877236      0.10628511    -0.99176611    -0.032733675  
   1846000   0.060312977   -1.1885275      0.10533807    -0.99273165    -0.016421131  
   1847000   0.059218845   -1.1851718      0.10730223    -0.98905275    -0.024289903  
   1848000   0.059304482   -1.1922507      0.10478112    -0.99852433    -0.0069759458 
   1849000   0.060086349   -1.1968272      0.10513088    -1.0015785      0.0061324769 
   1850000   0.06010174    -1.1892914      0.10700907    -0.9921414     -0.00039421132
   1851000   0.060758653   -1.1804992      0.10628103    -0.98309194    -0.0069442057 
   1852000   0.059894994   -1.190681       0.10550464    -0.99534546    -0.023029313  
   1853000   0.059474737   -1.1968373      0.10610703    -1.0015297     -0.01363012   
   1854000   0.060424563   -1.1803075      0.10534315    -0.98433915    -0.015270641  
   1855000   0.059971737   -1.187775       0.10458847    -0.99324054    -0.013910192  
   1856000   0.05987284    -1.1905652      0.10531571    -0.99545187    -0.0092801267 
   1857000   0.060000015   -1.1861209      0.10652601    -0.98960644     0.002031515  
   1858000   0.060126435   -1.192837       0.10550749    -0.99715151    -0.012592674  
   1859000   0.059808792   -1.200722       0.10553798    -1.0054824     -0.0018565958 
   1860000   0.060218582   -1.1957531      0.10563739    -0.99979946    -0.011591398  
   1861000   0.060328977   -1.1979625      0.10613558    -1.0013451     -0.0079594687 
   1862000   0.060171059   -1.1972361      0.10527916    -1.001712      -0.026446224  
   1863000   0.061010817   -1.191742       0.1067189     -0.99351869    -0.01041147   
   1864000   0.060587953   -1.1865659      0.10665072    -0.98904495    -0.02147384   
   1865000   0.059786056   -1.1851904      0.10712364    -0.98839926    -0.0095800217 
   1866000   0.060638266   -1.1902796      0.1064597     -0.99287421    -0.013386719  
   1867000   0.059768799   -1.1830939      0.10673231    -0.98671993    -0.0061160144 
   1868000   0.059936052   -1.2017162      0.10547578    -1.0063479     -0.012369063  
   1869000   0.060287437   -1.2011063      0.10685393    -1.0038329     -0.03052978   
   1870000   0.060242591   -1.1947333      0.10679044    -0.99759065    -0.031637897  
   1871000   0.060417238   -1.180221       0.10709566    -0.98251119    -0.019212087  
   1872000   0.060268814   -1.1811415      0.10611125    -0.98463873    -0.020085564  
   1873000   0.059359876   -1.1891623      0.10809034    -0.99204366    -0.0028535143 
   1874000   0.059326027   -1.1825596      0.10634715    -0.98723488     0.0055124049 
   1875000   0.059275698   -1.209602       0.10725372    -1.0134462     -0.016070486  
   1876000   0.060119938   -1.1875453      0.10832411    -0.98905288    -0.012014882  
   1877000   0.059753735   -1.1902062      0.10679125    -0.99379593    -0.024178866  
   1878000   0.060552123   -1.1809494      0.10567484    -0.98445814     0.0018337875 
   1879000   0.060638212   -1.1880847      0.10510307    -0.99203601    -0.0061278402 
   1880000   0.061066283   -1.1813218      0.10671649    -0.98301774    -0.012645782  
   1881000   0.061400993   -1.1833254      0.10630944    -0.98492638    -0.0081367579 
   1882000   0.060849732   -1.1936075      0.10716779    -0.99517686    -0.026282255  
   1883000   0.060269909   -1.1865823      0.10573836    -0.99045076    -0.025546496  
   1884000   0.060648449   -1.1851856      0.1072133     -0.98701138    -0.0047532539 
   1885000   0.061507306   -1.1887935      0.10551786    -0.99102659    -0.0054427128 
   1886000   0.060396165   -1.1967515      0.10493769    -1.0012312     -0.019337328  
   1887000   0.059667852   -1.1921486      0.10499795    -0.9976604      0.0055409828 
   1888000   0.059632519   -1.1934529      0.10492748    -0.99908821    -0.0035559238 
   1889000   0.060347741   -1.2013678      0.10609382    -1.0047641     -0.0053956341 
   1890000   0.061081602   -1.1817842      0.10539864    -0.98477498     0.012376172  
   1891000   0.061095354   -1.196142       0.1050224     -0.9994884     -0.0019940462 
   1892000   0.060187268   -1.1970923      0.10641368    -1.0004094      0.011883212  
   1893000   0.061183615   -1.1728485      0.10612544    -0.9749595      0.0014967237 
   1894000   0.059449653   -1.1935182      0.10682822    -0.99752703    -0.0095913532 
   1895000   0.06136533    -1.2063479      0.10450356    -1.0098082     -0.0048654532 
   1896000   0.05996266    -1.1972824      0.105413      -1.001937      -0.0092615144 
   1897000   0.059569012   -1.1921459      0.10488544    -0.9979185     -0.0050995725 
   1898000   0.058507884   -1.186805       0.10609058    -0.99296394    -0.04616436   
   1899000   0.059580885   -1.1896787      0.10584696    -0.99447196    -0.016916304  
   1900000   0.059428682   -1.1938102      0.10756652    -0.99711217    -0.017842398  
   1901000   0.060264407   -1.1988765      0.10737665    -1.0011149      0.014422724  
   1902000   0.06085769    -1.1913047      0.10684708    -0.99318283    -0.0030811474 
   1903000   0.059619158   -1.1903471      0.10596353    -0.99496634    -0.017400648  
   1904000   0.059868023   -1.2027826      0.10525544    -1.0077367     -0.013098968  
   1905000   0.059153125   -1.184387       0.10663448    -0.98903429    -0.012415889  
   1906000   0.059258367   -1.1849742      0.10542628    -0.99067187     0.001696095  
   1907000   0.059945501   -1.17972        0.10757483    -0.98223857    -0.024589237  
   1908000   0.060073975   -1.1963459      0.1064042     -0.99984237     0.011160319  
   1909000   0.059955425   -1.1885809      0.1065658     -0.99209353    -0.0046042103 
   1910000   0.059477885   -1.1842781      0.10523437    -0.98983843    -0.017309069  
   1911000   0.059335455   -1.1971172      0.10705297    -1.0010725     -0.0057355882 
   1912000   0.05992235    -1.197056       0.10558265    -1.0016014     -0.01299257   
   1913000   0.059262954   -1.1963935      0.10618841    -1.0013221      0.010641332  
   1914000   0.059687363   -1.1937172      0.10750707    -0.99669062    -0.0092161448 
   1915000   0.059871954   -1.2015727      0.10672832    -1.005048      -0.022889886  
   1916000   0.060602627   -1.1930971      0.10776902    -0.99443583    -0.021233274  
   1917000   0.06127525    -1.1841901      0.10830707    -0.98398198    -0.014879038  
   1918000   0.060369816   -1.1932821      0.1081019     -0.99463719    -0.0095801518 
   1919000   0.059779935   -1.1806349      0.10530498    -0.98567161    -0.022459833  
   1920000   0.059407455   -1.1991894      0.10517638    -1.0049134     -0.0028815408 
   1921000   0.059600646   -1.1935556      0.10689146    -0.99727475    -0.011420827  
   1922000   0.059826465   -1.184741       0.10674011    -0.98827275    -0.025181627  
   1923000   0.058803934   -1.1978441      0.10596254    -1.003687      -0.011384001  
   1924000   0.060053528   -1.1930341      0.10457954    -0.99838593    -0.0081463597 
   1925000   0.05891194    -1.1909866      0.10643059    -0.99619947    -0.0036479941 
   1926000   0.05915955    -1.1954574      0.10602622    -1.0007033     -0.014867546  
   1927000   0.060014874   -1.1965497      0.10642001    -1.000119      -0.0027373215 
   1928000   0.06057825    -1.1962308      0.10532403    -1.0000511      0.0085739476 
   1929000   0.059876973   -1.1830239      0.10626089    -0.98695914    -0.023974741  
   1930000   0.059537796   -1.1871716      0.10553054    -0.99234592    -0.0066580779 
   1931000   0.059746699   -1.2051581      0.10539561    -1.0101541     -0.018520109  
   1932000   0.059254356   -1.1896965      0.10500794    -0.99581844     0.0012735049 
   1933000   0.059447175   -1.1933541      0.10695857    -0.99723631    -0.019839059  
   1934000   0.061289432   -1.1886706      0.10491228    -0.99183608    -0.0038827852 
   1935000   0.061056908   -1.1843291      0.10584959    -0.98690595    -0.011480968  
   1936000   0.059489278   -1.1860228      0.10521802    -0.99158239     0.026802027  
   1937000   0.059462749   -1.2001916      0.10617846    -1.0048306     -0.0098687083 
   1938000   0.060714601   -1.1934097      0.10594985    -0.99639966    -0.00087387636
   1939000   0.060123897   -1.2047185      0.10679036    -1.0077539     -0.021705859  
   1940000   0.060236042   -1.2010606      0.10652118    -1.004197      -0.019297365  
   1941000   0.059826873   -1.196728       0.10531947    -1.0016798     -0.018055691  
   1942000   0.059640922   -1.1976462      0.10568297    -1.0025134     -0.0068398941 
   1943000   0.059971618   -1.1915741      0.10546661    -0.99616167    -0.012305007  
   1944000   0.059422709   -1.1888751      0.10532784    -0.99442471    -0.012038955  
   1945000   0.060360093   -1.1961673      0.10465639    -1.0009825      0.0026315021 
   1946000   0.060332787   -1.1967043      0.10463876    -1.0015781     -0.0064085312 
   1947000   0.059638803   -1.1822125      0.10395521    -0.98881062    -0.019610398  
   1948000   0.060646186   -1.1890706      0.10584764    -0.99226538    -0.0039417915 
   1949000   0.060364682   -1.1915381      0.10637948    -0.99462333    -0.011911783  
   1950000   0.059679911   -1.1874654      0.10552443    -0.99243264    -0.023627076  
   1951000   0.05951487    -1.2053501      0.10618554    -1.0099038     -0.016316109  
   1952000   0.060891203   -1.1879659      0.10577692    -0.99086394    -0.0048875096 
   1953000   0.058745529   -1.1909404      0.1064729     -0.99636052    -0.029346324  
   1954000   0.059294542   -1.1996695      0.1065192     -1.0042199     -0.011949101  
   1955000   0.059675215   -1.1950945      0.10601957    -0.99957361    -0.018174145  
   1956000   0.058801753   -1.1957191      0.10447843    -1.0030495     -0.019277229  
   1957000   0.059171947   -1.1940443      0.10563174    -0.99966607    -0.0096258126 
   1958000   0.059880074   -1.1950152      0.10714047    -0.99806624    -0.013488795  
   1959000   0.059847096   -1.2021162      0.10537966    -1.0069775     -0.022020102  
   1960000   0.060241694   -1.1948854      0.10505298    -0.99948155    -0.0077191724 
   1961000   0.060081922   -1.1898493      0.10637541    -0.99336263    -0.019338042  
   1962000   0.060347074   -1.1971826      0.10613614    -1.0005375     -0.0060609135 
   1963000   0.060195444   -1.1964632      0.10533053    -1.0008511      0.0073411348 
   1964000   0.059634261   -1.1994737      0.10582908    -1.0042048      0.0083642961 
   1965000   0.060154306   -1.1911589      0.10519438    -0.99574466    -0.0087381022 
   1966000   0.06018623    -1.2062089      0.10567191    -1.0102693     -0.0054859404 
   1967000   0.060791155   -1.1946459      0.10591508    -0.99755584     0.0057765982 
   1968000   0.060194813   -1.200287       0.10664832    -1.0033581     -0.0029745449 
   1969000   0.059748573   -1.190495       0.10426437    -0.99661934    -0.016443007  
   1970000   0.058661418   -1.1992443      0.10527412    -1.0059894     -0.018318688  
   1971000   0.060939194   -1.1884737      0.10762285    -0.98945381    -0.01245591   
   1972000   0.060972908   -1.1835844      0.10666911    -0.9854677     -0.022049466  
   1973000   0.060834026   -1.1973786      0.10619893    -0.99994039    -0.024873913  
   1974000   0.060736254   -1.1845308      0.10440761    -0.98903057    -0.0097322006 
   1975000   0.060160076   -1.1870727      0.10682861    -0.99001558    -0.0083891802 
   1976000   0.060492358   -1.1865823      0.10553526    -0.99032023    -0.0035617057 
   1977000   0.060061628   -1.20012        0.10630483    -1.0037344     -0.03423077   
   1978000   0.059691732   -1.1927641      0.10710727    -0.99613082    -0.0017177684 
   1979000   0.060092185   -1.192353       0.10666088    -0.99556544     0.0079474662 
   1980000   0.059563278   -1.1971974      0.10667983    -1.0011841     -0.015508234  
   1981000   0.06048925    -1.1886603      0.10760155    -0.99033654    -0.018918656  
   1982000   0.061161854   -1.1960099      0.10551464    -0.99876434    -0.0064180655 
   1983000   0.061083641   -1.1982919      0.10649926    -1.000179      -0.0030826751 
   1984000   0.060636382   -1.2138164      0.10884499    -1.0140286     -0.024002113  
   1985000   0.061700814   -1.1953193      0.10660903    -0.996171      -0.003114127  
   1986000   0.060237139   -1.1845893      0.10844795    -0.98579732    -0.0083631473 
   1987000   0.059543449   -1.1821765      0.10546341    -0.98740944    -0.0057850998 
   1988000   0.058955774   -1.197948       0.10647126    -1.0030545     -0.016616669  
   1989000   0.058839475   -1.2009591      0.10606714    -1.0066442     -0.00061893415
   1990000   0.06068525    -1.1959995      0.10671247    -0.99827086     0.00017804483
   1991000   0.060514715   -1.1753921      0.10591527    -0.97871642    -0.0011872045 
   1992000   0.061100825   -1.1958209      0.10637487    -0.99780663    -0.0045761725 
   1993000   0.059215501   -1.1918886      0.1065712     -0.9965056     -0.011343577  
   1994000   0.059168071   -1.1904407      0.10596143    -0.99573862    -0.0036853059 
   1995000   0.060302452   -1.1930446      0.10422215    -0.99838045     0.0001961445 
   1996000   0.059499723   -1.185133       0.10667318    -0.98922173     0.0013285257 
   1997000   0.060067258   -1.1886774      0.10592617    -0.99266193    -0.021903047  
   1998000   0.060147338   -1.1888361      0.10607536    -0.99255134    -0.0037439829 
   1999000   0.059682077   -1.1955376      0.10557569    -1.0004504     -0.005633271  
   2000000   0.059309556   -1.19996        0.10595801    -1.0050492     -0.016405253  
   2001000   0.060423688   -1.1896552      0.10517282    -0.99385857     0.005136348  
   2002000   0.059718242   -1.1915029      0.10411514    -0.99782193    -0.0013467179 
   2003000   0.059533651   -1.1941635      0.10463932    -1.0002352     -0.022402143  
   2004000   0.060441914   -1.2024342      0.104507      -1.007276       0.0014825385 
   2005000   0.060730249   -1.2059122      0.1055038     -1.0093248     -0.0084078376 
   2006000   0.060020537   -1.1963243      0.1050162     -1.001289      -0.015366892  
   2007000   0.060268349   -1.1956122      0.10639338    -0.99882795    -0.0018896682 
   2008000   0.05965319    -1.2034464      0.1028211     -1.011157      -4.2642357e-05
   2009000   0.059810356   -1.1964138      0.10477244    -1.0019374     -0.020305415  
   2010000   0.060044778   -1.2078058      0.1068656     -1.0108847     -0.014275587  
   2011000   0.05997017    -1.1970729      0.10507671    -1.0020526     -0.022485607  
   2012000   0.059679971   -1.1914343      0.10592937    -0.99599647    -0.024755861  
   2013000   0.059087288   -1.1894957      0.10518654    -0.99568964     0.0060056582 
   2014000   0.060311658   -1.1982502      0.10577836    -1.0020161     -0.01802072   
   2015000   0.060168503   -1.193511       0.10399173    -0.99927816     0.0021543043 
   2016000   0.060608668   -1.1966521      0.10530043    -1.0004504     -0.0044987571 
   2017000   0.060620681   -1.2037958      0.10817905    -1.0046974     -0.013159914  
   2018000   0.060571032   -1.1967463      0.1048629     -1.0010386     -0.0076865182 
   2019000   0.059955576   -1.1948246      0.10661687    -0.99828601    -0.0062395162 
   2020000   0.060286483   -1.19357        0.10741724    -0.99573474    -0.032046699  
   2021000   0.06043438    -1.1992497      0.10655948    -1.0020504     -0.019548657  
   2022000   0.059917353   -1.2050032      0.10669371    -1.0084451     -0.0091411399 
   2023000   0.05937806    -1.2053178      0.10725809    -1.0090041     -0.033398913  
   2024000   0.059255676   -1.1925174      0.10732069    -0.99632469    -0.020681312  
   2025000   0.059410159   -1.2093708      0.10393352    -1.0163336      0.0066050748 
   2026000   0.059720307   -1.1881239      0.10536163    -0.99319334    -0.031449321  
   2027000   0.05985932    -1.1960338      0.10569001    -1.0005664     -0.027502914  
   2028000   0.0601408     -1.1983652      0.10622171    -1.001944      -0.036698303  
   2029000   0.059981554   -1.1955394      0.10592423    -0.9996544     -0.03771981   
   2030000   0.06009058    -1.1990797      0.10677139    -1.0021841     -0.033871109  
   2031000   0.060403792   -1.1863854      0.10697319    -0.98881817    -0.012718562  
   2032000   0.06042067    -1.2028064      0.10758501    -1.0046021     -0.0088230415 
   2033000   0.060463338   -1.1868909      0.10922889    -0.98697875    -0.013774929  
   2034000   0.059036087   -1.194366       0.10806427    -0.99775907    -0.0049642608 
   2035000   0.060741511   -1.1879658      0.10663124    -0.99023408    -0.036554288  
   2036000   0.060828724   -1.1955902      0.10793522    -0.99642367    -0.024616253  
   2037000   0.059576037   -1.2018561      0.10845762    -1.0040459     -0.030842073  
   2038000   0.060225455   -1.1990081      0.10913622    -0.99954535    -0.031975193  
   2039000   0.059934662   -1.1921109      0.10593807    -0.9962824     -0.01624328   
   2040000   0.060406049   -1.2006727      0.108793      -1.0012823     -0.016419565  
   2041000   0.060677753   -1.2043781      0.10690761    -1.0064656      0.0056340294 
   2042000   0.060921468   -1.1928164      0.10791949    -0.9935265     -0.0057231338 
   2043000   0.060550033   -1.1887432      0.10894126    -0.98898863    -0.016541396  
   2044000   0.060790042   -1.1987721      0.10664648    -1.0009523     -0.00022443888
   2045000   0.05961982    -1.195516       0.10830724    -0.99779058    -0.029138947  
   2046000   0.060825695   -1.2047387      0.10981137    -1.0037005     -0.0077578759 
   2047000   0.061185951   -1.2067149      0.10719125    -1.0077566     -0.0080025174 
   2048000   0.059316318   -1.1947579      0.11006979    -0.99572513    -0.0053860362 
   2049000   0.060795087   -1.1940073      0.10907822    -0.99374817    -0.022507685  
   2050000   0.060719883   -1.1972285      0.10768984    -0.99847057    -0.014237883  
   2051000   0.060591815   -1.19463        0.10822526    -0.99552878    -0.024428914  
   2052000   0.060746477   -1.2032889      0.1074163     -1.0047647     -0.0087531167 
   2053000   0.061457491   -1.2014442      0.10559924    -1.0036706     -0.025807371  
   2054000   0.061378899   -1.1949851      0.10596403    -0.99696456    -0.0340187    
   2055000   0.060011008   -1.194582       0.10886188    -0.99571525    -0.026798747  
   2056000   0.06110665    -1.2023014      0.10865583    -1.0019975     -0.030629706  
   2057000   0.06108078    -1.2065133      0.10583514    -1.0090688     -0.020090735  
   2058000   0.060504303   -1.1929362      0.10646421    -0.99572722    -0.034921942  
   2059000   0.060494367   -1.1935082      0.10870548    -0.99407284    -0.032899861  
   2060000   0.061053693   -1.1916935      0.10755004    -0.99257473    -0.022500119  
   2061000   0.061070543   -1.2037317      0.1067274     -1.0054103     -0.023949458  
   2062000   0.059922641   -1.2016713      0.10821223    -1.0035867     -0.010861924  
   2063000   0.060796688   -1.1918898      0.10682515    -0.99388142    -0.029511524  
   2064000   0.061052207   -1.2055468      0.10867198    -1.0053083     -0.017964515  
   2065000   0.058991048   -1.196125       0.10880636    -0.99884352    -0.033899529  
   2066000   0.059264924   -1.1951909      0.10727219    -0.99903281    -0.0032111944 
   2067000   0.059743022   -1.1953682      0.10790868    -0.99785658    -0.026587119  
   2068000   0.060010348   -1.1957744      0.10564037    -1.0001301     -0.0059770513 
   2069000   0.060991783   -1.2059727      0.10822806    -1.0062687     -0.014355188  
   2070000   0.060967643   -1.1997887      0.10833946    -1.0000096      0.0030462136 
   2071000   0.060917909   -1.2072765      0.10837966    -1.0075318     -0.021210442  
   2072000   0.060618212   -1.2011089      0.10631445    -1.0038788     -0.017841481  
   2073000   0.059860181   -1.1961368      0.10647294    -0.99988516    -0.027215972  
   2074000   0.060689586   -1.2008927      0.10677147    -1.0030986     -0.0077361665 
   2075000   0.061096506   -1.2062006      0.10567805    -1.0088897     -0.012072586  
   2076000   0.060604391   -1.2075663      0.10581269    -1.0108587     -0.016659948  
   2077000   0.060774864   -1.2069071      0.10733248    -1.0084241     -0.0023829547 
   2078000   0.059890648   -1.1922451      0.10753488    -0.99488586    -0.018299393  
   2079000   0.06043231    -1.2017216      0.10492684    -1.006158      -0.017097656  
   2080000   0.060987685   -1.1946474      0.10515704    -0.99802068    -0.021339159  
   2081000   0.060502807   -1.1890159      0.1079589     -0.99031451    -0.020850582  
   2082000   0.059912221   -1.2060389      0.10757015    -1.008612      -0.037480348  
   2083000   0.059556234   -1.1976609      0.10724285    -1.0010952     -0.013959372  
   2084000   0.059111043   -1.2028727      0.10769182    -1.0065258     -0.0044669946 
   2085000   0.05990386    -1.2041999      0.10762719    -1.0067286     -0.011760995  
   2086000   0.060213271   -1.1820686      0.10892075    -0.98283959    -0.022721476  
   2087000   0.060386926   -1.2025884      0.10847865    -1.003541      -0.017888866  
   2088000   0.060698478   -1.205339       0.10864681    -1.0056562     -0.022281952  
   2089000   0.059935892   -1.2066344      0.1098011     -1.006941      -0.016669218  
   2090000   0.059967504   -1.1988093      0.10779413    -1.0010755     -0.029566489  
   2091000   0.061162653   -1.2040378      0.10808213    -1.0042235     -0.0014840492 
   2092000   0.061018036   -1.196546       0.10863158    -0.99639918    -0.026269048  
   2093000   0.060546685   -1.1980905      0.10943619    -0.99784595    -0.019702677  
   2094000   0.060807251   -1.203175       0.10859515    -1.0033808     -0.0026233362 
   2095000   0.061259355   -1.1973867      0.10949245    -0.99601703    -0.0023708345 
   2096000   0.061085009   -1.2091735      0.11134569    -1.0062121     -0.018719699  
   2097000   0.061536076   -1.2031992      0.11005046    -1.0008565     -0.015625223  
   2098000   0.059845753   -1.1949907      0.10928212    -0.99595152     0.0025224359 
   2099000   0.060309279   -1.2018711      0.10935345    -1.0020654      0.0093156413 
   2100000   0.060292466   -1.1841643      0.1097999     -0.98393736    -0.019362773  
   2101000   0.059604974   -1.20097        0.11015859    -1.0014154     -0.010124026  
   2102000   0.060657434   -1.1973879      0.10975241    -0.99666111    -0.0075987242 
   2103000   0.061149504   -1.1987296      0.10957916    -0.99743798    -0.013459531  
   2104000   0.0606623     -1.2084659      0.11145323    -1.006031      -0.0050969675 
   2105000   0.060974251   -1.2031176      0.10927836    -1.0023897     -0.0053917942 
   2106000   0.059868014   -1.1980491      0.11119966    -0.997059      -0.020277385  
   2107000   0.060410986   -1.2052243      0.11005408    -1.0045654     -0.030231192  
   2108000   0.060034725   -1.1973162      0.10960318    -0.9976726     -0.0064051351 
   2109000   0.060654525   -1.2068144      0.11022051    -1.0056238     -0.012687964  
   2110000   0.061216592   -1.2067361      0.10963344    -1.0052896     -0.030416343  
   2111000   0.060542335   -1.1936012      0.11081798    -0.99198146    -0.036667943  
   2112000   0.06062526    -1.2035006      0.10904819    -1.0035263     -0.024488999  
   2113000   0.059337383   -1.1981911      0.11036967    -0.99882683    -0.025482676  
   2114000   0.05928072    -1.1950158      0.10813873    -0.99796751    -0.0058872229 
   2115000   0.060452934   -1.2078075      0.10708834    -1.0100514     -0.016166025  
   2116000   0.059964932   -1.1950941      0.1063656     -0.99879274     0.00042170965
   2117000   0.060825238   -1.1968073      0.10415582    -1.0014254     -0.024430881  
   2118000   0.060423721   -1.1952477      0.10432773    -1.0002961      0.013326748  
   2119000   0.060680246   -1.2085814      0.10745482    -1.010118       0.0010504495 
   2120000   0.059846638   -1.2055717      0.10744975    -1.0083635     -0.014311044  
   2121000   0.060165397   -1.1967206      0.10759446    -0.99888964    -0.007133348  
   2122000   0.059315416   -1.2089047      0.10753723    -1.0124058     -0.0020576071 
   2123000   0.059994298   -1.1974515      0.10832126    -0.99915045    -0.014698148  
   2124000   0.060499894   -1.21124        0.10831012    -1.0121918     -0.0032940608 
   2125000   0.060154822   -1.2064418      0.10840391    -1.0078173     -0.013528649  
   2126000   0.060730082   -1.1932386      0.1072071     -0.99494815     0.0074380196 
   2127000   0.058955175   -1.195901       0.10721854    -1.0002611     -0.010415523  
   2128000   0.060559941   -1.1909728      0.10766011    -0.99248451     0.00069376775
   2129000   0.060409409   -1.211211       0.10769299    -1.0129156     -0.002646012  
   2130000   0.061355431   -1.1975989      0.10788772    -0.99768991    -0.0086800166 
   2131000   0.060483058   -1.20065        0.10807261    -1.0018645     -0.022734137  
   2132000   0.060661919   -1.2045268      0.10677816    -1.0067675     -0.0038218534 
   2133000   0.060863289   -1.1990631      0.108424      -0.99935592    -0.0084196084 
   2134000   0.060603257   -1.1944189      0.10905918    -0.99446653    -0.0086734781 
   2135000   0.060023839   -1.2150967      0.10661724    -1.0184553     -0.012371587  
   2136000   0.060954681   -1.20019        0.10785417    -1.0009156     -0.018755018  
   2137000   0.060321071   -1.2012945      0.10746965    -1.0033549     -0.018224401  
   2138000   0.061434137   -1.2135707      0.10862504    -1.0128063      0.0011748515 
   2139000   0.059446486   -1.2098631      0.10679594    -1.013909      -0.021193952  
   2140000   0.060534467   -1.2053005      0.10885949    -1.005651      -0.02670108   
   2141000   0.060753055   -1.1968901      0.10796402    -0.99780826    -0.027590783  
   2142000   0.061118301   -1.2012215      0.10888569    -1.0006702     -0.002690178  
   2143000   0.059010886   -1.2035509      0.10932054    -1.0057254     -0.016126847  
   2144000   0.06022581    -1.202601       0.10696394    -1.00531       -0.0093305292 
   2145000   0.059845476   -1.1841661      0.10745005    -0.98695947    -0.0035687159 
   2146000   0.060272313   -1.2142944      0.10786087    -1.0160367     -0.019495806  
   2147000   0.059851228   -1.1978118      0.10811664    -0.99992991    -0.014082091  
   2148000   0.060076578   -1.1952757      0.10744916    -0.99772326    -0.015605008  
   2149000   0.061404138   -1.206373       0.10819133    -1.0060874     -0.016144369  
   2150000   0.059326133   -1.2078646      0.10942879    -1.0094581     -0.013127581  
   2151000   0.060132896   -1.1944929      0.10790522    -0.99639996     0.017951811  
   2152000   0.060473132   -1.2027934      0.10742063    -1.0046748     -0.0072075996 
   2153000   0.059826678   -1.1841532      0.10898478    -0.98543997     0.0066716757 
   2154000   0.060106525   -1.1920113      0.1098226     -0.99204059    -0.015852288  
   2155000   0.060466321   -1.1994249      0.10796299    -1.0007741     -0.0015113976 
   2156000   0.061138844   -1.2017424      0.10962684    -1.0004191      0.0053740449 
   2157000   0.059460976   -1.1988778      0.10860532    -1.0010925      0.009871074  
   2158000   0.060213566   -1.1942736      0.10804346    -0.99592145    -0.010796279  
   2159000   0.059541953   -1.2019744      0.10828969    -1.0043833      0.011854448  
   2160000   0.060094256   -1.2047554      0.10949512    -1.0051305     -0.021752979  
   2161000   0.059778867   -1.1985938      0.10708068    -1.0018564      0.0086660702 
   2162000   0.059915433   -1.2069322      0.10940667    -1.0076639     -0.017665776  
   2163000   0.060720521   -1.2068607      0.10858894    -1.0072028     -0.010208349  
   2164000   0.059837001   -1.2114995      0.10837074    -1.0133849      0.0024116065 
   2165000   0.060836326   -1.1948487      0.10785878    -0.99574722     0.0024493261 
   2166000   0.060681121   -1.196611       0.10730311    -0.99829795    -0.0098132931 
   2167000   0.059975652   -1.1995708      0.10810341    -1.0015155     -0.0052298693 
   2168000   0.061061576   -1.2036101      0.10768537    -1.0043442     -0.0061428182 
   2169000   0.060625847   -1.2026484      0.10865313    -1.0030683      0.0037136854 
   2170000   0.060507114   -1.2039216      0.10910295    -1.0040696      0.003695404  
   2171000   0.060462439   -1.1982575      0.11060236    -0.99697314    -0.00043427048
   2172000   0.060264126   -1.2044441      0.11009185    -1.0039678     -0.017402922  
   2173000   0.060020236   -1.19697        0.10740915    -0.99954209    -0.0094312263 
   2174000   0.060716274   -1.2135475      0.11007595    -1.0124089     -0.009504964  
   2175000   0.06175829    -1.1955503      0.10853678    -0.99438801     0.014605038  
   2176000   0.060026677   -1.2012423      0.1097217     -1.0014922      0.00219045   
   2177000   0.060022237   -1.2012498      0.11079961    -1.0004285     -0.018675989  
   2178000   0.060083937   -1.200219       0.10944892    -1.0006558      3.134154e-05 
   2179000   0.059153874   -1.1945302      0.10922826    -0.99658259    -0.0048980221 
   2180000   0.060271147   -1.2061739      0.1102059     -1.0055729     -0.013450202  
   2181000   0.059624973   -1.1990544      0.10657847    -1.00305       -0.034305351  
   2182000   0.059454888   -1.2010873      0.1074512     -1.0044653     -0.0018697112 
   2183000   0.060345015   -1.2012622      0.10741504    -1.0033413     -0.0014724792 
   2184000   0.059860374   -1.2077761      0.10737163    -1.0106255      0.00086438547
   2185000   0.060048403   -1.1959458      0.10671127    -0.99917355    -0.0014327505 
   2186000   0.059760128   -1.2047549      0.10946167    -1.0056646     -0.026877547  
   2187000   0.060333852   -1.1900595      0.10837215    -0.99119823     0.0042852115 
   2188000   0.060593748   -1.1961912      0.10827835    -0.99703391    -0.018467005  
   2189000   0.059861818   -1.2068907      0.1086385     -1.0084711     -0.020899629  
   2190000   0.060355067   -1.1946686      0.10667873    -0.99746894    -0.021246159  
   2191000   0.059546786   -1.2032969      0.10932825    -1.00466       -0.00053377949
   2192000   0.060677096   -1.1973605      0.10906181    -0.99729477    -0.0048591463 
   2193000   0.06043171    -1.2011718      0.10920016    -1.0013358     -0.0071874883 
   2194000   0.060906397   -1.2074872      0.10942254    -1.0067169     -0.032048648  
   2195000   0.059711657   -1.2000871      0.10972146    -1.0008097     -0.019789957  
   2196000   0.05991752    -1.2007699      0.10971959    -1.0011856     -0.024285558  
   2197000   0.06085349    -1.2040862      0.10891057    -1.0039072     -0.026714222  
   2198000   0.061421693   -1.1984732      0.10975583    -0.99659669    -0.012500063  
   2199000   0.060491771   -1.2052726      0.11025353    -1.0042931     -0.047713125  
   2200000   0.059972467   -1.1906258      0.10870713    -0.99197154    -0.025089306  
   2201000   0.058985358   -1.2052969      0.10925813    -1.0075721     -0.013766196  
   2202000   0.05961003    -1.1985213      0.10815773    -1.0009601     -0.019700484  
   2203000   0.060120955   -1.1978089      0.10880033    -0.99883874     0.00072124258
   2204000   0.059683827   -1.2008042      0.10829583    -1.0029942     -0.028393052  
   2205000   0.060460452   -1.2116094      0.10969282    -1.0112376     -0.01341168   
   2206000   0.061932573   -1.2095819      0.1084737     -1.0082213     -0.007171469  
   2207000   0.060754366   -1.1870887      0.10980689    -0.986162      -0.009669779  
   2208000   0.06056768    -1.2044488      0.11003463    -1.0035743     -0.021736091  
   2209000   0.059204757   -1.2043341      0.11052752    -1.0050109     -0.013490268  
   2210000   0.060033645   -1.2079001      0.11120356    -1.0066577     -0.014890083  
   2211000   0.059913122   -1.1925318      0.1091386     -0.99353509    -0.018909027  
   2212000   0.060715273   -1.2033132      0.10885455    -1.0033975     -0.022357608  
   2213000   0.059967894   -1.2032416      0.11046347    -1.0028379     -0.023560575  
   2214000   0.060323668   -1.1961051      0.10890627    -0.996725       0.0036970719 
   2215000   0.059970953   -1.1969197      0.10921196    -0.99776289    -0.03053729   
   2216000   0.060704196   -1.1995822      0.10964127    -0.99889639    -0.028644065  
   2217000   0.060378776   -1.2047299      0.1108124     -1.003361      -0.01968503   
   2218000   0.0602198     -1.1902323      0.10943622    -0.99047802    -0.031400351  
   2219000   0.059760342   -1.2019667      0.11010594    -1.0022318     -0.020614761  
   2220000   0.060072021   -1.2089058      0.10790243    -1.010907      -0.034118136  
   2221000   0.060554277   -1.2031815      0.10412815    -1.0082337     -0.019952541  
   2222000   0.060930975   -1.2041884      0.1050976     -1.0077061     -0.0044824407 
   2223000   0.060723933   -1.1940919      0.10521607    -0.9978017     -0.013117391  
   2224000   0.060661621   -1.2113841      0.10534325    -1.0150602     -0.021295764  
   2225000   0.061354947   -1.1982404      0.10455978    -1.0016601     -0.011708967  
   2226000   0.060600766   -1.204597       0.10439524    -1.0093124     -0.017681927  
   2227000   0.06011321    -1.1911444      0.10575206    -0.99523421    -0.015384885  
   2228000   0.060970751   -1.2065818      0.105721      -1.0094165     -0.006979851  
   2229000   0.059771421   -1.2076625      0.1061009     -1.011916       0.0010476039 
   2230000   0.060624591   -1.2083869      0.10432064    -1.0131411     -0.020427206  
   2231000   0.060162268   -1.2020671      0.10659962    -1.0052357     -0.016646297  
   2232000   0.060046631   -1.2071605      0.10757042    -1.0095318     -0.020842494  
   2233000   0.059745965   -1.1979089      0.10618596    -1.0021155     -0.024421993  
   2234000   0.060416804   -1.2064063      0.10617497    -1.0096178     -0.012857737  
   2235000   0.060899062   -1.2100177      0.10668739    -1.0119935     -0.0095311213 
   2236000   0.06143808    -1.2052883      0.10618207    -1.006961      -0.016372159  
   2237000   0.06063326    -1.1955197      0.10794789    -0.9966337     -0.0017877867 
   2238000   0.060325897   -1.2005472      0.10481625    -1.0052537     -0.01529084   
   2239000   0.061255103   -1.201615       0.10697256    -1.0027717     -0.029226553  
   2240000   0.060869453   -1.2007641      0.10608349    -1.0033882     -0.028800725  
   2241000   0.060121212   -1.2024762      0.108138      -1.004168      -0.017634233  
   2242000   0.060950237   -1.1964996      0.10753905    -0.99754696    -0.016365183  
   2243000   0.060156199   -1.2056045      0.1063691     -1.0090127     -0.0015068851 
   2244000   0.059789188   -1.2107468      0.1090916     -1.011983      -0.02551491   
   2245000   0.059756716   -1.1950055      0.10794935    -0.99743261    -0.010219033  
   2246000   0.060042436   -1.2042873      0.10696041    -1.0072748     -0.018397333  
   2247000   0.060630064   -1.2056977      0.10711843    -1.0076459     -0.022643782  
   2248000   0.060783163   -1.2070659      0.10689322    -1.0090097     -0.01476369   
   2249000   0.059220139   -1.2123567      0.10655899    -1.016979      -0.007387589  
   2250000   0.059970755   -1.2003131      0.10746741    -1.0029011     -0.035326498  
   2251000   0.060245493   -1.2131706      0.1086848     -1.0141293     -0.044432314  
   2252000   0.060319894   -1.1971711      0.10729358    -0.99940939    -0.0076607822 
   2253000   0.059425401   -1.2033882      0.10871539    -1.0055462     -0.03218588   
   2254000   0.059898238   -1.1983395      0.10881951    -0.99968422    -0.019924484  
   2255000   0.060147205   -1.2068866      0.10655864    -1.0101188     -0.00095545295
   2256000   0.060412197   -1.1926296      0.10787902    -0.99414397    -0.036927764  
   2257000   0.059348841   -1.2012947      0.10595628    -1.0063267     -0.0090939928 
   2258000   0.059755671   -1.207675       0.10750757    -1.0105455     -0.0031852962 
   2259000   0.060671478   -1.2029939      0.11025575    -1.0017426     -0.036252422  
   2260000   0.060511349   -1.1984999      0.10849057    -0.99925403    -0.0085059439 
   2261000   0.059776542   -1.1998027      0.10822888    -1.0019205      0.0027922982 
   2262000   0.060621152   -1.213631       0.10889974    -1.0138112     -0.0093338203 
   2263000   0.060347209   -1.2153955      0.10911983    -1.0157665     -0.010119911  
   2264000   0.061288481   -1.198866       0.10868569    -0.9982595      0.016605882  
   2265000   0.06010375    -1.2006779      0.10856712    -1.0019668     -0.014805636  
   2266000   0.06089853    -1.1974014      0.10977611    -0.99628927    -0.016882651  
   2267000   0.059961099   -1.1958078      0.10814703    -0.99773068    -0.0013161723 
   2268000   0.060045368   -1.2036999      0.10680291    -1.0068406     -0.0033638161 
   2269000   0.059311141   -1.2023456      0.1071485     -1.0062419      0.002222018  
   2270000   0.058756423   -1.2151637      0.10781855    -1.0192219      0.019192274  
   2271000   0.061519921   -1.2063407      0.10711216    -1.0069606      0.0098603761 
   2272000   0.06101194    -1.190965       0.10698722    -0.99247167    -0.0084340551 
   2273000   0.061297913   -1.2072872      0.10591707    -1.0094351      0.0095847794 
   2274000   0.06059572    -1.2054546      0.10840148    -1.0061713     -0.016234563  
   2275000   0.059482089   -1.1965115      0.1081125     -0.99918736     0.006234873  
   2276000   0.059829139   -1.2150148      0.11013173    -1.0151509      0.0062375285 
   2277000   0.060835541   -1.1923329      0.10788064    -0.99321072    -0.026371622  
   2278000   0.060203185   -1.2036021      0.10900338    -1.0043056     -0.0092229834 
   2279000   0.059460986   -1.212348       0.10670224    -1.0164658     -0.0061298239 
   2280000   0.059861384   -1.2014183      0.10618527    -1.0054526     -0.015618965  
   2281000   0.059934976   -1.2031853      0.10737895    -1.0059155      0.011135097  
   2282000   0.060164476   -1.2047775      0.10898991    -1.0055525     -0.004036894  
   2283000   0.059853576   -1.2093699      0.10948939    -1.0101117      0.014533847  
   2284000   0.061070257   -1.20134        0.10724952    -1.0024969      0.0034189425 
   2285000   0.060562685   -1.1936541      0.10953999    -0.99328181     0.012717376  
   2286000   0.061445726   -1.1953778      0.10858719    -0.99463392    -0.0017018609 
   2287000   0.06020293    -1.1994005      0.10912041    -0.99998732    -0.0065519572 
   2288000   0.060151851   -1.2106505      0.10859387    -1.0118405     -0.0039636386 
   2289000   0.060283393   -1.2064745      0.10862966    -1.0074314     -0.0023036205 
   2290000   0.060754382   -1.2161462      0.10848208    -1.0165443      0.0091880733 
   2291000   0.060404342   -1.1948614      0.10723803    -0.99702851     0.018373067  
   2292000   0.059677654   -1.2092511      0.11034958    -1.0093966      0.01169966   
   2293000   0.058904639   -1.2091306      0.10875258    -1.0120325     -0.014692194  
   2294000   0.06004185    -1.1954898      0.1086879     -0.9967507      0.0072140394 
   2295000   0.060399482   -1.2007208      0.10890948    -1.0012238     -0.0027869173 
   2296000   0.059930301   -1.19594        0.10907328    -0.9969829     -0.0059261659 
   2297000   0.060576067   -1.2015615      0.10742345    -1.0032857      0.017105717  
   2298000   0.060260521   -1.1920489      0.10960358    -0.99206623    -0.02142558   
   2299000   0.05982003    -1.1980478      0.11052942    -0.99779992    -0.0024296917 
   2300000   0.060967859   -1.2038422      0.11166953    -1.0007327     -0.0057092512 
   2301000   0.060787128   -1.2083054      0.1101663     -1.0069702     -0.0070276929 
   2302000   0.060349492   -1.2013341      0.11147816    -0.99934334    -0.02998082   
   2303000   0.059835289   -1.2124909      0.11093186    -1.0118176     -0.004809812  
   2304000   0.060025153   -1.2030425      0.10938496    -1.0036314     -0.0090369956 
   2305000   0.059717857   -1.2018301      0.10933626    -1.0029286     -0.020846264  
   2306000   0.059609958   -1.2054724      0.11131989    -1.0047491      0.0020721206 
   2307000   0.060054585   -1.1973635      0.10998739    -0.9973059     -0.0028530194 
   2308000   0.060483364   -1.2010704      0.10998821    -1.0003688     -0.014572774  
   2309000   0.060756688   -1.208526       0.11202408    -1.0053786     -0.024321812  
   2310000   0.060219727   -1.2146513      0.11148002    -1.0128533     -0.018780502  
   2311000   0.06063001    -1.205888       0.11192344    -1.0030312     -0.0076321472 
   2312000   0.060407584   -1.2091268      0.11014508    -1.0083821     -0.02387793   
   2313000   0.061048931   -1.2037649      0.11055981    -1.0016435     -0.034516378  
   2314000   0.060371269   -1.2100448      0.11142895    -1.0080706     -0.028392012  
   2315000   0.061489477   -1.2114253      0.11294122    -1.0062617      0.0036282004 
   2316000   0.062540087   -1.2088605      0.11090431    -1.0041582     -0.025541604  
   2317000   0.061934678   -1.20735        0.11276546    -1.0016945     -0.00075864416
   2318000   0.05981404    -1.2076154      0.11194611    -1.0059598     -0.0080130935 
   2319000   0.060078308   -1.1988364      0.10986591    -0.9988647      0.010959428  
   2320000   0.060188449   -1.2034526      0.10983883    -1.0033428     -0.0047759987 
   2321000   0.059462661   -1.2099649      0.11147907    -1.0093033      0.0034413493 
   2322000   0.05971781    -1.1926341      0.10998419    -0.99308473    -0.03413336   
   2323000   0.05984549    -1.2112545      0.11169018    -1.0098076     -0.01584132   
   2324000   0.061199147   -1.203762       0.11156846    -1.0004066     -0.0058359546 
   2325000   0.059848326   -1.2099649      0.11049023    -1.0097138     -0.015542392  
   2326000   0.060164301   -1.1914335      0.10996448    -0.99123421    -0.015963987  
   2327000   0.060431702   -1.2114569      0.11226768    -1.0085534     -0.0072154337 
   2328000   0.060239222   -1.1990413      0.1120402     -0.99665394    -0.023101562  
   2329000   0.059973127   -1.2091835      0.11239729    -1.0068381     -0.010120212  
   2330000   0.060917195   -1.2078422      0.11207942    -1.0043987     -0.01838457   
   2331000   0.059962902   -1.1946336      0.11136321    -0.99333768    -0.032675631  
   2332000   0.059795877   -1.2149199      0.11354328    -1.0116944     -0.039968777  
   2333000   0.059733464   -1.2138314      0.11030922    -1.0139335     -0.01629697   
   2334000   0.059810552   -1.185115       0.11191226    -0.98349849    -0.0061314551 
   2335000   0.060847218   -1.2000012      0.1107424     -0.9979998     -0.01100928   
   2336000   0.060023586   -1.193395       0.1123993     -0.99097191    -0.023015623  
   2337000   0.060125491   -1.1938932      0.1106435     -0.9930731     -0.012182152  
   2338000   0.060452502   -1.2058792      0.11243959    -1.0027725     -0.017591307  
   2339000   0.060704005   -1.1984365      0.11161006    -0.99578214    -0.01213974   
   2340000   0.060881497   -1.1982676      0.11360871    -0.99334838    -0.0045860914 
   2341000   0.060902712   -1.1997866      0.11303783    -0.99540654    -0.032912036  
   2342000   0.061610545   -1.2029276      0.11478542    -0.99573831    -0.034040375  
   2343000   0.061479307   -1.1989977      0.11466248    -0.99212814    -0.001339673  
   2344000   0.061403998   -1.2093316      0.11276273    -1.0044747     -0.015809948  
   2345000   0.060634974   -1.1994755      0.11112462    -0.99741015    -0.010598037  
   2346000   0.061129099   -1.2092218      0.11074269    -1.0067973     -0.049125418  
   2347000   0.059999142   -1.2084832      0.11174788    -1.0067482     -0.016096908  
   2348000   0.061589339   -1.2069491      0.11035167    -1.0042254      2.3805728e-05
   2349000   0.060153501   -1.2095889      0.11156142    -1.0078088     -0.0052744005 
   2350000   0.059940993   -1.1994526      0.11172338    -0.99782931    -0.023015137  
   2351000   0.060287445   -1.2041758      0.11089077    -1.0028655     -0.022837994  
   2352000   0.060014795   -1.2117208      0.11063543    -1.0110748     -0.033389479  
   2353000   0.060565936   -1.20751        0.11006733    -1.0066054     -0.024091995  
   2354000   0.060516192   -1.19838        0.11084534    -0.99677212    -0.018149281  
   2355000   0.059988991   -1.2173783      0.10975621    -1.0176502     -0.013067805  
   2356000   0.061040227   -1.2045894      0.11261854    -1.0004223     -0.037203022  
   2357000   0.060790585   -1.2058969      0.1114238     -1.003299      -0.014758212  
   2358000   0.060887145   -1.1986392      0.11248751    -0.99483274    -0.017080416  
   2359000   0.059850089   -1.2083749      0.11335433    -1.005257       0.00016041979
   2360000   0.060337488   -1.2058093      0.11205985    -1.0032549     -0.016941934  
   2361000   0.060970871   -1.1980579      0.11208121    -0.99453217    -0.015313078  
   2362000   0.061042388   -1.1946081      0.11270477    -0.99035153    -0.013605439  
   2363000   0.061209292   -1.2040953      0.11191152    -1.0003817     -0.026006904  
   2364000   0.059894202   -1.2068424      0.1130848     -1.0039279     -0.029175117  
   2365000   0.060151251   -1.1990525      0.11180194    -0.99703537    -0.014535184  
   2366000   0.061243228   -1.2114059      0.11114118    -1.0084117     -0.032574513  
   2367000   0.060678601   -1.2051641      0.11132957    -1.0028284     -0.026363473  
   2368000   0.060608016   -1.1948436      0.11145068    -0.99249267    -0.022694823  
   2369000   0.06158644    -1.2114017      0.11279277    -1.0062412     -0.0025242747 
   2370000   0.061043425   -1.2020672      0.11208741    -0.99842647    -0.0095237543 
   2371000   0.060908943   -1.1934934      0.11208289    -0.99005886    -0.027262835  
   2372000   0.060362324   -1.2095315      0.11197418    -1.0070255     -0.036603891  
   2373000   0.06097342    -1.2074431      0.1106021     -1.0053927     -0.017775107  
   2374000   0.061597412   -1.2103873      0.11097877    -1.0070244     -0.019008969  
   2375000   0.060571014   -1.2168947      0.11041588    -1.015634       0.011303319  
   2376000   0.060685772   -1.2062376      0.11196294    -1.0032578     -0.0032551761 
   2377000   0.061728121   -1.2156631      0.11171052    -1.0113724     -0.026573248  
   2378000   0.059835621   -1.2178317      0.11085479    -1.0172351     -0.012176522  
   2379000   0.059785407   -1.2052803      0.11057938    -1.0050343     -0.015829812  
   2380000   0.060335669   -1.2087567      0.11076366    -1.0075012     -0.014122649  
   2381000   0.059963786   -1.2111485      0.11151027    -1.0097042      0.0056270743 
   2382000   0.060337859   -1.2109968      0.11103794    -1.0094638     -0.013021972  
   2383000   0.06092681    -1.2078636      0.11055284    -1.0059324     -0.017770576  
   2384000   0.060383841   -1.2001235      0.11080883    -0.99875058    -0.029518082  
   2385000   0.060444042   -1.205769       0.1106778     -1.0044368     -0.047039877  
   2386000   0.060306074   -1.2210049      0.11009319    -1.0204643     -0.029054715  
   2387000   0.061621332   -1.2110517      0.10927079    -1.0093609     -0.01873594   
   2388000   0.059896309   -1.2091526      0.11003344    -1.0092862     -0.015618321  
   2389000   0.060660865   -1.2008204      0.1112666     -0.99857422    -0.016531641  
   2390000   0.061698528   -1.2113232      0.11107348    -1.0077138     -0.017581534  
   2391000   0.060898536   -1.1997689      0.10973809    -0.99869482    -0.032624838  
   2392000   0.060095117   -1.2021967      0.11081711    -1.0012485     -0.018616035  
   2393000   0.060735646   -1.2007384      0.10988299    -0.99976367    -0.0087623195 
   2394000   0.060533375   -1.1916792      0.11095038    -0.98994052    -0.014009926  
   2395000   0.060200925   -1.2024031      0.11111782    -1.0009956     -0.031523873  
   2396000   0.059474091   -1.2093634      0.1109792     -1.0091845     -0.0064701022 
   2397000   0.0604051     -1.2016007      0.11165539    -0.99934931    -0.014792088  
   2398000   0.060651328   -1.2163233      0.11252762    -1.0128304     -0.0037266815 
   2399000   0.060371771   -1.2012142      0.11071358    -0.99995464    -0.0081229584 
   2400000   0.059839612   -1.2027413      0.10992845    -1.003065      -0.019051328  
   2401000   0.061167055   -1.2214049      0.11062619    -1.01904       -0.021831904  
   2402000   0.05998258    -1.1998283      0.10978577    -1.0000803     -0.039167009  
   2403000   0.060099514   -1.2098979      0.11234994    -1.0074103     -0.03883084   
   2404000   0.059952591   -1.2111075      0.11127354    -1.0099167     -0.043200926  
   2405000   0.0597555     -1.198771       0.1099269     -0.99922243    -0.033839885  
   2406000   0.059896642   -1.2109785      0.1109647     -1.0101805      0.0061894237 
   2407000   0.060437282   -1.2055793      0.11138572    -1.0035494     -0.02524219   
   2408000   0.059877743   -1.1984012      0.11246607    -0.99613011    -0.016472523  
   2409000   0.061031967   -1.2151744      0.11133984    -1.0122985     -0.027662579  
   2410000   0.05921941    -1.2030737      0.11168899    -1.002567      -0.029173187  
   2411000   0.060130815   -1.2103798      0.11283446    -1.0073607     -0.0047970345 
   2412000   0.058755906   -1.1945554      0.11231384    -0.99411903    -0.036819384  
   2413000   0.058705298   -1.2260894      0.11325031    -1.0247925     -0.025197241  
   2414000   0.059470127   -1.2075988      0.11215776    -1.0062474     -0.021104254  
   2415000   0.060519843   -1.2017776      0.11024963    -1.0007599     -0.017253537  
   2416000   0.060323427   -1.2147747      0.11226154    -1.0120397     -0.01990793   
   2417000   0.06100692    -1.2150235      0.11327944    -1.0102455     -0.020799751  
   2418000   0.06066034    -1.2086786      0.11248779    -1.005212      -0.009328144  
   2419000   0.060571778   -1.1942585      0.11298421    -0.9904283      0.0038486131 
   2420000   0.060520907   -1.2116364      0.1110003     -1.0098664     -0.015829011  
   2421000   0.060716154   -1.2030646      0.11176843    -1.0002337     -0.04525283   
   2422000   0.060088685   -1.2019192      0.11209959    -0.99969817    -0.010789842  
   2423000   0.05948518    -1.2155393      0.1130252     -1.0132978     -0.0068010581 
   2424000   0.06005308    -1.2080958      0.11125397    -1.0067739      0.003061245  
   2425000   0.060511048   -1.2218449      0.11270006    -1.01839        0.0067026125 
   2426000   0.060607809   -1.2164354      0.11373601    -1.0117994     -0.0068790292 
   2427000   0.059855726   -1.2035785      0.11061715    -1.0031894     -0.009854605  
   2428000   0.060028053   -1.1935398      0.11235825    -0.99115109     0.0047357043 
   2429000   0.060231755   -1.2064718      0.11180087    -1.0043349     -0.026700137  
   2430000   0.061324441   -1.2115414      0.11244449    -1.0071221      0.004735913  
   2431000   0.062119066   -1.2164061      0.11256858    -1.010671      -0.010603737  
   2432000   0.061143832   -1.2127743      0.11394368    -1.0071267     -0.001153981  
   2433000   0.06046118    -1.1998189      0.1129603     -0.99617854    -0.007509432  
   2434000   0.060734104   -1.2129945      0.11258708    -1.009318      -0.028695508  
   2435000   0.060566973   -1.2015312      0.11130317    -0.99938927    -0.013822744  
   2436000   0.061282163   -1.2103172      0.11208932    -1.0063165     -0.020632794  
   2437000   0.06094622    -1.2173795      0.11108156    -1.0148904      0.01329903   
   2438000   0.060211446   -1.2141072      0.11022552    -1.0135762      0.027569121  
   2439000   0.059837128   -1.2136065      0.11186655    -1.0119958     -0.011139565  
   2440000   0.059987377   -1.2014934      0.11254657    -0.99897738    -0.012272229  
   2441000   0.06061034    -1.2171011      0.11164753    -1.0145498      0.0084208145 
   2442000   0.060918766   -1.1995648      0.11270208    -0.99549638    -0.0095552103 
   2443000   0.059902849   -1.1998108      0.11102777    -0.99894035    -0.016412032  
   2444000   0.060973771   -1.2077007      0.11080965    -1.0054422     -0.023131067  
   2445000   0.061756666   -1.217988       0.11287869    -1.0124863     -0.0053848572 
   2446000   0.061415524   -1.2117489      0.11244768    -1.0071898     -0.0081927191 
   2447000   0.060804033   -1.2160968      0.11204723    -1.0128553      0.0051853555 
   2448000   0.060283578   -1.2154316      0.1115113     -1.0135066     -0.0021084051 
   2449000   0.060571321   -1.2035165      0.10937713    -1.0032941      0.0010445286 
   2450000   0.060292645   -1.2087904      0.11268867    -1.0056744      0.012541935  
   2451000   0.06126259    -1.2169283      0.11103989    -1.0140063     -0.020643506  
   2452000   0.059718605   -1.2037457      0.11203921    -1.0021401     -0.0069774765 
   2453000   0.0606566     -1.2054889      0.11142762    -1.0030881     -0.0086011376 
   2454000   0.060836476   -1.2069491      0.11093571    -1.0047704     -0.031234051  
   2455000   0.060784672   -1.2112617      0.11209048    -1.008006      -0.036844093  
   2456000   0.060395961   -1.2143086      0.11031116    -1.0134152     -0.032327807  
   2457000   0.060220355   -1.2216553      0.11089515    -1.0204413     -0.017556803  
   2458000   0.061155406   -1.2142879      0.11217138    -1.0103953     -0.012917371  
   2459000   0.061012222   -1.2056492      0.11042009    -1.0037226     -0.025605073  
   2460000   0.060788177   -1.2147396      0.10990094    -1.0136682     -0.02117786   
   2461000   0.060988909   -1.2127652      0.11269659    -1.008597      -0.025387493  
   2462000   0.060691476   -1.2031669      0.11152826    -1.0006132     -0.022255984  
   2463000   0.062308306   -1.1972395      0.10828609    -0.995503      -0.0092234492 
   2464000   0.05995086    -1.2259661      0.11188783    -1.0241636     -0.034562866  
   2465000   0.06081384    -1.224768       0.11359251    -1.0199665     -0.010434053  
   2466000   0.060125942   -1.1991539      0.10918594    -0.99979072    -0.028473091  
   2467000   0.059642761   -1.2108456      0.11163082    -1.0097621     -0.0066165787 
   2468000   0.06001013    -1.1921878      0.10842223    -0.99376204    -0.0092987876 
   2469000   0.059887027   -1.205888       0.10831038    -1.0077587     -0.026194542  
   2470000   0.059853851   -1.2011679      0.1091183     -1.0022804      0.014781516  
   2471000   0.060993302   -1.2098295      0.10901063    -1.0093408     -0.033695581  
   2472000   0.061476736   -1.2089535      0.11073071    -1.0060196     -0.014810326  
   2473000   0.06156832    -1.211512       0.11120302    -1.0079684     -0.0039264556 
   2474000   0.060632148   -1.2095893      0.10995077    -1.0087021     -0.014102484  
   2475000   0.060813709   -1.2016071      0.10778405    -1.0026143     -0.012455675  
   2476000   0.061035208   -1.2163577      0.10933599    -1.0154807     -0.0039759764 
   2477000   0.060662807   -1.2039401      0.11142334    -1.0015343     -0.027081119  
   2478000   0.06092351    -1.212743       0.11281629    -1.0085532     -0.020259732  
   2479000   0.059952625   -1.2145702      0.11124987    -1.013403      -0.0097617272 
   2480000   0.060767062   -1.2089838      0.11024909    -1.0075959     -0.0072109355 
   2481000   0.061250226   -1.2022318      0.11052352    -0.99984476    -0.038375852  
   2482000   0.060798508   -1.211897       0.11168471    -1.0090263      0.011845081  
   2483000   0.061047952   -1.2134065      0.11091502    -1.0109314     -0.02534345   
   2484000   0.060393938   -1.2027693      0.11198764    -1.0002025     -0.029360092  
   2485000   0.060411863   -1.207037       0.11138031    -1.0050506     -0.012598639  
   2486000   0.059714817   -1.2025555      0.11037661    -1.0026183     -0.025101038  
   2487000   0.060648196   -1.2129214      0.10919813    -1.0127628      0.00491207   
   2488000   0.059798532   -1.2213654      0.10898491    -1.0226943     -0.016001459  
   2489000   0.059999974   -1.205516       0.10926377    -1.0062639     -0.036099772  
   2490000   0.06050917    -1.2105957      0.11061042    -1.0092332     -0.0081024755 
   2491000   0.060540792   -1.2108401      0.11059328    -1.0094474     -0.03464321   
   2492000   0.06108276    -1.2140518      0.11177486    -1.0106646     -0.026379267  
   2493000   0.060095785   -1.2108922      0.11115472    -1.0096054     -0.03848633   
   2494000   0.060484356   -1.2052906      0.1105387     -1.0040371     -0.017549022  
   2495000   0.059778637   -1.2017552      0.11218186    -0.99991697     0.0057642986 
   2496000   0.060803729   -1.2083158      0.11152406    -1.0055979     -0.039896672  
   2497000   0.061560094   -1.197932       0.11093229    -0.9946715     -0.010995296  
   2498000   0.060672426   -1.2109934      0.10966736    -1.0103292     -0.019698287  
   2499000   0.060397885   -1.2168458      0.11134108    -1.0149196     -0.031439639  
   2500000   0.060921974   -1.2091898      0.11089867    -1.0069199     -0.0093556057 
   2501000   0.060296601   -1.2056885      0.11139818    -1.0038571     -0.015016068  
   2502000   0.060553496   -1.1877138      0.11093488    -0.98596042    -0.0076540679 
   2503000   0.061000067   -1.216548       0.11124859    -1.0138111     -0.009709466  
   2504000   0.060461155   -1.2152435      0.11056777    -1.0139957     -0.022792973  
   2505000   0.059403417   -1.1985139      0.11131902    -0.99810123    -0.044502544  
   2506000   0.058833963   -1.2130117      0.10974943    -1.0150227     -0.0071475102 
   2507000   0.059828222   -1.2073896      0.11138879    -1.0062701     -0.027531577  
   2508000   0.060309611   -1.2033478      0.11006487    -1.0028301     -0.051475769  
   2509000   0.060177705   -1.2059702      0.11217373    -1.0035416     -0.023685805  
   2510000   0.059685118   -1.2051435      0.11023333    -1.005394      -0.016304797  
   2511000   0.061097914   -1.2095484      0.11011556    -1.0077978     -0.029113217  
   2512000   0.059631126   -1.2140887      0.11077313    -1.0138804     -0.040434086  
   2513000   0.061398605   -1.2102762      0.11064542    -1.0075448     -0.016325735  
   2514000   0.059991768   -1.2196094      0.11151175    -1.0181217     -0.031343909  
   2515000   0.059968826   -1.2127241      0.11064726    -1.0121352     -0.0015182296 
   2516000   0.061453286   -1.2069756      0.10860327    -1.0062043     -0.030220298  
   2517000   0.060549218   -1.2119583      0.11115331    -1.0099929     -0.02217699   
   2518000   0.060724599   -1.1984609      0.10883924    -0.99854655    -0.025109361  
   2519000   0.061384104   -1.215937       0.10766602    -1.0162067     -0.037867267  
   2520000   0.061656756   -1.2236985      0.10751743    -1.0237079     -0.018250475  
   2521000   0.061593492   -1.2031282      0.10632068    -1.0044292     -0.024633599  
   2522000   0.060077649   -1.2147342      0.10629329    -1.018336      -0.0048117191 
   2523000   0.060445676   -1.2124073      0.10651103    -1.0152395     -0.014441598  
   2524000   0.060830424   -1.2100799      0.10582685    -1.0130192     -0.031462346  
   2525000   0.060853038   -1.2216638      0.10666918    -1.0237268     -0.021069018  
   2526000   0.060259473   -1.2192778      0.1064777     -1.0224226     -0.030330861  
   2527000   0.060843156   -1.2133399      0.10598103    -1.0161059     -0.020684774  
   2528000   0.06050172    -1.2059336      0.1068031     -1.0083896     -0.017258455  
   2529000   0.059751555   -1.2196656      0.10587049    -1.0241793     -0.042632744  
   2530000   0.060112292   -1.2155435      0.10629277    -1.0190939     -0.022620206  
   2531000   0.060249364   -1.2055946      0.1079314     -1.0073008      0.0011317158 
   2532000   0.060406961   -1.2089922      0.10572793    -1.0126655      0.0047948402 
   2533000   0.059326471   -1.2187825      0.10510391    -1.0247004     -0.02343026   
   2534000   0.060226536   -1.2123153      0.10631661    -1.0156706     -0.021398741  
   2535000   0.060005655   -1.2049957      0.10556246    -1.0094364     -0.0032191054 
   2536000   0.059772342   -1.2153907      0.10656954    -1.0191742     -0.0019182764 
   2537000   0.061222309   -1.2113403      0.10652108    -1.0129976     -0.022751592  
   2538000   0.059751198   -1.1926808      0.10494764    -0.99811798    -0.014925448  
   2539000   0.059859639   -1.2076276      0.10689788    -1.0109519     -0.0063504931 
   2540000   0.060651258   -1.216668       0.1078632     -1.0178397      0.015688451  
   2541000   0.059702404   -1.2183048      0.10703451    -1.0217282     -0.017049849  
   2542000   0.060961742   -1.212022       0.1080616     -1.0125296      0.00099852941
   2543000   0.060415195   -1.2131363      0.10585712    -1.0166681     -0.018568978  
   2544000   0.060443055   -1.2087968      0.10759861    -1.0105453     -0.031530419  
   2545000   0.060029469   -1.2074876      0.10691263    -1.0105424     -0.03422219   
   2546000   0.060666506   -1.205907       0.1083857     -1.0065333     -0.0085829889 
   2547000   0.059565444   -1.2257974      0.10801635    -1.0284444     -0.0079283419 
   2548000   0.060788206   -1.2142137      0.1064345     -1.0166087     -0.0070582481 
   2549000   0.060276963   -1.1930781      0.10874887    -0.99392546    -0.0091340304 
   2550000   0.060121883   -1.2025536      0.10650514    -1.0058772     -0.031490777  
   2551000   0.059858299   -1.2066139      0.10832396    -1.0085141     -0.029791171  
   2552000   0.059690685   -1.2041125      0.10861875    -1.0059692     -0.017449715  
   2553000   0.060579003   -1.2062832      0.10683309    -1.0085933     -0.017080342  
   2554000   0.059954569   -1.2159842      0.1072761     -1.0187878     -0.017908418  
   2555000   0.059442888   -1.2106845      0.10894752    -1.0125842     -0.033880513  
   2556000   0.060427026   -1.2231946      0.10717522    -1.0253905     -0.024875917  
   2557000   0.059961371   -1.2138212      0.10717273    -1.016718      -0.018845371  
   2558000   0.059808669   -1.2173596      0.10875094    -1.0189072     -0.01244049   
   2559000   0.060481735   -1.2098912      0.10803406    -1.0111463     -0.019361497  
   2560000   0.060600217   -1.2041631      0.10875519    -1.0045193     -0.021780931  
   2561000   0.060702747   -1.2083674      0.10859752    -1.0087275     -0.0054436701 
   2562000   0.061073157   -1.215506       0.1067392     -1.0171689     -0.011843432  
   2563000   0.060822393   -1.2124969      0.10748292    -1.0137922     -0.026230361  
   2564000   0.059837717   -1.2224899      0.10760222    -1.0251427     -0.029803398  
   2565000   0.060088581   -1.2118329      0.10819717    -1.0135145     -0.021210143  
   2566000   0.061383539   -1.1985583      0.10623081    -1.0002641     -0.019421337  
   2567000   0.060361501   -1.2162338      0.10709118    -1.0186121     -0.039326844  
   2568000   0.060550794   -1.2020235      0.1087768     -1.0024323     -0.040516069  
   2569000   0.060880579   -1.2140004      0.10767144    -1.0150199     -0.0088481487 
   2570000   0.060208067   -1.202809       0.10660622    -1.0059023     -0.014593841  
   2571000   0.059105024   -1.2107058      0.10850784    -1.0135518     -0.0082977344 
   2572000   0.059805735   -1.2240984      0.10864022    -1.0257612     -0.046046588  
   2573000   0.059770833   -1.214237       0.10907569    -1.0155166     -0.01973919   
   2574000   0.06071658    -1.2078989      0.10874836    -1.0080874     -0.037867369  
   2575000   0.060029121   -1.2107086      0.10826413    -1.0124124     -0.019213866  
   2576000   0.060010672   -1.2161442      0.10755607    -1.0185838     -0.020386816  
   2577000   0.06095578    -1.2286265      0.1084312     -1.0287735     -0.02879917   
   2578000   0.060697873   -1.2207215      0.10793339    -1.0217531     -0.00024212436
   2579000   0.060791762   -1.2011795      0.10795339    -1.0020503     -0.041338316  
   2580000   0.061034706   -1.2104632      0.10986387    -1.0090591     -0.032071108  
   2581000   0.060265675   -1.2080536      0.10902376    -1.008643      -0.030039285  
   2582000   0.060725308   -1.2108857      0.11008555    -1.0097239     -0.028640823  
   2583000   0.060828292   -1.2168428      0.10863341    -1.0169787     -0.036691352  
   2584000   0.06162169    -1.2264357      0.10751737    -1.0264977     -0.028482005  
   2585000   0.060661445   -1.2044376      0.1088664     -1.0045908     -0.025084442  
   2586000   0.060180847   -1.2118991      0.10789359    -1.0137459     -0.03962181   
   2587000   0.060700862   -1.1964455      0.10714793    -0.99825797    -0.022577352  
   2588000   0.060219923   -1.2210485      0.10698458    -1.0237457     -0.029632126  
   2589000   0.059658542   -1.1988558      0.10825768    -1.0011218     -0.025589569  
   2590000   0.060997073   -1.2129522      0.10685744    -1.014611      -0.030929973  
   2591000   0.060684079   -1.1994094      0.10820739    -1.0001876     -0.052882072  
   2592000   0.061771053   -1.2153051      0.10993793    -1.0127226      0.0054423112 
   2593000   0.060782368   -1.2171298      0.10918618    -1.0167818     -0.020683719  
   2594000   0.059875303   -1.2175715      0.10910994    -1.0186602     -0.022644284  
   2595000   0.059867846   -1.2137229      0.1082685     -1.0156642     -0.0023760729 
   2596000   0.061342551   -1.219929       0.10799269    -1.0199344     -0.033975361  
   2597000   0.059378544   -1.2148113      0.10857195    -1.017183       0.00062243878
   2598000   0.059651984   -1.2213464      0.10621762    -1.0256623     -0.021193284  
   2599000   0.060348646   -1.2158568      0.10790917    -1.0174363     -0.038345003  
   2600000   0.060127437   -1.2120868      0.10495674    -1.0169505     -0.0064849419 
   2601000   0.059777823   -1.2157562      0.10689777    -1.0192033     -0.011397946  
   2602000   0.060157414   -1.210409       0.10791769    -1.0122668     -0.0081414046 
   2603000   0.061489913   -1.2068479      0.10642337    -1.0082015     -0.016507186  
   2604000   0.061310632   -1.212215       0.10775487    -1.0125061     -0.010071229  
   2605000   0.060894034   -1.2196698      0.10823043    -1.0201101     -0.011235411  
   2606000   0.060898257   -1.207354       0.10685261    -1.0091658     -0.00092284426
   2607000   0.060777753   -1.2072365      0.10780995    -1.0082716      0.018167444  
   2608000   0.060763324   -1.2226799      0.10573395    -1.0258127     -0.0033987366 
   2609000   0.059986114   -1.2105914      0.1056623     -1.0149616     -0.0045825597 
   2610000   0.060988393   -1.2242471      0.10486863    -1.0279077     -0.011230979  
   2611000   0.060437882   -1.2132845      0.10711001    -1.0155293     -0.027920472  
   2612000   0.060101169   -1.2316527      0.10709087    -1.0344217     -0.027935924  
   2613000   0.060568813   -1.2159251      0.10680592    -1.0182776     -0.023062141  
   2614000   0.060439512   -1.2097368      0.10669702    -1.0123922     -0.017492822  
   2615000   0.061036701   -1.213645       0.10767054    -1.0144312     -0.01776071   
   2616000   0.06054604    -1.2091938      0.10712728    -1.0112592     -0.0033173558 
   2617000   0.060617865   -1.2180257      0.10746669    -1.019644      -0.0010397854 
   2618000   0.060648766   -1.2172829      0.1070706     -1.0192509      0.010772051  
   2619000   0.059979883   -1.2111631      0.10705011    -1.0141547     -0.0036164832 
   2620000   0.059980239   -1.2188787      0.10612858    -1.0227913     -0.0016885055 
   2621000   0.060038273   -1.2236773      0.10562046    -1.0280111      0.0097420546 
   2622000   0.060282882   -1.2098682      0.10727187    -1.0121836      0.013665139  
   2623000   0.06137492    -1.2146683      0.1066406     -1.0159772      0.023244852  
   2624000   0.061854195   -1.2121491      0.10984715    -1.0095326      0.010923802  
   2625000   0.060704572   -1.2220334      0.10672547    -1.0242628     -0.017820109  
   2626000   0.061581147   -1.2141776      0.10664995    -1.0151679      0.0039047932 
   2627000   0.059923509   -1.2102214      0.10767531    -1.0126724      0.019795747  
   2628000   0.061131375   -1.2068038      0.10715425    -1.0079643      0.0075197139 
   2629000   0.06114916    -1.2163879      0.107819      -1.016857      -0.0083713025 
   2630000   0.061056047   -1.2082225      0.10778688    -1.0088634      0.002489263  
   2631000   0.060536213   -1.2156029      0.10797822    -1.016832      -0.0050088035 
   2632000   0.061022141   -1.2125218      0.10916967    -1.0118308      0.0075461982 
   2633000   0.062283509   -1.2177231      0.10825786    -1.016052      -0.012653158  
   2634000   0.060448118   -1.1963643      0.10870791    -0.9969959     -0.013357958  
   2635000   0.060672735   -1.2345821      0.10941424    -1.0341705      0.0041277667 
   2636000   0.060635021   -1.2070962      0.11112114    -1.0050342      0.0027773047 
   2637000   0.060591045   -1.2247282      0.11085574    -1.0229976      0.0020878469 
   2638000   0.061640502   -1.2046167      0.10986678    -1.0023011      0.020018381  
   2639000   0.061501587   -1.222579       0.11030057    -1.020038      -0.011469028  
   2640000   0.061194745   -1.2039607      0.10971502    -1.0024654      0.0064141927 
   2641000   0.061509361   -1.218304       0.10733273    -1.0187191      0.0039376895 
   2642000   0.060984742   -1.2075296      0.10993771    -1.0061266      0.021300806  
   2643000   0.061410228   -1.2116648      0.11116792    -1.0083934     -0.0055617507 
   2644000   0.061895452   -1.2124444      0.10775572    -1.0118575     -0.00098346975
   2645000   0.060372083   -1.2151936      0.10855043    -1.0160967      0.0060178885 
   2646000   0.06043769    -1.2220341      0.10874001    -1.0226493      0.013238132  
   2647000   0.060419305   -1.2151625      0.1062989     -1.0182464      0.00075739494
   2648000   0.059830203   -1.2230957      0.10861613    -1.0247459     -0.011765106  
   2649000   0.060568284   -1.2117063      0.10784477    -1.0130208      0.0038685318 
   2650000   0.06022247    -1.2129124      0.1084248     -1.0141655      0.0050957197 
   2651000   0.060637319   -1.2038815      0.1100135     -1.0029237     -0.013181994  
   2652000   0.06041593    -1.2180713      0.10875039    -1.0187087     -0.017736165  
   2653000   0.059991793   -1.214728       0.10899477    -1.0157571     -0.005520364  
   2654000   0.060023084   -1.2211297      0.10983496    -1.0212717      0.0013060854 
   2655000   0.060984262   -1.2169313      0.10875569    -1.0167111     -0.0013128852 
   2656000   0.061166777   -1.2191509      0.10974655    -1.017666      -0.023833853  
   2657000   0.060022498   -1.2087355      0.1091238     -1.0095896     -0.024947027  
   2658000   0.060531592   -1.2148537      0.10890749    -1.0151606      0.0058793226 
   2659000   0.059935944   -1.2043466      0.10686553    -1.0075888     -0.0061063729 
   2660000   0.059927724   -1.2163302      0.10791419    -1.0185361     -0.021463076  
   2661000   0.060138481   -1.2197431      0.1097975     -1.0197495      0.0065367314 
   2662000   0.059846466   -1.2222816      0.10812003    -1.0244035      0.018011592  
   2663000   0.060000895   -1.2052079      0.10940214    -1.005816      -0.010541478  
   2664000   0.06053725    -1.2213041      0.10880242    -1.0217075     -0.031966468  
   2665000   0.060712592   -1.2153415      0.10879417    -1.0154902     -0.036118887  
   2666000   0.061142713   -1.2046372      0.10967046    -1.0032645     -0.00069839052
   2667000   0.060628413   -1.2086566      0.10832691    -1.0093988     -0.0068379934 
   2668000   0.060382128   -1.2154736      0.10675314    -1.018159      -0.015796884  
   2669000   0.060540365   -1.2280426      0.10822235    -1.0290214     -0.017418938  
   2670000   0.06086278    -1.2050902      0.10839516    -1.0054126     -0.015631528  
   2671000   0.060667972   -1.2018507      0.10890613    -1.0019543     -0.022192518  
   2672000   0.060879276   -1.2190035      0.11065393    -1.0170424     -0.025323156  
   2673000   0.059537171   -1.2068106      0.10960841    -1.007908      -0.0099111017 
   2674000   0.060091032   -1.2112498      0.10761364    -1.0135113     -0.022730718  
   2675000   0.060208695   -1.2242709      0.1065965     -1.0273731      0.0075504265 
   2676000   0.060557944   -1.214202       0.1073291     -1.0160477     -0.0051060344 
   2677000   0.060997661   -1.2054064      0.10792322    -1.0059985     -0.0183248    
   2678000   0.060303677   -1.2186007      0.10960707    -1.0185497     -0.0058107385 
   2679000   0.059789642   -1.2093244      0.10803522    -1.0116163     -0.0057881946 
   2680000   0.059858185   -1.2223508      0.10919569    -1.0233794     -0.020133116  
   2681000   0.060836974   -1.220939       0.10772266    -1.0219726     -0.0069936704 
   2682000   0.060879707   -1.2230854      0.10774292    -1.0240347     -0.0077571972 
   2683000   0.060297787   -1.2247129      0.11003841    -1.0242395     -0.014732847  
   2684000   0.060666139   -1.2046865      0.1084467     -1.0052524     -0.016690666  
   2685000   0.060643706   -1.2167627      0.10828743    -1.0175214      0.0092060099 
   2686000   0.060323925   -1.1998698      0.10821267    -1.0011829     -0.020271936  
   2687000   0.05973614    -1.2107297      0.10654849    -1.0145885     -0.010336752  
   2688000   0.059275723   -1.2110797      0.10559285    -1.0165847     -0.0025541685 
   2689000   0.060236023   -1.2245999      0.10736904    -1.0268885     -0.00071968367
   2690000   0.060485763   -1.2098858      0.10939608    -1.0097728      0.00096820459
   2691000   0.061361143   -1.2186744      0.10779399    -1.0188506     -0.01343655   
   2692000   0.060126843   -1.2117005      0.10836116    -1.0131607     -0.0013390069 
   2693000   0.060452599   -1.2207959      0.10881015    -1.0213185      0.00098899646
   2694000   0.059260233   -1.2134167      0.10994128    -1.0145965     -0.0073524137 
   2695000   0.059850729   -1.2246529      0.11016648    -1.0247219      0.013264341  
   2696000   0.059841516   -1.2103498      0.10813065    -1.0124685      0.0007671771 
   2697000   0.060274047   -1.2238032      0.10834686    -1.025057       0.00083264408
   2698000   0.060243353   -1.216966       0.10865841    -1.0179542      0.014382643  
   2699000   0.05999889    -1.2246288      0.10875637    -1.0258857      0.0064989491 
   2700000   0.059853569   -1.2207585      0.10802863    -1.0229611      0.0036556811 
   2701000   0.06056978    -1.2081955      0.10634131    -1.0110112     -0.010990692  
   2702000   0.060205456   -1.222241       0.1091885     -1.0227559      0.013722481  
   2703000   0.060236691   -1.2164887      0.10985631    -1.016289      -0.0095537366 
   2704000   0.060371695   -1.2214616      0.10897822    -1.0219375     -0.022675324  
   2705000   0.061068982   -1.2117532      0.10861033    -1.0115512     -0.0090959813 
   2706000   0.061160458   -1.2281764      0.10792412    -1.0285234     -0.0088693094 
   2707000   0.060231178   -1.2175384      0.11058194    -1.0166213     -0.0090497162 
   2708000   0.061783945   -1.2246221      0.10966888    -1.0222893     -0.0097578775 
   2709000   0.062297245   -1.2388532      0.10995054    -1.0354689     -0.011764135  
   2710000   0.061164342   -1.2112033      0.11158507    -1.0078836      0.0040986786 
   2711000   0.061145797   -1.2113487      0.10929089    -1.010351       0.017635858  
   2712000   0.061238976   -1.2144971      0.10968416    -1.0129663     -0.018602287  
   2713000   0.060396226   -1.2197149      0.10986499    -1.0192673     -0.010181447  
   2714000   0.060613829   -1.2190561      0.10984258    -1.0183045     -0.006252568  
   2715000   0.060558295   -1.2223684      0.10982662    -1.021716      -0.02452951   
   2716000   0.0601348     -1.2178526      0.10953227    -1.0181298     -0.0030085538 
   2717000   0.061022281   -1.2098817      0.1116675     -1.0066926     -0.0087659183 
   2718000   0.061222469   -1.2272082      0.10792981    -1.0274565     -0.0023599069 
   2719000   0.060603768   -1.2051151      0.11073797    -1.0034833     -0.012944713  
   2720000   0.060254851   -1.2242408      0.10898853    -1.0248816     -0.011486937  
   2721000   0.059574732   -1.225994       0.10855078    -1.0280926     -0.0085143233 
   2722000   0.059575204   -1.2185209      0.10983273    -1.0193369     -0.015621674  
   2723000   0.059445484   -1.2253688      0.10816106    -1.028051      -0.0018309722 
   2724000   0.060401002   -1.2190651      0.1083933     -1.020082      -0.010138433  
   2725000   0.060820907   -1.2248963      0.10956627    -1.0241104      0.0092908419 
   2726000   0.060808233   -1.2200887      0.10880406    -1.0200841      0.012880987  
   2727000   0.060256668   -1.2092249      0.10940099    -1.0094505     -0.00062708083
   2728000   0.059999161   -1.2225525      0.10834062    -1.0242248     -0.010471413  
   2729000   0.06091381    -1.2197101      0.10983449    -1.0185166     -0.022462176  
   2730000   0.060651585   -1.2170252      0.11047296    -1.0155866     -0.0090207213 
   2731000   0.060740201   -1.2188353      0.10742744    -1.0203093      0.0096556541 
   2732000   0.060349527   -1.2340402      0.10828883    -1.0352388     -0.018503545  
   2733000   0.060602273   -1.2134342      0.10857471    -1.0139678     -0.013217017  
   2734000   0.060304468   -1.2211383      0.10910427    -1.021589      -0.022194541  
   2735000   0.060289679   -1.2213563      0.10922815    -1.0217053     -0.018758335  
   2736000   0.060133432   -1.2252873      0.10817833    -1.0269205     -0.037619491  
   2737000   0.060937518   -1.2182479      0.10910617    -1.0177473      0.0092361317 
   2738000   0.06191938    -1.224131       0.1094989     -1.021765      -0.021932765  
   2739000   0.061135273   -1.2163921      0.1109415     -1.0137596     -0.0019838435 
   2740000   0.060115342   -1.217058       0.11023769    -1.016659       0.008002492  
   2741000   0.06027248    -1.2230038      0.11045335    -1.0221534     -0.014853645  
   2742000   0.06038516    -1.2181882      0.10996568    -1.0176565      0.0032086533 
   2743000   0.060811072   -1.2156387      0.1105841     -1.0138498     -0.0044269879 
   2744000   0.060530859   -1.2173178      0.11076562    -1.0157676     -0.003645988  
   2745000   0.061167546   -1.2007104      0.10853954    -1.0004313      0.013604752  
   2746000   0.060910154   -1.220961       0.1096492     -1.0199584     -0.015751253  
   2747000   0.060194724   -1.2175365      0.1102336     -1.0170225     -0.013784817  
   2748000   0.060050992   -1.2158295      0.11071302    -1.0150517     -0.0092133783 
   2749000   0.061649749   -1.2194807      0.10989653    -1.0171215     -0.020162532  
   2750000   0.061101647   -1.2304294      0.11047889    -1.0283098     -0.0093807033 
   2751000   0.061326409   -1.2268821      0.11036281    -1.0245415      0.0010623265 
   2752000   0.062129723   -1.2245397      0.11057691    -1.0207802     -0.0071290986 
   2753000   0.061655305   -1.2337399      0.11144519    -1.0298237      0.016501538  
   2754000   0.060812927   -1.2226796      0.11117924    -1.0202927      0.003513858  
   2755000   0.060735916   -1.2159668      0.11038901    -1.0144857      0.0038620126 
   2756000   0.060698533   -1.2163978      0.1082668     -1.017095      -0.018805983  
   2757000   0.060629612   -1.2205883      0.11140436    -1.0182513     -0.01665944   
   2758000   0.060576919   -1.2078775      0.11026187    -1.006762       0.0077297305 
   2759000   0.061434552   -1.2193995      0.11169029    -1.0155692     -0.024822031  
   2760000   0.060815846   -1.2079543      0.11094742    -1.0057949     -0.0037131886 
   2761000   0.06142861    -1.2188007      0.11312496    -1.0135447     -0.022496659  
   2762000   0.060765777   -1.2068436      0.1108655     -1.0048412     -0.00087446915
   2763000   0.059399031   -1.2247172      0.11016099    -1.0254691     -0.0236456    
   2764000   0.059721791   -1.2194693      0.11118585    -1.0187123      0.020759418  
   2765000   0.060763755   -1.2206188      0.11001452    -1.0194704      0.0070928044 
   2766000   0.061247367   -1.2189224      0.11231125    -1.014752      -0.013600736  
   2767000   0.06117527    -1.2141688      0.11211725    -1.0103005     -0.019341069  
   2768000   0.060790673   -1.2051082      0.11006919    -1.0038647     -0.00069129187
   2769000   0.062108997   -1.2182828      0.11258708    -1.0125442     -0.0084004813 
   2770000   0.062043944   -1.2162839      0.11199118    -1.0112388     -0.014713784  
   2771000   0.061168972   -1.2130209      0.11237856    -1.0089008     -0.0089975231 
   2772000   0.061184523   -1.2231317      0.11321951    -1.0181473     -0.013074308  
   2773000   0.061284596   -1.2323248      0.11162366    -1.0287861     -0.011108512  
   2774000   0.061459349   -1.211194       0.10897586    -1.0100411     -0.025014104  
   2775000   0.061787305   -1.2235169      0.11043042    -1.0204175     -0.0036575097 
   2776000   0.060598777   -1.2226865      0.11259229    -1.0192078     -0.028837898  
   2777000   0.060615578   -1.2311512      0.11139783    -1.0288417     -0.0030262308 
   2778000   0.059906233   -1.2265637      0.1119157     -1.0248002     -0.021367807  
   2779000   0.059271628   -1.2079627      0.11093868    -1.008128      -0.0027741246 
   2780000   0.060868769   -1.215403       0.11156261    -1.0125491     -0.014147309  
   2781000   0.06049724    -1.2184863      0.11101623    -1.0167359     -0.025852265  
   2782000   0.060797968   -1.2105918      0.11089239    -1.0085142     -0.028619425  
   2783000   0.060344034   -1.2086054      0.11306971    -1.0050314     -0.019851379  
   2784000   0.061462293   -1.2143021      0.11206047    -1.0100601      0.012165801  
   2785000   0.059386493   -1.2272793      0.11241738    -1.0257937      0.0063135435 
   2786000   0.06069075    -1.2219321      0.11256159    -1.0183461      0.0068388734 
   2787000   0.060556638   -1.2259763      0.11193058    -1.0232225     -0.012539615  
   2788000   0.062020879   -1.2100856      0.11142004    -1.0056462      0.00086657906
   2789000   0.061014761   -1.2181646      0.11233241    -1.0143218      0.0019747338 
   2790000   0.060239542   -1.2206183      0.11244061    -1.0178301     -0.028617871  
   2791000   0.060019942   -1.2171521      0.11317576    -1.013958      -0.0046841148 
   2792000   0.061400881   -1.22173        0.11218676    -1.0174538      0.0027508992 
   2793000   0.060535663   -1.2258615      0.11416717    -1.0209025      0.016279882  
   2794000   0.060224931   -1.2184278      0.11144677    -1.0166552      0.0086765361 
   2795000   0.06041089    -1.2266051      0.1117203     -1.0242802      0.0061894921 
   2796000   0.060922407   -1.2173321      0.11338126    -1.012579       0.0060523696 
   2797000   0.061288839   -1.2280892      0.11267678    -1.0234911     -0.017191635  
   2798000   0.060415156   -1.2168758      0.11244048    -1.0138243     -0.0072634901 
   2799000   0.060096931   -1.2279963      0.11134753    -1.026515      -0.0029455397 
   2800000   0.060012268   -1.2273815      0.11173244    -1.0256423     -0.010050411  
   2801000   0.061992449   -1.2185522      0.11260206    -1.0129734     -0.012388381  
   2802000   0.060683817   -1.2131531      0.11117199    -1.0109671     -0.0064991615 
   2803000   0.061633091   -1.2125671      0.11172308    -1.0084063      0.0025789715 
   2804000   0.060958814   -1.2286916      0.1128089     -1.0244563      0.00071385604
   2805000   0.060686961   -1.2069672      0.11253311    -1.0034154     -0.0056456135 
   2806000   0.060398713   -1.2200433      0.11168794    -1.017769      -0.026969841  
   2807000   0.060964622   -1.2201938      0.11320098    -1.0155577      0.030873925  
   2808000   0.061299249   -1.2146625      0.11214398    -1.0105815     -0.0096542519 
   2809000   0.059909652   -1.2314858      0.11243144    -1.0292015     -0.024017522  
   2810000   0.059772405   -1.2077396      0.11168901    -1.0064035      0.0064802213 
   2811000   0.060076892   -1.2211063      0.11072204    -1.0202805     -0.0023918618 
   2812000   0.061476544   -1.2221327      0.11430494    -1.0156249      0.030597458  
   2813000   0.060653109   -1.2215236      0.11494061    -1.0156151     -0.00021301848
   2814000   0.061793844   -1.2214899      0.11348246    -1.0153287     -0.0060911383 
   2815000   0.061644487   -1.216665       0.11322157    -1.0109886     -0.018085994  
   2816000   0.060892062   -1.2200901      0.11320029    -1.0155635     -0.0068704164 
   2817000   0.060563282   -1.2275931      0.11250231    -1.0242576     -0.0076490231 
   2818000   0.060905228   -1.2070037      0.11336276    -1.0022949     -0.022575999  
   2819000   0.059258858   -1.2253835      0.11242553    -1.0240811      0.0079331554 
   2820000   0.059869746   -1.2217263      0.1107725     -1.0211607      0.0027423143 
   2821000   0.060977106   -1.2177615      0.11075508    -1.0155526      0.016059364  
   2822000   0.059968873   -1.2194343      0.11191976    -1.0175728      0.0015857695 
   2823000   0.059803384   -1.2286735      0.11241329    -1.0265667     -0.014309746  
   2824000   0.061064532   -1.2225969      0.11111358    -1.0198983     -0.013803713  
   2825000   0.06021694    -1.2226162      0.11192295    -1.0203794     -0.018821874  
   2826000   0.060252943   -1.2242114      0.1108865     -1.0229572     -0.028921557  
   2827000   0.061605744   -1.2282176      0.11231388    -1.023507      -0.017212615  
   2828000   0.061231815   -1.2217087      0.11322364    -1.0166492     -0.010719815  
   2829000   0.060686714   -1.2141863      0.11371365    -1.0094544     -0.014356032  
   2830000   0.060781222   -1.2182712      0.11218488    -1.0149263      0.0054286258 
   2831000   0.059980274   -1.2129468      0.11285738    -1.0101306     -0.031086778  
   2832000   0.060859542   -1.2222863      0.1112553     -1.0197535     -0.0028089832 
   2833000   0.060132796   -1.2172554      0.1133809     -1.0136869     -0.010131686  
   2834000   0.059355061   -1.2249894      0.11237522    -1.0235931     -0.025090454  
   2835000   0.060446765   -1.2233647      0.11336363    -1.0193426     -0.018978963  
   2836000   0.060755007   -1.2149871      0.11345639    -1.01041       -0.015983489  
   2837000   0.060710279   -1.2113141      0.11223614    -1.0080242     -0.0082411293 
   2838000   0.061058716   -1.2228463      0.1129272     -1.0183428      0.0030296064 
   2839000   0.060594216   -1.2291659      0.1127647     -1.0255216     -0.0033557411 
   2840000   0.060744348   -1.227451       0.1136863     -1.02266       -0.029772324  
   2841000   0.061444246   -1.2118018      0.1109262     -1.0087211     -0.015038031  
   2842000   0.060221331   -1.2165392      0.1119523     -1.0142666     -0.033469573  
   2843000   0.060804452   -1.2076176      0.11152869    -1.004894      -0.019307395  
   2844000   0.061487239   -1.2121313      0.11358023    -1.0063321     -0.012859141  
   2845000   0.061027573   -1.2166715      0.1143014     -1.0108405     -0.028507929  
   2846000   0.060493194   -1.2201003      0.1111926     -1.0181796     -0.020609836  
   2847000   0.060432502   -1.2239284      0.11466088    -1.0186305      0.0024176053 
   2848000   0.061069932   -1.2214273      0.11416887    -1.0156654      0.0093066156 
   2849000   0.060802236   -1.2275564      0.11158515    -1.0247797     -0.016650408  
   2850000   0.060563183   -1.2243662      0.11416099    -1.0193722     -0.015441222  
   2851000   0.061553775   -1.2135225      0.11405962    -1.0071441     -0.017676042  
   2852000   0.060873648   -1.2121692      0.11267999    -1.0081905     -0.0059798695 
   2853000   0.060520474   -1.2264312      0.11081339    -1.0248488      0.0024109765 
   2854000   0.060339438   -1.2242873      0.11102734    -1.0227625     -0.018727961  
   2855000   0.060753558   -1.2201939      0.11120049    -1.0178748     -0.020352651  
   2856000   0.060038667   -1.236345       0.11166999    -1.0346286     -0.02868431   
   2857000   0.060241508   -1.2334974      0.11091736    -1.0322294     -0.017167562  
   2858000   0.059718184   -1.2223246      0.11159733    -1.0211615     -0.0017424989 
   2859000   0.060188081   -1.2162647      0.1102563     -1.0157379     -0.015109219  
   2860000   0.059405951   -1.2264299      0.11010015    -1.0272323      0.002184119  
   2861000   0.059622106   -1.2140729      0.11141935    -1.013232      -0.0066914353 
   2862000   0.059992028   -1.2198849      0.11167817    -1.0182303     -0.015672765  
   2863000   0.060048537   -1.2177699      0.11203824    -1.0156705     -0.018941831  
   2864000   0.060404108   -1.2260281      0.11097529    -1.0244584     -0.025772493  
   2865000   0.0600775     -1.2186522      0.11262394    -1.0159236     -0.0088334923 
   2866000   0.0604515     -1.2285536      0.11117489    -1.0267131      0.0012713496 
   2867000   0.061100481   -1.2201467      0.11222476    -1.0162831     -0.020026776  
   2868000   0.060940143   -1.2167501      0.11202234    -1.0133293      0.0079075968 
   2869000   0.060892665   -1.2272711      0.1111423     -1.0248016     -0.010367103  
   2870000   0.060133698   -1.2205018      0.11263066    -1.0176822     -0.038739872  
   2871000   0.060439131   -1.2236895      0.11046792    -1.0225746     -0.0053815402 
   2872000   0.060998927   -1.2152071      0.11216292    -1.0115576     -0.025908396  
   2873000   0.060374866   -1.2212628      0.11276329    -1.0179489      0.0058696836 
   2874000   0.060602116   -1.2152534      0.11118224    -1.0131798     -0.033079289  
   2875000   0.060688918   -1.2168258      0.11176971    -1.0140344     -0.019844708  
   2876000   0.060988458   -1.2129339      0.11185873    -1.0096043     -0.0096041501 
   2877000   0.06033386    -1.2245467      0.11154641    -1.0225112     -0.028396449  
   2878000   0.059735758   -1.2097359      0.11069472    -1.0094491     -0.029927527  
   2879000   0.060126546   -1.2233986      0.11134803    -1.0218724     -0.013156926  
   2880000   0.060343923   -1.2197589      0.11115097    -1.0181037     -0.035055338  
   2881000   0.060523778   -1.2221489      0.10954636    -1.0218286     -0.020350943  
   2882000   0.060068885   -1.2197268      0.11155364    -1.0180815     -0.014044989  
   2883000   0.060581786   -1.2247764      0.11053437    -1.0233811     -0.0082646266 
   2884000   0.061061736   -1.2187645      0.11081126    -1.0163725     -0.028370132  
   2885000   0.061353809   -1.2249775      0.11300565    -1.019953      -0.0073511246 
   2886000   0.061358522   -1.2082702      0.11195082    -1.0042934     -0.025754784  
   2887000   0.060960696   -1.2080655      0.11201277    -1.0046235     -0.030857464  
   2888000   0.061222199   -1.2323352      0.11299085    -1.0275229     -0.0089262859 
   2889000   0.060706506   -1.2260118      0.11376957    -1.0211942     -0.010116435  
   2890000   0.061359187   -1.226746       0.11124076    -1.0234783     -0.018162255  
   2891000   0.06128975    -1.2101357      0.11197893    -1.006234      -0.023785287  
   2892000   0.060779263   -1.2144215      0.1110793     -1.012185      -0.01741949   
   2893000   0.060768865   -1.2278309      0.11199154    -1.0246978     -0.02154901   
   2894000   0.060784137   -1.2180865      0.11121146    -1.0157106     -0.013974632  
   2895000   0.061205562   -1.2261004      0.11082371    -1.0234802     -0.032180229  
   2896000   0.06084612    -1.2238496      0.11124591    -1.0213463     -0.014575819  
   2897000   0.060028228   -1.2227688      0.11191038    -1.0208277     -0.011989655  
   2898000   0.060841292   -1.2223797      0.11086355    -1.0202659     -0.010357259  
   2899000   0.061026441   -1.2103015      0.11099273    -1.0077809     -0.00088269083
   2900000   0.059890331   -1.2203501      0.11339587    -1.0171303     -0.03241453   
   2901000   0.059979057   -1.2212985      0.11027618    -1.0210653     -0.034119359  
   2902000   0.0612575     -1.2227995      0.11023078    -1.0206943     -0.035929792  
   2903000   0.060018382   -1.2158258      0.11069081    -1.015119      -0.013582336  
   2904000   0.060465142   -1.2156096      0.11039996    -1.0145237     -0.02170594   
   2905000   0.059898046   -1.2186778      0.11219537    -1.016647      -0.045105819  
   2906000   0.060707839   -1.2203761      0.11107426    -1.0182518     -0.018797338  
   2907000   0.061072356   -1.2218691      0.11352768    -1.0167447     -0.020266239  
   2908000   0.060545866   -1.2114038      0.11171088    -1.0088858     -0.0075804463 
   2909000   0.061168336   -1.2243511      0.11025768    -1.0223527     -0.031443686  
   2910000   0.060795234   -1.2203454      0.1105251     -1.0186392     -0.019677145  
   2911000   0.061583945   -1.2225817      0.11038811    -1.0198296     -0.005455924  
   2912000   0.061370229   -1.2233236      0.11050075    -1.0207794     -0.0011718653 
   2913000   0.060575907   -1.2231002      0.11045026    -1.0217978     -0.035666509  
   2914000   0.061140821   -1.2160291      0.10989676    -1.0144329     -0.002141108  
   2915000   0.060632492   -1.2125819      0.11051728    -1.0111276     -0.037293207  
   2916000   0.05971549    -1.2280345      0.11331981    -1.025153      -0.043886285  
   2917000   0.061020902   -1.2336782      0.11141497    -1.0307437     -0.030398407  
   2918000   0.060873206   -1.2124358      0.11162696    -1.0095108     -0.03843033   
   2919000   0.061145661   -1.2125052      0.11157848    -1.0092201     -0.037932288  
   2920000   0.06047187    -1.2155248      0.11293443    -1.0118942     -0.01572018   
   2921000   0.060456519   -1.2260479      0.10968284    -1.025692      -0.0076653914 
   2922000   0.060963181   -1.2231375      0.11191075    -1.0197938     -0.0031594434 
   2923000   0.061159427   -1.2173123      0.11178876    -1.0137962     -0.035251308  
   2924000   0.060440136   -1.2143275      0.11050943    -1.0131695     -0.028026985  
   2925000   0.060200528   -1.2085165      0.11206419    -1.0061632      0.0098969191 
   2926000   0.060121827   -1.2177914      0.11075408    -1.0168663     -0.042085298  
   2927000   0.060790505   -1.2125514      0.11213452    -1.0092429     -0.013861338  
   2928000   0.060036002   -1.2251692      0.11190954    -1.0232173     -0.020946735  
   2929000   0.059976303   -1.2260691      0.11080861    -1.0253076      0.0062242396 
   2930000   0.060490661   -1.2238054      0.11142197    -1.0216592     -0.030693245  
   2931000   0.06052639    -1.2278764      0.11108437    -1.0260142     -0.030748233  
   2932000   0.060766129   -1.2176085      0.11134469    -1.0151264     -0.010551293  
   2933000   0.060369924   -1.2297455      0.11054528    -1.0286571     -0.023727948  
   2934000   0.061561798   -1.2260135      0.11049554    -1.0231872     -0.0083789537 
   2935000   0.060762602   -1.2086077      0.11222395    -1.0052516     -0.032854776  
   2936000   0.060878155   -1.2176899      0.11087427    -1.0155102     -0.018790709  
   2937000   0.061211486   -1.2220353      0.11116316    -1.0190667     -0.0024942464 
   2938000   0.060662686   -1.2260109      0.11232698    -1.0227017     -0.032581154  
   2939000   0.061231031   -1.212566       0.11037571    -1.0103556     -0.033559122  
   2940000   0.061421841   -1.2177697      0.1097331     -1.0159157     -0.0019596852 
   2941000   0.060974694   -1.2356893      0.10988983    -1.0343493     -0.010641235  
   2942000   0.06037627    -1.2141427      0.11016481    -1.0134252      0.024297883  
   2943000   0.060540383   -1.2204294      0.11001907    -1.0196114     -0.014965305  
   2944000   0.060770072   -1.2248757      0.11077832    -1.022954      -0.00067173934
   2945000   0.060112081   -1.2086293      0.11027432    -1.0081985      0.017099397  
   2946000   0.060350194   -1.2253106      0.11113444    -1.0236626     -0.0054835982 
   2947000   0.061267222   -1.2317477      0.11038316    -1.0294756     -0.010085534  
   2948000   0.060816741   -1.2320061      0.11177769    -1.029015      -0.0094210227 
   2949000   0.061210173   -1.2166576      0.10975121    -1.015103      -0.025570858  
   2950000   0.060795249   -1.2065931      0.11085597    -1.0045561     -0.026557127  
   2951000   0.061246487   -1.2162236      0.10939831    -1.0149674     -0.0010875962 
   2952000   0.061229262   -1.2221218      0.11075634    -1.0195334     -0.016129153  
   2953000   0.060941517   -1.2229122      0.11174931    -1.0197624      0.012881477  
   2954000   0.059957121   -1.219705       0.11082802    -1.0189529     -0.019444208  
   2955000   0.060739232   -1.2260612      0.10984696    -1.0251172     -0.026639605  
   2956000   0.059772045   -1.2054013      0.11009853    -1.0056563     -0.017346331  
   2957000   0.060920591   -1.2122899      0.11057503    -1.0103458      0.010894945  
   2958000   0.060405181   -1.2290455      0.10910752    -1.0293419     -0.019149891  
   2959000   0.061211957   -1.2057973      0.10959928    -1.0043919     -0.0058694592 
   2960000   0.060809897   -1.2112582      0.10931127    -1.0107439     -0.015276941  
   2961000   0.060172095   -1.2105226      0.10871896    -1.0115572     -0.019768757  
   2962000   0.060976319   -1.2330637      0.10959089    -1.0320201     -0.004015384  
   2963000   0.060263863   -1.2261921      0.10976581    -1.0260422     -0.028639049  
   2964000   0.060442485   -1.2256882      0.10971835    -1.0253178     -0.029102257  
   2965000   0.059734546   -1.2189132      0.10913272    -1.0201902     -0.026048792  
   2966000   0.060190926   -1.2237114      0.11066516    -1.0227715     -0.0037424838 
   2967000   0.061063752   -1.2207081      0.10998067    -1.0191436      0.0071664505 
   2968000   0.060556884   -1.2255719      0.11094037    -1.0238079      0.0061513499 
   2969000   0.060681664   -1.242519       0.10937682    -1.0421315     -0.016070492  
   2970000   0.060097418   -1.2121353      0.1103806     -1.0116202     -0.01284878   
   2971000   0.06003225    -1.2301275      0.11051106    -1.0295797     -0.021675151  
   2972000   0.059927647   -1.2052095      0.1101422     -1.0051874     -0.01593698   
   2973000   0.06018811    -1.2338692      0.11137904    -1.0322196     -0.018679961  
   2974000   0.059161106   -1.233056       0.10904684    -1.0352789      0.001089504  
   2975000   0.060441581   -1.2128002      0.1094152     -1.0127344     -0.0081684799 
   2976000   0.059512532   -1.2231652      0.10806553    -1.0258424     -0.013623265  
   2977000   0.059872173   -1.2285062      0.10894748    -1.029762      -0.019460711  
   2978000   0.060220082   -1.2091707      0.10815021    -1.010702      -0.029418049  
   2979000   0.059278771   -1.2181685      0.10850385    -1.0207579     -0.00051996022
   2980000   0.059766449   -1.2153923      0.1074845     -1.0182697      0.0031650807 
   2981000   0.059168911   -1.2157273      0.10941445    -1.0175709     -0.01883264   
   2982000   0.05960759    -1.2225336      0.10927034    -1.0238634     -0.020177727  
   2983000   0.059699498   -1.2184494      0.11074932    -1.0181624     -0.028549186  
   2984000   0.060303366   -1.2248262      0.10964899    -1.0247338     -0.00059323494
   2985000   0.060784024   -1.2273538      0.1085302     -1.0276593     -0.046406693  
   2986000   0.060032312   -1.2226295      0.10877765    -1.023815      -0.042639309  
   2987000   0.059685913   -1.219428       0.10905936    -1.0208513     -0.02872371   
   2988000   0.059825343   -1.2221955      0.10939475    -1.0230743     -0.016600855  
   2989000   0.059796683   -1.2303601      0.1099967     -1.03068       -0.042933036  
   2990000   0.060510505   -1.2250619      0.11082202    -1.0234859     -0.024073118  
   2991000   0.059791337   -1.2280736      0.11129539    -1.0271028     -0.0084808074 
   2992000   0.061142732   -1.2278877      0.10957625    -1.0266092     -0.027697884  
   2993000   0.061031538   -1.2203565      0.11012463    -1.0186964     -0.020188865  
   2994000   0.062015168   -1.2227463      0.11208826    -1.0176473     -0.017862754  
   2995000   0.06133699    -1.221089       0.11083181    -1.0182636     -0.030352201  
   2996000   0.060845841   -1.2274458      0.10935272    -1.0268361      0.0062536396 
   2997000   0.059343659   -1.2304356      0.11042688    -1.0310047     -0.026075833  
   2998000   0.060412152   -1.2210887      0.1089529     -1.0215293     -0.014625099  
   2999000   0.06005611    -1.2213301      0.11015713    -1.0211004     -0.027136781  
   3000000   0.061300157   -1.2276382      0.1106436     -1.0250562     -0.017295279  
   3001000   0.06021048    -1.2296402      0.11287338    -1.0264628     -0.023020201  
   3002000   0.061009291   -1.2200432      0.11159189    -1.0169492     -0.0071933139 
   3003000   0.061064852   -1.2141612      0.11167142    -1.0109043     -0.018689267  
   3004000   0.06041124    -1.2050896      0.11053097    -1.0039535     -0.011155795  
   3005000   0.060596185   -1.2230685      0.11119539    -1.0209905     -0.023313236  
   3006000   0.059732774   -1.2238816      0.11013181    -1.0241622     -0.026901847  
   3007000   0.061363483   -1.2298394      0.11028602    -1.0275201     -0.034114511  
   3008000   0.060218282   -1.2176647      0.11003752    -1.0173114     -0.014053377  
   3009000   0.061121542   -1.2216132      0.1105932     -1.0193495     -0.015249561  
   3010000   0.061059534   -1.2248876      0.11110424    -1.0222059     -0.024614107  
   3011000   0.060477694   -1.2211593      0.11233091    -1.0181236     -0.029493423  
   3012000   0.06047135    -1.2192571      0.11313949    -1.0154223     -0.018474249  
   3013000   0.06145873    -1.2161552      0.10938845    -1.0145905     -0.013283882  
   3014000   0.06054286    -1.2253996      0.11008644    -1.0245105     -0.03875899   
   3015000   0.060369644   -1.2299084      0.11004665    -1.029319      -0.046654127  
   3016000   0.060936872   -1.2243815      0.11034673    -1.0226412     -0.056997348  
   3017000   0.060719738   -1.2241868      0.11113355    -1.0219854     -0.051507836  
   3018000   0.060397855   -1.2066715      0.11135354    -1.0047329     -0.054222905  
   3019000   0.060796298   -1.2106274      0.11044373    -1.009001      -0.052825249  
   3020000   0.060250555   -1.2209196      0.11106962    -1.0194858     -0.016648196  
   3021000   0.061475301   -1.2303299      0.10966706    -1.0284618     -0.014307417  
   3022000   0.060824085   -1.2223489      0.11010016    -1.0210244      0.0027855307 
   3023000   0.059833805   -1.2195126      0.11075961    -1.0190139     -0.030589119  
   3024000   0.059893695   -1.2236403      0.11051511    -1.0232962     -0.0088854913 
   3025000   0.06157982    -1.2265533      0.1105954     -1.0236001     -0.0052180507 
   3026000   0.061499865   -1.2299759      0.10942504    -1.028313      -0.022207506  
   3027000   0.061283853   -1.2343708      0.10941817    -1.0330387     -0.014465337  
   3028000   0.059808652   -1.2248765      0.10944428    -1.0257309     -0.025651002  
   3029000   0.060349299   -1.2180458      0.11032486    -1.0172087     -0.017717253  
   3030000   0.060435647   -1.2151991      0.11090785    -1.0136495     -0.0052751034 
   3031000   0.060621832   -1.2190924      0.11225151    -1.0159199     -0.045435287  
   3032000   0.060540689   -1.2183815      0.11278247    -1.0147997     -0.044677436  
   3033000   0.060122437   -1.2180296      0.11057876    -1.0172788     -0.028111398  
   3034000   0.060353665   -1.2115968      0.11033939    -1.0107386     -0.015898934  
   3035000   0.059903201   -1.2250903      0.11164827    -1.0235988     -0.031460293  
   3036000   0.060126271   -1.2210675      0.10986233    -1.0210274     -0.03454342   
   3037000   0.061236698   -1.2207314      0.11111137    -1.0177768     -0.027675016  
   3038000   0.060423602   -1.2258572      0.11041656    -1.0248169     -0.031386084  
   3039000   0.060498774   -1.2206284      0.1104888     -1.0194031     -0.030780098  
   3040000   0.061716724   -1.2145721      0.11161966    -1.0103893     -0.017313131  
   3041000   0.059727016   -1.2169167      0.10946067    -1.017877      -0.026010911  
   3042000   0.060355147   -1.2150075      0.10997948    -1.0145069     -0.022368208  
   3043000   0.060275013   -1.2286569      0.11144954    -1.0268065     -0.02872797   
   3044000   0.060327582   -1.2201768      0.11016934    -1.0195278     -0.014877493  
   3045000   0.060858756   -1.2183372      0.10954438    -1.0175164     -0.027039291  
   3046000   0.060660476   -1.2158192      0.11001239    -1.0148278     -0.023396225  
   3047000   0.060743067   -1.2196903      0.10903251    -1.0195549     -0.010718246  
   3048000   0.060737908   -1.2253596      0.11097016    -1.0232943     -0.024693787  
   3049000   0.06040146    -1.226737       0.11032633    -1.0258202     -0.034855754  
   3050000   0.060140446   -1.2144739      0.1120193     -1.0122556     -0.012287338  
   3051000   0.060922671   -1.2272708      0.11104474    -1.0248538     -0.02033495   
   3052000   0.059828331   -1.2256301      0.11108137    -1.0248179     -0.010631912  
   3053000   0.060492129   -1.2220301      0.11001484    -1.0212887     -0.0092568927 
   3054000   0.061381415   -1.2251044      0.10953351    -1.0235107     -0.04390478   
   3055000   0.060950772   -1.2083322      0.11147712    -1.0054407     -0.045167221  
   3056000   0.06130064    -1.228763       0.11083828    -1.0259857     -0.022108295  
   3057000   0.060895858   -1.2251643      0.11194281    -1.0218895     -0.014041236  
   3058000   0.060941825   -1.22291        0.10988319    -1.0216258     -0.014489921  
   3059000   0.061097096   -1.2242563      0.11123263    -1.0213899     -0.026836947  
   3060000   0.061666282   -1.2090114      0.11002835    -1.0064956     -0.031147719  
   3061000   0.061369966   -1.221288       0.10694767    -1.0222972     -0.020417209  
   3062000   0.060614922   -1.2203105      0.10946466    -1.0199352     -0.0260725    
   3063000   0.05997406    -1.2167297      0.1097043     -1.0170759     -0.024967411  
   3064000   0.060789102   -1.2193329      0.1094511     -1.0187099     -0.041599344  
   3065000   0.059839948   -1.2186744      0.11108208    -1.017844      -0.021861666  
   3066000   0.060637188   -1.2136293      0.10932227    -1.013363      -0.019425688  
   3067000   0.060555376   -1.2268116      0.10778901    -1.0282012     -0.044630417  
   3068000   0.061184699   -1.2278886      0.11055189    -1.0255715     -0.022001673  
   3069000   0.060341994   -1.2390523      0.11204889    -1.0365021     -0.019402829  
   3070000   0.059935112   -1.2215471      0.11024813    -1.0214079     -0.016078032  
   3071000   0.062023951   -1.2094743      0.11053405    -1.0059163     -0.01914839   
   3072000   0.060574847   -1.2098482      0.11033926    -1.0086584     -0.031187504  
   3073000   0.059922918   -1.223029       0.10975594    -1.0234003     -0.028272807  
   3074000   0.060830855   -1.2129687      0.10981044    -1.0119238     -0.027840535  
   3075000   0.059388287   -1.2274253      0.11157303    -1.0267813     -0.020598777  
   3076000   0.060141982   -1.2195955      0.11175661    -1.0176376     -0.021760894  
   3077000   0.060250584   -1.2202302      0.11102118    -1.0188448     -0.015099057  
   3078000   0.061391922   -1.2270783      0.11143583    -1.0235665     -0.017432926  
   3079000   0.060162446   -1.2287056      0.11058885    -1.0278847     -0.039678543  
   3080000   0.06003966    -1.2183354      0.11025761    -1.0180299      0.0047285292 
   3081000   0.060345784   -1.2345112      0.1094824     -1.0345218     -0.0016317448 
   3082000   0.061321621   -1.2174948      0.1102102     -1.0153141     -0.028714381  
   3083000   0.059662498   -1.2121045      0.10979955    -1.0128228     -0.01931848   
   3084000   0.060508965   -1.2177702      0.11003299    -1.0169855     -0.03553869   
   3085000   0.061270178   -1.2131029      0.11041202    -1.0107974     -0.022050806  
   3086000   0.060607065   -1.2218067      0.1107248     -1.020183      -0.040873688  
   3087000   0.061088337   -1.2241492      0.11014564    -1.0223829     -0.012174902  
   3088000   0.06047003    -1.2142412      0.11130059    -1.0122472     -0.035028019  
   3089000   0.061279541   -1.2113281      0.11209211    -1.0073286     -0.020468188  
   3090000   0.061199454   -1.2268843      0.11219741    -1.0228996     -0.022416424  
   3091000   0.060295946   -1.2350573      0.11198208    -1.032643      -0.020135738  
   3092000   0.06084379    -1.2129447      0.11292507    -1.0087658     -0.013611348  
   3093000   0.061069957   -1.2212546      0.11127324    -1.0183882     -0.02637664   
   3094000   0.060363532   -1.2110015      0.10912118    -1.0113467     -0.01266695   
   3095000   0.060957952   -1.2098398      0.10953768    -1.008877      -0.034595773  
   3096000   0.060798332   -1.2118975      0.11118881    -1.009523      -0.014182306  
   3097000   0.060265969   -1.2246646      0.11094249    -1.0233348     -0.052729481  
   3098000   0.060761865   -1.2067651      0.11037364    -1.0052605     -0.043033933  
   3099000   0.059988126   -1.2270183      0.10856182    -1.0284859     -0.029542559  
   3100000   0.060714451   -1.2282592      0.11190071    -1.0252986     -0.031005293  
   3101000   0.060244077   -1.2211137      0.1116353     -1.019124      -0.035154018  
   3102000   0.061313608   -1.2242878      0.11034471    -1.0219845     -0.017975581  
   3103000   0.060667028   -1.2276168      0.11247582    -1.0241522     -0.035202867  
   3104000   0.060472951   -1.2193444      0.11122211    -1.0174246     -0.032413459  
   3105000   0.06087126    -1.2302674      0.11185893    -1.0271134     -0.0046061143 
   3106000   0.06040267    -1.2135828      0.11235676    -1.0106337     -0.042898655  
   3107000   0.059844837   -1.2286607      0.10874475    -1.0301602     -0.025242787  
   3108000   0.060220884   -1.2199091      0.10825249    -1.021337      -0.038286222  
   3109000   0.060849939   -1.2068527      0.10955401    -1.0060356     -0.015606689  
   3110000   0.060432323   -1.2187575      0.10981346    -1.0183073     -0.021677927  
   3111000   0.060481576   -1.2168627      0.10929433    -1.0168577     -0.01682881   
   3112000   0.062682634   -1.225038       0.10970011    -1.0213261     -0.021742586  
   3113000   0.061274089   -1.2158967      0.11009124    -1.0139062     -0.029716863  
   3114000   0.060615913   -1.2147954      0.10987719    -1.014006      -0.021385892  
   3115000   0.060840368   -1.2124295      0.10935474    -1.011826      -6.1214497e-05
   3116000   0.060826176   -1.2121549      0.10944289    -1.0114845     -0.02555534   
   3117000   0.059853492   -1.2181036      0.10843024    -1.0199047     -0.023129622  
   3118000   0.061269804   -1.2231578      0.10885904    -1.0224059      0.0045174317 
   3119000   0.060121075   -1.2149777      0.11054599    -1.0142617     -0.01212162   
   3120000   0.060537098   -1.2213715      0.11007422    -1.0205033     -0.021350131  
   3121000   0.059335727   -1.207567       0.1095153     -1.0090596     -0.027533509  
   3122000   0.060526563   -1.2119765      0.11102958    -1.0101687     -0.013843231  
   3123000   0.061535347   -1.2190869      0.11072272    -1.0160731     -0.032226168  
   3124000   0.060208841   -1.2261276      0.10964678    -1.0261792     -0.011908233  
   3125000   0.058978846   -1.2120206      0.11061765    -1.0129461     -0.011775353  
   3126000   0.060084525   -1.227896       0.11050071    -1.0272801     -0.01188342   
   3127000   0.060166965   -1.2264401      0.11046437    -1.0257369     -0.016415842  
   3128000   0.060062731   -1.222747       0.1115668     -1.0210977     -0.037551118  
   3129000   0.061476649   -1.2288079      0.1108697     -1.0257352     -0.028966873  
   3130000   0.060142001   -1.2180595      0.11253665    -1.0153215     -0.014854655  
   3131000   0.060786421   -1.2159972      0.11097421    -1.0138552     -0.017878225  
   3132000   0.061540715   -1.2199229      0.11079888    -1.0168249     -0.0016306093 
   3133000   0.06102443    -1.2283547      0.11254533    -1.0242845     -0.027063177  
   3134000   0.06058109    -1.2230274      0.10958407    -1.0225835     -0.021699208  
   3135000   0.060337215   -1.2182267      0.11106977    -1.0166628     -0.028173862  
   3136000   0.061187663   -1.2132271      0.11242279    -1.0090347     -0.0139653    
   3137000   0.060612186   -1.2341965      0.11131127    -1.0319787     -0.020972634  
   3138000   0.060851934   -1.2220613      0.10978787    -1.0210073     -0.023549287  
   3139000   0.062099369   -1.2219015      0.11272652    -1.0160379     -0.025996382  
   3140000   0.061333996   -1.2226495      0.11032329    -1.0203371     -0.019284286  
   3141000   0.061541827   -1.2174627      0.11100227    -1.0141596     -0.0177659    
   3142000   0.060431973   -1.230099       0.1093631     -1.0300996     -0.0076163138 
   3143000   0.060655194   -1.2251745      0.11033935    -1.0238641     -0.022465094  
   3144000   0.059394834   -1.2213837      0.10952051    -1.0227824     -0.036697833  
   3145000   0.059523916   -1.2242974      0.10870313    -1.0263199     -0.017826389  
   3146000   0.06025023    -1.2096625      0.10812503    -1.0111738     -0.028314222  
   3147000   0.060925787   -1.2131186      0.10990643    -1.0118352     -0.013712102  
   3148000   0.060782586   -1.2150781      0.10821479    -1.0157012     -0.014855226  
   3149000   0.060300376   -1.2232298      0.10951786    -1.023273      -0.021581983  
   3150000   0.059246796   -1.2336743      0.11038661    -1.0344289     -0.010008059  
   3151000   0.060064777   -1.2223613      0.10955059    -1.0227251     -0.026475786  
   3152000   0.06071068    -1.227516       0.10964651    -1.0268152     -0.035189232  
   3153000   0.060537763   -1.2123467      0.10968955    -1.0118623     -0.012327252  
   3154000   0.059882384   -1.227553       0.10979289    -1.0279481     -0.036405996  
   3155000   0.061065652   -1.2342251      0.10888101    -1.0337574     -0.011244804  
   3156000   0.059451839   -1.2237214      0.1099553     -1.0245998     -0.010742814  
   3157000   0.060575894   -1.2183999      0.11065275    -1.016895      -0.017046181  
   3158000   0.060989152   -1.2211451      0.10846695    -1.0212062     -0.018623444  
   3159000   0.060888949   -1.229033       0.11088321    -1.0268282     -0.011343404  
   3160000   0.060868887   -1.2264569      0.10922781    -1.0259375     -0.029180266  
   3161000   0.06085837    -1.2286847      0.1105537     -1.0268552     -0.022235462  
   3162000   0.061138392   -1.2283728      0.11005732    -1.0266198     -0.016053702  
   3163000   0.060599448   -1.2249023      0.11186955    -1.0221453     -0.021372473  
   3164000   0.061315525   -1.2155911      0.11244927    -1.0111804     -0.008261538  
   3165000   0.061055286   -1.2295584      0.11243357    -1.0255537     -0.031454295  
   3166000   0.06058759    -1.2246958      0.11170516    -1.022121      -0.029282284  
   3167000   0.060989331   -1.2140336      0.11077       -1.0117914     -0.0087211192 
   3168000   0.06078242    -1.21842        0.10922739    -1.0180308     -0.029172018  
   3169000   0.061702688   -1.2259637      0.1103907     -1.0230309     -0.016160817  
   3170000   0.061039991   -1.2133788      0.11098678    -1.0108438     -0.026570971  
   3171000   0.061041703   -1.2171797      0.11118589    -1.014443      -0.009542702  
   3172000   0.061261663   -1.2303564      0.11032534    -1.0281505     -0.0081972945 
   3173000   0.06078574    -1.228884       0.11141711    -1.0263001     -0.02477798   
   3174000   0.061121176   -1.227844       0.11028337    -1.0258907     -0.01905163   
   3175000   0.060585263   -1.2343499      0.10972932    -1.0337544     -0.027074112  
   3176000   0.061105849   -1.2363603      0.10940619    -1.0353072     -0.013372596  
   3177000   0.060803087   -1.2169171      0.11100013    -1.0147241     -0.025258589  
   3178000   0.060612577   -1.2297381      0.11306224    -1.0257687     -0.016483641  
   3179000   0.060831026   -1.2081553      0.11090579    -1.0060147     -0.011210296  
   3180000   0.06031295    -1.219514       0.10998827    -1.019068      -0.032814104  
   3181000   0.061861935   -1.2252489      0.11202249    -1.0204455     -0.03149635   
   3182000   0.060489592   -1.2272306      0.11170581    -1.0248021     -0.014274776  
   3183000   0.060902911   -1.2152856      0.11111542    -1.0128276     -0.028713717  
   3184000   0.060713079   -1.2246484      0.10994351    -1.023647       0.003290335  
   3185000   0.060294702   -1.225976       0.11066424    -1.0248814     -0.026639582  
   3186000   0.060975642   -1.2235172      0.11030184    -1.0217637     -0.035481458  
   3187000   0.060566816   -1.2264924      0.11064934    -1.0250045     -0.029661501  
   3188000   0.060106754   -1.2293932      0.11072362    -1.028521      -0.019889051  
   3189000   0.060196576   -1.2228489      0.11166744    -1.0208983     -0.030598958  
   3190000   0.059870285   -1.2241995      0.10984631    -1.0245593     -0.023628482  
   3191000   0.060015893   -1.2225335      0.11101723    -1.021504       0.0034120858 
   3192000   0.059650643   -1.2170815      0.10995289    -1.0176642     -0.034643301  
   3193000   0.060260706   -1.2159713      0.10950291    -1.016089      -0.011593036  
   3194000   0.061048995   -1.222417       0.10920737    -1.0216479     -0.0042375655 
   3195000   0.061132792   -1.2161973      0.11074031    -1.0137696     -0.029310184  
   3196000   0.060794635   -1.2140101      0.11127839    -1.0115516     -0.004662728  
   3197000   0.061135953   -1.2341361      0.11187754    -1.0305665     -0.026378113  
   3198000   0.060519128   -1.2216226      0.11275449    -1.0181012     -0.016315702  
   3199000   0.060485151   -1.2206998      0.10924143    -1.0207423     -0.021659688  
   3200000   0.06179003    -1.2230037      0.11107185    -1.0192588     -0.023810201  
   3201000   0.061408007   -1.2198585      0.1099249     -1.0178335     -0.019229775  
   3202000   0.060903884   -1.2335406      0.10926347    -1.0329331     -0.0074267292 
   3203000   0.061039117   -1.2138548      0.10959727    -1.0127107     -0.03103317   
   3204000   0.059308881   -1.2150416      0.11187952    -1.0142103     -0.036108875  
   3205000   0.060217856   -1.2311241      0.10977002    -1.031039      -0.0097069245 
   3206000   0.060308986   -1.2102522      0.11078071    -1.0090197     -0.011264711  
   3207000   0.060488654   -1.2249159      0.10955714    -1.0246375     -0.042560488  
   3208000   0.059964858   -1.2217872      0.11070486    -1.0211467     -0.0225234    
   3209000   0.060141815   -1.2206002      0.10945394    -1.0209452     -0.0072692683 
   3210000   0.05979932    -1.2204766      0.11135885    -1.0194304     -0.0077041293 
   3211000   0.060426378   -1.2310045      0.11109566    -1.029281      -0.035079468  
   3212000   0.060023353   -1.230215       0.11149808    -1.0286935      0.0044409832 
   3213000   0.060365674   -1.2224147      0.11038771    -1.0214901     -0.013607678  
   3214000   0.060050767   -1.2193451      0.11100099    -1.0182796     -0.016291832  
   3215000   0.061013001   -1.2220778      0.11013172    -1.0204384     -0.02325338   
   3216000   0.059981397   -1.2379677      0.11030246    -1.0377048     -0.025891124  
   3217000   0.060316597   -1.2262142      0.11015622    -1.0255948     -0.026928361  
   3218000   0.060847284   -1.2185174      0.10953899    -1.0177192     -0.015686126  
   3219000   0.061256216   -1.2307933      0.1081332     -1.0307876     -0.010074386  
   3220000   0.059783723   -1.232286       0.11045725    -1.0321648     -0.011774036  
   3221000   0.061678721   -1.2258146      0.11160901    -1.0216995     -0.02760058   
   3222000   0.059664968   -1.213669       0.11106136    -1.0131217     -0.017711242  
   3223000   0.060499007   -1.2282512      0.10919744    -1.0283169     -0.018467427  
   3224000   0.0597799     -1.2321161      0.11018574    -1.032272      -0.022294328  
   3225000   0.059375814   -1.2174844      0.11166218    -1.0167699     -0.019564555  
   3226000   0.059858175   -1.2316874      0.11027595    -1.0316358      0.00049718283
   3227000   0.060624934   -1.2273082      0.10992487    -1.0264577     -0.015676598  
   3228000   0.059927192   -1.2228811      0.11007332    -1.0229286     -0.02478936   
   3229000   0.059410927   -1.2345008      0.11052167    -1.0348743     -0.027652465  
   3230000   0.059758478   -1.2310968      0.10976159    -1.0317091     -0.0090556808 
   3231000   0.05997512    -1.2295993      0.1099515     -1.0296967     -0.020481209  
   3232000   0.061918841   -1.2294676      0.11060418    -1.0259972     -0.0083257838 
   3233000   0.059990396   -1.2233746      0.11057409    -1.0228266     -0.02899805   
   3234000   0.060021761   -1.2245858      0.10910563    -1.0254591     -0.0072330101 
   3235000   0.06037674    -1.2254297      0.11017807    -1.0246983     -0.012116435  
   3236000   0.059793058   -1.2096949      0.10947471    -1.0105422     -0.025260633  
   3237000   0.060315281   -1.2201032      0.11007417    -1.0195678     -0.013646613  
   3238000   0.060991303   -1.2236256      0.10979335    -1.0223571     -0.027873528  
   3239000   0.061645735   -1.2221329      0.11096752    -1.0187087     -0.01251334   
   3240000   0.06179352    -1.2238496      0.10815608    -1.0230152     -0.015847947  
   3241000   0.060363809   -1.2363605      0.10954355    -1.0362829     -0.010619437  
   3242000   0.060108036   -1.2303726      0.11023181    -1.0299904     -0.029274739  
   3243000   0.060857783   -1.2298689      0.10829045    -1.0303036     -0.017802466  
   3244000   0.060184242   -1.220274       0.10948908    -1.0205202     -0.0058217058 
   3245000   0.060534268   -1.2256854      0.10898606    -1.0259096     -0.0046673361 
   3246000   0.061156363   -1.2239472      0.11008727    -1.0221372     -0.019820089  
   3247000   0.060467684   -1.2316459      0.11044425    -1.0305118     -0.01699491   
   3248000   0.060777677   -1.2128916      0.11083678    -1.0109        -0.026216588  
   3249000   0.060694912   -1.2185742      0.11111031    -1.0164333     -0.025094214  
   3250000   0.060885911   -1.2134315      0.11045986    -1.0116545     -0.013680318  
   3251000   0.060852094   -1.223251       0.1091888     -1.0227959      0.0011153365 
   3252000   0.061100252   -1.2458984      0.10887047    -1.0453894     -0.016065971  
   3253000   0.059956933   -1.2182102      0.10923511    -1.0190513     -0.010671904  
   3254000   0.060531027   -1.219663       0.10863742    -1.0202408     -0.023031934  
   3255000   0.060812411   -1.2230831      0.10913774    -1.0227385      0.0078661671 
   3256000   0.061248501   -1.2360744      0.10979602    -1.0344175     -0.029667564  
   3257000   0.060301954   -1.2310227      0.11024503    -1.0303364     -0.024254256  
   3258000   0.059894518   -1.2375275      0.11144053    -1.0362568     -0.01248396   
   3259000   0.059697859   -1.2204245      0.11029642    -1.0205928     -0.011878148  
   3260000   0.060535451   -1.2225426      0.10904736    -1.0227037     -0.010517161  
   3261000   0.060562362   -1.2161159      0.10950516    -1.0157789     -0.030091069  
   3262000   0.059266421   -1.2251127      0.11054537    -1.0256792      0.0027264778 
   3263000   0.060664918   -1.2181536      0.10898976    -1.0181782     -0.01455089   
   3264000   0.061350536   -1.2243647      0.110082      -1.0222688     -0.017605016  
   3265000   0.060522924   -1.2226283      0.110889      -1.0209666     -0.0017840021 
   3266000   0.061248476   -1.2256762      0.11252339    -1.0212919     -0.020326132  
   3267000   0.060986449   -1.2309925      0.10904435    -1.0304802     -0.040442064  
   3268000   0.061247283   -1.2304244      0.10982488    -1.0287405     -0.028506464  
   3269000   0.060566272   -1.2244508      0.11024193    -1.0233711     -0.015670436  
   3270000   0.060515756   -1.221775       0.11154693    -1.0194661      0.0054335999 
   3271000   0.061003604   -1.2249659      0.10865637    -1.0248159      0.0024292299 
   3272000   0.060632766   -1.2308492      0.11066424    -1.0292475     -0.022577611  
   3273000   0.060686755   -1.2297006      0.10981163    -1.0288705     -0.013107051  
   3274000   0.060227838   -1.2294081      0.1094739     -1.0296041     -0.0283052    
   3275000   0.060577229   -1.2316513      0.11118991    -1.0296072     -0.020302357  
   3276000   0.061113743   -1.2286475      0.11078644    -1.0262022     -0.019163207  
   3277000   0.060902259   -1.2298012      0.11086438    -1.0275952     -0.006367028  
   3278000   0.060453264   -1.2196831      0.11096907    -1.0180458     -0.010955526  
   3279000   0.059920397   -1.2350568      0.11111342    -1.0340744      0.0015447368 
   3280000   0.060656717   -1.2241498      0.1092745     -1.0239019     -0.037054862  
   3281000   0.062223601   -1.2286011      0.11064355    -1.0246342     -0.016376838  
   3282000   0.061391203   -1.2254308      0.11072904    -1.0226268     -0.036390407  
   3283000   0.061260888   -1.215202       0.11014505    -1.0131775      0.0059166047 
   3284000   0.061182722   -1.2299498      0.1093929     -1.0287947     -0.02541399   
   3285000   0.059464961   -1.2264332      0.10993422    -1.027313      -0.021381148  
   3286000   0.061083459   -1.2275842      0.11107044    -1.0249004     -0.010182888  
   3287000   0.061096139   -1.2368779      0.11066786    -1.0345777     -0.027266187  
   3288000   0.061192819   -1.2187164      0.11158265    -1.0153563      0.0063687688 
   3289000   0.060928703   -1.2308099      0.10988194    -1.0295467     -0.0042475144 
   3290000   0.059823175   -1.2238574      0.10987652    -1.0242577      0.0017062331 
   3291000   0.060529255   -1.2265209      0.10908291    -1.0266558      0.00040079767
   3292000   0.060077014   -1.2270596      0.11116274    -1.025793      -0.02236854   
   3293000   0.060642481   -1.2255121      0.10991107    -1.024649      -0.017569533  
   3294000   0.059988389   -1.2248884      0.11066018    -1.0242573     -0.0077022418 
   3295000   0.059750648   -1.230822       0.11025206    -1.0309555     -0.0023841486 
   3296000   0.060236195   -1.2365189      0.11042596    -1.0357503      0.0023484195 
   3297000   0.061105134   -1.2292275      0.11028744    -1.0272942     -0.011557027  
   3298000   0.061052639   -1.215594       0.10860877    -1.0154181     -0.025231081  
   3299000   0.059284618   -1.225833       0.10947627    -1.0274413     -0.026763535  
   3300000   0.060092936   -1.2323159      0.10999328    -1.0321949     -0.0025779735 
   3301000   0.060650263   -1.2075474      0.1105352     -1.0060485     -0.020475516  
   3302000   0.060752023   -1.2200585      0.10846817    -1.0204741     -0.019225863  
   3303000   0.060794109   -1.2337046      0.11026085    -1.0322643     -0.012620651  
   3304000   0.060979572   -1.2350834      0.10974902    -1.0338769      0.0067646154 
   3305000   0.061646425   -1.2245736      0.11014219    -1.0219737     -0.013002277  
   3306000   0.060691958   -1.2295396      0.11086402    -1.0276494     -0.00089925697
   3307000   0.060727192   -1.2257128      0.11142446    -1.0232093     -0.036559446  
   3308000   0.060888772   -1.2162781      0.11087097    -1.0140858     -0.020885312  
   3309000   0.061612041   -1.2265696      0.1114588     -1.0227047     -0.026552199  
   3310000   0.060668538   -1.2266603      0.1108816     -1.0247876     -0.0030294141 
   3311000   0.060627082   -1.2231159      0.10963647    -1.0225506     -0.018896108  
   3312000   0.061080995   -1.2237233      0.1120537     -1.0200599     -0.0095873521 
   3313000   0.061160592   -1.2155218      0.11035797    -1.0134348     -0.02877023   
   3314000   0.060382322   -1.2190458      0.10986012    -1.0186239     -0.021613062  
   3315000   0.060716268   -1.2259725      0.10989623    -1.0250136     -0.0094768953 
   3316000   0.059548258   -1.2276446      0.10931297    -1.0290208     -0.011015906  
   3317000   0.060276384   -1.2212824      0.10873824    -1.0221413     -0.0038700384 
   3318000   0.060469345   -1.2279547      0.11166406    -1.0255983     -0.036530398  
   3319000   0.061058704   -1.2312995      0.10983271    -1.0298905     -0.027492294  
   3320000   0.060320935   -1.2256183      0.10980834    -1.0253403     -0.010246051  
   3321000   0.060311168   -1.2228498      0.11025309    -1.0221416     -0.014508165  
   3322000   0.059387965   -1.2339052      0.11188034    -1.0329544     -0.026198142  
   3323000   0.059763943   -1.2184847      0.10989516    -1.0189551     -0.016977679  
   3324000   0.059852868   -1.2287291      0.10878246    -1.0301789     -0.01225044   
   3325000   0.060177976   -1.2146436      0.10976858    -1.0146197     -0.010298807  
   3326000   0.060450844   -1.2253414      0.10906116    -1.0256157     -0.011825093  
   3327000   0.060592987   -1.2387824      0.10936744    -1.0385372     -0.030823453  
   3328000   0.060985641   -1.2318426      0.10898918    -1.0313868      0.0078429797 
   3329000   0.060443204   -1.2318245      0.10932674    -1.0318446     -0.00057110878
   3330000   0.061335746   -1.2282109      0.10802295    -1.0281962     -0.0052324071 
   3331000   0.061650543   -1.2355023      0.11048104    -1.0325574     -0.011856515  
   3332000   0.061355882   -1.2215596      0.11069602    -1.0188416     -0.0057384625 
   3333000   0.060982981   -1.2379164      0.11035464    -1.0360991     -0.013558328  
   3334000   0.061047578   -1.2350877      0.10988443    -1.0336437     -0.03349234   
   3335000   0.060635337   -1.2225799      0.11051234    -1.0211263     -0.023987409  
   3336000   0.059850743   -1.2119065      0.10968726    -1.0124547      0.010583147  
   3337000   0.060735446   -1.2257113      0.11205233    -1.0225675     -0.012651708  
   3338000   0.060359785   -1.2284711      0.11099074    -1.0269524      0.0055523381 
   3339000   0.059780082   -1.2273514      0.11115497    -1.0265379     -0.012709221  
   3340000   0.059280261   -1.2321909      0.10945108    -1.0338309      0.0052215045 
   3341000   0.0599313     -1.2226428      0.10759481    -1.0251626     -0.0082771489 
   3342000   0.060095034   -1.2378752      0.10851549    -1.0392288     -0.024672814  
   3343000   0.060524841   -1.231165       0.10844017    -1.0319493     -0.0023872295 
   3344000   0.060698379   -1.2373997      0.11074255    -1.0356214      0.0063666742 
   3345000   0.060718695   -1.2267929      0.10920491    -1.0265217     -0.0043204864 
   3346000   0.061067058   -1.2133294      0.10975634    -1.0119842      0.0021073106 
   3347000   0.061332787   -1.219537       0.11026191    -1.0172877     -0.0013162159 
   3348000   0.061270119   -1.2262154      0.11017838    -1.0241437     -0.013107058  
   3349000   0.060028374   -1.2260535      0.11086368    -1.0251589     -0.013979675  
   3350000   0.059700482   -1.2202752      0.11145236    -1.0192836     -0.007973262  
   3351000   0.060458211   -1.2216014      0.10997016    -1.0209557     -0.019030799  
   3352000   0.060089781   -1.2213273      0.11084813    -1.0203562      0.0023452274 
   3353000   0.060781155   -1.2161094      0.11094737    -1.0140021      0.0079656972 
   3354000   0.060798728   -1.2302814      0.1100889     -1.0290062     -0.015756915  
   3355000   0.061410642   -1.2285353      0.11030519    -1.0261261     -0.022749308  
   3356000   0.061171665   -1.2309584      0.11148003    -1.0277327     -0.011264684  
   3357000   0.060193808   -1.214249       0.1090246     -1.0149454     -0.00097145762
   3358000   0.060895313   -1.231166       0.1083671     -1.0314677      0.00017703125
   3359000   0.061277079   -1.2190223      0.10898956    -1.018129      -0.010669565  
   3360000   0.06030237    -1.2217598      0.11173193    -1.019586      -0.0081662915 
   3361000   0.060961497   -1.2276627      0.11191871    -1.0243136     -0.0064134376 
   3362000   0.060928728   -1.2369692      0.11092652    -1.0346613     -0.0039990514 
   3363000   0.061646081   -1.2139068      0.11174141    -1.0097082     -0.00074736602
   3364000   0.060808634   -1.2219289      0.11035979    -1.0203679     -0.0027950285 
   3365000   0.059455382   -1.2197079      0.11143256    -1.0191038     -0.013932876  
   3366000   0.060724281   -1.2288202      0.11035058    -1.027395      -0.033825138  
   3367000   0.061189893   -1.2210156      0.11163911    -1.0176035     -0.013000642  
   3368000   0.061485212   -1.2282883      0.11045324    -1.0256192      0.0011098211 
   3369000   0.061186951   -1.2275939      0.11136701    -1.0244583      0.0045635162 
   3370000   0.060104436   -1.2281578      0.10917157    -1.0288412     -0.027031376  
   3371000   0.060731984   -1.2301463      0.10989956    -1.0291605     -0.014440509  
   3372000   0.06059356    -1.228505       0.1111791     -1.0264473      0.010637633  
   3373000   0.06091795    -1.2253988      0.11138741    -1.0226462     -0.017284725  
   3374000   0.059590962   -1.2319735      0.10933595    -1.0332627     -0.015641051  
   3375000   0.060326116   -1.2218401      0.11224217    -1.0191204     -0.015591716  
   3376000   0.059508183   -1.2218049      0.11060684    -1.0219473     -0.016955416  
   3377000   0.060090446   -1.2180768      0.11059464    -1.0173581     -0.018670994  
   3378000   0.060057452   -1.2243793      0.10839826    -1.0259065     -0.0075079245 
   3379000   0.060048605   -1.2306762      0.11042653    -1.0301884     -0.026009046  
   3380000   0.060162216   -1.233425       0.11021059    -1.0329827     -0.010054693  
   3381000   0.060289379   -1.2269156      0.11089756    -1.0255957     -0.012378978  
   3382000   0.06036857    -1.2289024      0.11095335    -1.0274079     -0.0043656573 
   3383000   0.06140541    -1.2238394      0.1110819     -1.0206612     -0.021023746  
   3384000   0.062086078   -1.2287901      0.11163666    -1.0240364     -0.027877786  
   3385000   0.062272024   -1.2319673      0.11170131    -1.02687       -0.026486496  
   3386000   0.060063354   -1.2220772      0.11063366    -1.0213601     -0.010714735  
   3387000   0.060835118   -1.2214855      0.11014708    -1.0200975     -0.00422629   
   3388000   0.05932822    -1.2193366      0.11080057    -1.0195552     -0.024765648  
   3389000   0.059716102   -1.2182019      0.11145658    -1.0171828     -0.034647697  
   3390000   0.060549261   -1.2231833      0.11117256    -1.0211986     -0.018711105  
   3391000   0.06077497    -1.2173455      0.11112825    -1.0150665     -0.011982335  
   3392000   0.060251845   -1.2170578      0.11028378    -1.0164079     -0.014583479  
   3393000   0.06005118    -1.2279032      0.10964155    -1.0281965     -0.042083777  
   3394000   0.059944247   -1.2364176      0.1112788     -1.035234      -0.019747276  
   3395000   0.060815397   -1.2308476      0.10964073    -1.0299956     -0.0091847045 
   3396000   0.060772455   -1.2229068      0.10852101    -1.0232388     -0.019230719  
   3397000   0.059268113   -1.2293151      0.11093557    -1.0294888     -0.020690042  
   3398000   0.060219079   -1.2317447      0.11104291    -1.0303849     -0.009048011  
   3399000   0.059353075   -1.2238872      0.1111202     -1.0237489     -0.032136343  
   3400000   0.060191225   -1.2172187      0.1105523     -1.0163912     -0.014038718  
   3401000   0.060080559   -1.21386        0.11030096    -1.0134498     -0.021035702  
   3402000   0.060567126   -1.228286       0.11080699    -1.02664       -0.038833955  
   3403000   0.061102263   -1.2195147      0.11131485    -1.0165582     -0.024592198  
   3404000   0.060699429   -1.2308877      0.11058781    -1.0292625     -0.02026682   
   3405000   0.06045949    -1.2387146      0.11106877    -1.0369683     -0.012423081  
   3406000   0.060354589   -1.2277003      0.11193411    -1.025246      -0.04710296   
   3407000   0.06084763    -1.2434393      0.11248906    -1.0396906     -0.017279761  
   3408000   0.060806833   -1.2307714      0.11221286    -1.02736       -0.0051026933 
   3409000   0.061039835   -1.2247022      0.11152397    -1.0216303     -0.020192234  
   3410000   0.061148721   -1.2151937      0.11141789    -1.0120646     -0.015781205  
   3411000   0.060741101   -1.2287031      0.11096037    -1.0266428     -0.025671111  
   3412000   0.060481909   -1.2323048      0.11031758    -1.031276      -0.012684744  
   3413000   0.060038587   -1.2239229      0.11150535    -1.0223713     -0.008177086  
   3414000   0.060220131   -1.2291131      0.11090268    -1.0278918     -0.013951756  
   3415000   0.060368093   -1.2285036      0.11091049    -1.0270527     -0.018719161  
   3416000   0.061935358   -1.2243593      0.11175259    -1.0197156      0.0010621762 
   3417000   0.060833711   -1.2316676      0.1104416     -1.0299872     -0.015446612  
   3418000   0.060921228   -1.2241538      0.11157708    -1.0212067     -0.020099813  
   3419000   0.060228907   -1.2274582      0.11185078    -1.0252757     -0.025405373  
   3420000   0.060674337   -1.2319813      0.11192246    -1.0290591     -0.012542447  
   3421000   0.060002081   -1.2244872      0.11068452    -1.0238111     -0.021986374  
   3422000   0.060970535   -1.2273914      0.11243925    -1.0235081     -0.024040248  
   3423000   0.059775992   -1.2285563      0.11230985    -1.0265941     -0.011947392  
   3424000   0.060856225   -1.228697       0.11136234    -1.0260621     -0.013883563  
   3425000   0.060004367   -1.2260329      0.11099844    -1.0250396      0.0032228073 
   3426000   0.061612131   -1.2275354      0.11093462    -1.0241945     -0.0022657803 
   3427000   0.060767224   -1.219949       0.11167141    -1.0171385      0.0052508015 
   3428000   0.060132618   -1.2192681      0.1115861     -1.0174947     -0.0064742009 
   3429000   0.060818642   -1.2250395      0.10960031    -1.024223      -0.02999095   
   3430000   0.060994742   -1.2284479      0.11202781    -1.0249398     -0.015111486  
   3431000   0.060990215   -1.2254454      0.11086165    -1.0231102     -0.00036980138
   3432000   0.060396248   -1.2318723      0.11076696    -1.0305226     -0.027828932  
   3433000   0.06080149    -1.2306394      0.11023737    -1.0292116     -0.01247553   
   3434000   0.06116729    -1.2296375      0.11093914    -1.0269593     -0.033559939  
   3435000   0.060553608   -1.234246       0.10955378    -1.0338735     -0.015584979  
   3436000   0.059412679   -1.2353412      0.11021446    -1.0360193     -0.0066499582 
   3437000   0.059520764   -1.2286181      0.10869381    -1.0306547      0.0014400787 
   3438000   0.060511742   -1.2291075      0.1080306     -1.030321      -0.016860959  
   3439000   0.059823855   -1.2307717      0.10926989    -1.0317776      0.01607383   
   3440000   0.059188391   -1.2303339      0.11020969    -1.031353      -0.027415609  
   3441000   0.060984717   -1.2343943      0.10804007    -1.034889      -0.00116253   
   3442000   0.060975716   -1.2264311      0.10960301    -1.0253763     -0.016070036  
   3443000   0.060357786   -1.2217428      0.11084637    -1.0203714      0.0052320463 
   3444000   0.06059281    -1.2298718      0.11240025    -1.0265941     -0.011941844  
   3445000   0.061540455   -1.2453098      0.1110184     -1.0419926     -0.014198501  
   3446000   0.061247249   -1.2310094      0.11141768    -1.0277327      0.008179685  
   3447000   0.061226823   -1.2396928      0.11168347    -1.036181      -0.015348419  
   3448000   0.060788298   -1.2268539      0.11046027    -1.025223       0.036275941  
   3449000   0.061357502   -1.2228517      0.11136932    -1.019458      -0.010079489  
   3450000   0.06189835    -1.2425515      0.11238874    -1.0373272      0.0004309359 
   3451000   0.061540853   -1.2320298      0.11211682    -1.0276136      0.0016576776 
   3452000   0.06045105    -1.2229867      0.11000349    -1.0223183     -0.0081489228 
   3453000   0.060914162   -1.2214896      0.11025676    -1.0198733      0.0074397719 
   3454000   0.06030111    -1.2277127      0.11150584    -1.0257669      0.014315349  
   3455000   0.061025834   -1.2335053      0.11129357    -1.0306848      0.004812553  
   3456000   0.060220679   -1.2371784      0.11047082    -1.0363882      0.015928511  
   3457000   0.06113597    -1.2409429      0.11086585    -1.0383849      0.0065876092 
   3458000   0.060887461   -1.213718       0.10963419    -1.0127644     -0.0010451471 
   3459000   0.060889975   -1.2366377      0.1101198     -1.0351947      0.017136552  
   3460000   0.060861494   -1.218576       0.10956371    -1.0177319     -0.0031904026 
   3461000   0.060148819   -1.2298327      0.11129531    -1.0283258      0.0075964677 
   3462000   0.060354436   -1.2301413      0.11018973    -1.0294316      0.0095004995 
   3463000   0.059183412   -1.2258434      0.10991308    -1.0271666      0.013383406  
   3464000   0.0598044     -1.2248266      0.11001932    -1.0251122     -0.00252786   
   3465000   0.060433851   -1.2347805      0.1083562     -1.0357852      0.018563839  
   3466000   0.060661009   -1.2208068      0.11083903    -1.018988      -0.00087093291
   3467000   0.061082371   -1.2407131      0.10930742    -1.039794       0.0039651297 
   3468000   0.061432695   -1.2223467      0.10934521    -1.0208644      0.015973417  
   3469000   0.060544107   -1.2290704      0.11275942    -1.0255065      0.011897832  
   3470000   0.061055548   -1.231428       0.1098418     -1.0300147      0.020923037  
   3471000   0.061424721   -1.2222292      0.11239267    -1.0177113      0.019564051  
   3472000   0.060274985   -1.2284041      0.11086127    -1.027142      -0.011801299  
   3473000   0.060581277   -1.2162784      0.11020388    -1.0152143      0.035148743  
   3474000   0.060999046   -1.2316267      0.11127009    -1.0288698     -0.0039472567 
   3475000   0.059465374   -1.2224676      0.10896715    -1.0243139     -0.01270277   
   3476000   0.061410795   -1.2229364      0.11220883    -1.0186233     -0.0010854774 
   3477000   0.0619937     -1.2287486      0.11060552    -1.0251645      0.0079783284 
   3478000   0.059726454   -1.2316476      0.10942458    -1.0326449      0.0099300917 
   3479000   0.059979452   -1.2301098      0.11084261    -1.0293096      0.022548662  
   3480000   0.059795162   -1.2430852      0.11088559    -1.0425184     -0.0050424227 
   3481000   0.060602409   -1.2375427      0.11072095    -1.0359299      0.014381999  
   3482000   0.060708026   -1.2289362      0.11318735    -1.0246986      0.0074750989 
   3483000   0.061303316   -1.2195955      0.10876429    -1.0188881      0.018966143  
   3484000   0.06063394    -1.221205       0.11051635    -1.0197495     -0.0079469215 
   3485000   0.062117976   -1.2219582      0.10996654    -1.0188267      0.012156023  
   3486000   0.061168504   -1.225012       0.11054344    -1.0227276     -0.013545899  
   3487000   0.060637754   -1.2263339      0.11197207    -1.0234169     -0.0076838769 
   3488000   0.059847281   -1.2301012      0.10884906    -1.0314928     -0.0080518363 
   3489000   0.06074699    -1.2219546      0.10941711    -1.0214287     -0.021256024  
   3490000   0.060553092   -1.2210066      0.10872218    -1.0214665     -0.013652139  
   3491000   0.059752092   -1.2313293      0.10942694    -1.0322858     -0.00035785567
   3492000   0.060625429   -1.2310435      0.11152905    -1.028588       0.035975064  
   3493000   0.06135413    -1.2331589      0.10882646    -1.0323131     -0.0032835794 
   3494000   0.060962161   -1.2263539      0.11046849    -1.024454       0.028200771  
   3495000   0.060340304   -1.2317362      0.11139913    -1.0298382     -0.0023249083 
   3496000   0.060671631   -1.218217       0.11185879    -1.0153625     -0.004890376  
   3497000   0.060598523   -1.2328836      0.11127266    -1.0307248      0.013567917  
   3498000   0.060404584   -1.2289449      0.11029306    -1.0280566     -0.0046789963 
   3499000   0.060727822   -1.226117       0.11144644    -1.0235906      0.00477876   
   3500000   0.060554581   -1.2282899      0.10980757    -1.0276622     -0.0094600662 
   3501000   0.06049041    -1.2283692      0.10966542    -1.0279798      0.018483992  
   3502000   0.060860586   -1.2146153      0.11137974    -1.0119565      0.034217972  
   3503000   0.060164203   -1.2206699      0.11346065    -1.0169746     -0.00032440767
   3504000   0.060369577   -1.2358618      0.11090333    -1.0344158     -0.018029683  
   3505000   0.06077918    -1.2341187      0.11005941    -1.0329023      0.037205322  
   3506000   0.060628291   -1.2397432      0.10977909    -1.0390334      0.0018245892 
   3507000   0.05975825    -1.2200094      0.11076158    -1.019622      -0.0060690758 
   3508000   0.059970386   -1.2295367      0.10990819    -1.0296845      0.015242933  
   3509000   0.06110881    -1.2251448      0.1101527     -1.0233407      0.012824454  
   3510000   0.059251521   -1.2493197      0.11120316    -1.0492508      0.010179061  
   3511000   0.060954964   -1.2322278      0.11008043    -1.0307267     -0.0041547794 
   3512000   0.059378735   -1.2298163      0.11143014    -1.0293296      0.011807254  
   3513000   0.060575578   -1.2329641      0.11026165    -1.0318508     -0.0081887238 
   3514000   0.060253514   -1.2206281      0.11013594    -1.0201236     -0.0082259805 
   3515000   0.060843454   -1.2185         0.11032544    -1.0169212      8.9431736e-05
   3516000   0.060447896   -1.2319744      0.11105391    -1.0302603      0.012026217  
   3517000   0.060594133   -1.2320408      0.11151689    -1.0296445      0.014112468  
   3518000   0.060407368   -1.2283597      0.10870462    -1.0290558      0.0091980625 
   3519000   0.059901688   -1.2363933      0.1109823     -1.03557        0.033207591  
   3520000   0.060536144   -1.2359136      0.11089373    -1.0342273      0.0033032014 
   3521000   0.060369342   -1.2316988      0.11043831    -1.0307182     -0.0056206176 
   3522000   0.05998366    -1.2254844      0.10956602    -1.0259545      0.0089541268 
   3523000   0.060665065   -1.2212001      0.10995984    -1.0202544      0.016444519  
   3524000   0.060300447   -1.2281712      0.10919133    -1.0285409      0.043371502  
   3525000   0.06002624    -1.2295786      0.10914768    -1.0304032      0.023715932  
   3526000   0.060090469   -1.2213625      0.10953199    -1.0217064      0.016917487  
   3527000   0.059396706   -1.2223836      0.11122012    -1.0220799      0.043701035  
   3528000   0.060211256   -1.2437795      0.10943656    -1.0440377      0.029468024  
   3529000   0.058970226   -1.2315888      0.10918188    -1.033963       0.024646566  
   3530000   0.060369432   -1.2295823      0.10914935    -1.0298905      0.011961445  
   3531000   0.060866353   -1.2313726      0.1096696     -1.0304152      0.027352014  
   3532000   0.060567374   -1.2342723      0.11037825    -1.0330547      0.0073624395 
   3533000   0.06052739    -1.2205382      0.11091175    -1.0188471      0.016558637  
   3534000   0.060391601   -1.2252157      0.11041245    -1.0242276     -0.0039330018 
   3535000   0.060329826   -1.2276055      0.10877651    -1.0283459     -0.0065741732 
   3536000   0.060137658   -1.2271601      0.11129751    -1.0256677      0.0073713464 
   3537000   0.060737941   -1.2214442      0.11234079    -1.0180082      0.0058431176 
   3538000   0.061270122   -1.2247847      0.11131243    -1.0215789      0.023222198  
   3539000   0.060830719   -1.246015       0.1108397     -1.043941       0.019096262  
   3540000   0.060419462   -1.2235271      0.10905842    -1.0238512      0.011258436  
   3541000   0.060567727   -1.2398038      0.10958463    -1.0393793      0.0077059485 
   3542000   0.060171679   -1.2337134      0.10914119    -1.0343263      0.013097983  
   3543000   0.059348005   -1.2250737      0.10915984    -1.0269034      0.041969209  
   3544000   0.061308016   -1.2121354      0.11040136    -1.0097839      0.022221692  
   3545000   0.060880298   -1.234326       0.1101809     -1.0328365     -0.012798704  
   3546000   0.061057564   -1.2345387      0.11043511    -1.0325291     -0.0078256628 
   3547000   0.060994136   -1.230585       0.10993207    -1.0291736      0.027335608  
   3548000   0.060252056   -1.2319124      0.11035406    -1.0311919      0.016793343  
   3549000   0.060845507   -1.2206859      0.11039124    -1.0190382      0.016182316  
   3550000   0.061029799   -1.2239306      0.11053725    -1.0218604      0.00079078538
   3551000   0.060950041   -1.2245179      0.110184      -1.0229206     -0.0077563079 
   3552000   0.060207331   -1.22126        0.10980621    -1.0211544     -0.0036651603 
   3553000   0.061032135   -1.2202563      0.1112579     -1.017462       0.010601607  
   3554000   0.061417233   -1.2224102      0.1106666     -1.0196296      0.015701387  
   3555000   0.060639376   -1.2321063      0.11269836    -1.0284606      0.015530938  
   3556000   0.060920391   -1.2355186      0.11179101    -1.0323588      0.0076295861 
   3557000   0.06118436    -1.2284564      0.11105472    -1.025637       0.003254584  
   3558000   0.060169234   -1.2294026      0.11087229    -1.0282882      0.01875195   
   3559000   0.060630343   -1.2286864      0.11136346    -1.0263892      0.022263449  
   3560000   0.06050945    -1.2511825      0.11209688    -1.0483332      0.021092808  
   3561000   0.059841148   -1.2238791      0.10917384    -1.0249551      0.057883868  
   3562000   0.060488009   -1.2130761      0.11247429    -1.0098815      0.034723856  
   3563000   0.059878602   -1.2336135      0.11035183    -1.0334553      0.020206107  
   3564000   0.060756834   -1.2371063      0.11156303    -1.0344198      0.0081282941 
   3565000   0.06080556    -1.2376959      0.11223056    -1.0342688      0.010145914  
   3566000   0.061029075   -1.2176282      0.10935416    -1.0167422      0.032795487  
   3567000   0.060326352   -1.2321631      0.11137989    -1.0303053      0.019676597  
   3568000   0.059758737   -1.2416829      0.11085537    -1.041201       0.020134974  
   3569000   0.060699115   -1.2298231      0.11233417    -1.026452      -0.0081315051 
   3570000   0.060677153   -1.2215199      0.11095603    -1.0195599      0.028480249  
   3571000   0.060562177   -1.2301026      0.11232761    -1.0269434      0.030682002  
   3572000   0.060190727   -1.2316523      0.11202386    -1.029354      -0.0024116291 
   3573000   0.060101201   -1.2341554      0.11202214    -1.0319931      0.016789931  
   3574000   0.060402089   -1.2338733      0.11027319    -1.0330087     -0.0091599438 
   3575000   0.059519629   -1.2393256      0.11099112    -1.0390666      0.011524457  
   3576000   0.059749831   -1.2257674      0.11111727    -1.025037       0.012055213  
   3577000   0.060613664   -1.2313398      0.1117358     -1.0286953      0.037970452  
   3578000   0.060920173   -1.2206711      0.11067015    -1.0186325     -0.0036083448 
   3579000   0.060360555   -1.2201058      0.11073983    -1.0188368      0.031621291  
   3580000   0.060319904   -1.2279797      0.11242843    -1.025083       0.0039587    
   3581000   0.060087089   -1.2209758      0.11140199    -1.0194548     -0.035495062  
   3582000   0.061472659   -1.2233342      0.11052962    -1.0206075      0.0076797079 
   3583000   0.060743123   -1.2173462      0.11087279    -1.0153704      0.026974089  
   3584000   0.060691261   -1.2316874      0.10919973    -1.0314626      0.015401673  
   3585000   0.060694222   -1.2211432      0.11016433    -1.0199493      0.010726423  
   3586000   0.061027332   -1.2348093      0.11095772    -1.0323224     -0.0015382957 
   3587000   0.061213478   -1.2216365      0.11085925    -1.0189689      0.035729422  
   3588000   0.060262953   -1.2205636      0.11016576    -1.0200151      0.0036830162 
   3589000   0.060529361   -1.2269055      0.11074262    -1.0253805      0.038870581  
   3590000   0.060370933   -1.2250689      0.11172274    -1.0228014      0.004910978  
   3591000   0.061279031   -1.2173096      0.1109231     -1.0144798      0.0075247189 
   3592000   0.061577736   -1.2238837      0.11066586    -1.0208631      0.022498542  
   3593000   0.060930747   -1.2232526      0.11096621    -1.020902       0.004449652  
   3594000   0.061758409   -1.2302378      0.11108591    -1.0265263      0.0072562059 
   3595000   0.060593682   -1.2270432      0.11165647    -1.024508      -0.014315818  
   3596000   0.060131014   -1.2252233      0.1116189     -1.0234195     -0.0030291098 
   3597000   0.061158721   -1.2414273      0.1107634     -1.0389377     -0.010175307  
   3598000   0.061902785   -1.2310361      0.11327562    -1.0249183      0.0037820055 
   3599000   0.060531594   -1.2161532      0.11134251    -1.014025       0.005614608  
   3600000   0.060029752   -1.2230699      0.11187039    -1.0211665      0.0075444796 
   3601000   0.060590589   -1.2436786      0.10943778    -1.0433667      0.027405302  
   3602000   0.061260636   -1.229667       0.10969144    -1.0280965      0.014215341  
   3603000   0.06114021    -1.2362615      0.11000498    -1.0345581     -0.00072853812
   3604000   0.06139889    -1.2399221      0.11013327    -1.0377024      0.035522426  
   3605000   0.062112925   -1.2189891      0.11084289    -1.0149888      0.0017407144 
   3606000   0.061668207   -1.2350573      0.11192029    -1.0306466     -0.0074160466 
   3607000   0.060338549   -1.2081653      0.11112815    -1.006541       0.020253047  
   3608000   0.060181853   -1.2344518      0.11196633    -1.0322243     -0.0090359371 
   3609000   0.060563258   -1.2324998      0.10934112    -1.0323255      0.0010033095 
   3610000   0.060798753   -1.2251802      0.10836949    -1.0256243      0.027056263  
   3611000   0.060561252   -1.2348827      0.11119412    -1.0328585     -0.0030714336 
   3612000   0.060858437   -1.2331884      0.10971831    -1.0321942      0.010540405  
   3613000   0.060079585   -1.2205641      0.11086045    -1.0195959     -0.0034794893 
   3614000   0.060961811   -1.2403347      0.11097896    -1.0379248      0.035823462  
   3615000   0.061776279   -1.2181564      0.10915489    -1.016349       0.026379304  
   3616000   0.060570831   -1.2361243      0.11126107    -1.0340188      0.016196903  
   3617000   0.060414939   -1.2304204      0.11162744    -1.0281823      0.016614996  
   3618000   0.059818873   -1.2352396      0.11012461    -1.0353982      0.019550751  
   3619000   0.06054124    -1.2451138      0.11087026    -1.0434434     -0.0053779451 
   3620000   0.060881372   -1.2305363      0.11067133    -1.0285547      0.018489677  
   3621000   0.061064994   -1.2308555      0.11061418    -1.0286556      0.032905111  
   3622000   0.059525536   -1.2294952      0.10939783    -1.0308206      0.015239472  
   3623000   0.061018359   -1.245137       0.10924726    -1.044374      -0.0067883272 
   3624000   0.060311779   -1.2422959      0.11151924    -1.0403206      0.00050596143
   3625000   0.061739166   -1.2430228      0.11037982    -1.0400462      0.025562992  
   3626000   0.061589219   -1.2303969      0.11016289    -1.0278621      0.018455154  
   3627000   0.062190875   -1.2209365      0.10939119    -1.018271       0.010007338  
   3628000   0.06142023    -1.2352063      0.1098568     -1.0332311     -0.026840176  
   3629000   0.061438999   -1.2294339      0.11113595    -1.0261513     -0.010648248  
   3630000   0.061254611   -1.2293673      0.11195869    -1.0255386      0.0050981792 
   3631000   0.062378915   -1.2290869      0.11032778    -1.0252028     -0.017753588  
   3632000   0.060320659   -1.2309023      0.11148709    -1.0289459     -0.0089584165 
   3633000   0.060547016   -1.2288053      0.11063392    -1.0273626      0.010225135  
   3634000   0.061374483   -1.2159982      0.11031789    -1.0136305      0.026684161  
   3635000   0.061372725   -1.2329747      0.10958362    -1.0313438      0.0027893184 
   3636000   0.061191654   -1.2269031      0.1099805     -1.025147      -0.0089447166 
   3637000   0.06078499    -1.2232247      0.11053334    -1.0215257      0.002910963  
   3638000   0.061454709   -1.2247006      0.11009624    -1.0224342     -0.022260829  
   3639000   0.061023678   -1.2357948      0.11112771    -1.0331434      0.017191732  
   3640000   0.060392216   -1.2294622      0.11123194    -1.0276536     -0.0027755733 
   3641000   0.06105121    -1.2244319      0.11107883    -1.0217881     -0.0019044893 
   3642000   0.06110788    -1.222421       0.11319027    -1.0175808     -0.0066886828 
   3643000   0.060819172   -1.225399       0.11149963    -1.0226824      0.007351219  
   3644000   0.060025556   -1.2400441      0.11262708    -1.0373903     -0.0058150008 
   3645000   0.060027036   -1.2236977      0.10928925    -1.0243795      0.020321517  
   3646000   0.061697113   -1.2191535      0.11001837    -1.0166014      0.02206182   
   3647000   0.061407677   -1.2319096      0.11203311    -1.0277768     -0.016950936  
   3648000   0.060272022   -1.2207736      0.111497      -1.0188802      0.0082322428 
   3649000   0.060622735   -1.2249567      0.10885756    -1.0251767     -0.00057515174
   3650000   0.060552584   -1.2317212      0.1101425     -1.0307615      0.018544179  
   3651000   0.061508685   -1.2345277      0.11255632    -1.0297203     -0.0078463371 
   3652000   0.060861635   -1.2157038      0.11211821    -1.012305      -0.0018009685 
   3653000   0.059318747   -1.2247662      0.11255403    -1.0232455     -0.01166189   
   3654000   0.059462353   -1.2258314      0.11059498    -1.0260544     -0.0080716256 
   3655000   0.060384559   -1.2349692      0.1111731     -1.0332309      0.011176884  
   3656000   0.061691558   -1.2379668      0.11252366    -1.0329177     -0.0048891867 
   3657000   0.060553616   -1.2398702      0.11245344    -1.0365981      0.015930564  
   3658000   0.06115082    -1.2191891      0.11054986    -1.0169248      0.0069545907 
   3659000   0.061157622   -1.2200458      0.11369168    -1.0146295      0.015782883  
   3660000   0.061218821   -1.2284553      0.11226585    -1.024373       0.031052424  
   3661000   0.059931065   -1.2257648      0.11236991    -1.0235099      0.016113191  
   3662000   0.060839934   -1.2234704      0.11130909    -1.0209132      0.01175644   
   3663000   0.060901574   -1.2281503      0.11265465    -1.024155      -0.0036811502 
   3664000   0.060926071   -1.2307537      0.11296491    -1.0264115     -0.0098758124 
   3665000   0.061869844   -1.2116934      0.11159312    -1.0073075     -0.0072797993 
   3666000   0.060317014   -1.2387288      0.11290856    -1.0353564     -0.022613263  
   3667000   0.060420753   -1.2379929      0.11060649    -1.036767      -0.002772724  
   3668000   0.060142689   -1.2351432      0.11213634    -1.0328044      0.010664712  
   3669000   0.060736042   -1.21577        0.11061437    -1.0140634     -0.0070756392 
   3670000   0.060965993   -1.2235139      0.11177445    -1.0203023      0.051196608  
   3671000   0.0616969     -1.2445669      0.11330846    -1.038725      -0.0082174925 
   3672000   0.061228217   -1.237694       0.11201359    -1.0338499     -0.015708647  
   3673000   0.060254381   -1.2327342      0.11234685    -1.0300174      0.011733959  
   3674000   0.05944429    -1.2235416      0.11180118    -1.0225855      0.0045569292 
   3675000   0.06014997    -1.2325316      0.11057808    -1.0317402      0.024802565  
   3676000   0.060114039   -1.2281067      0.11157409    -1.0263732      0.0089175755 
   3677000   0.060703603   -1.2434336      0.11206055    -1.0403294     -0.021350685  
   3678000   0.061333865   -1.221006       0.1123909     -1.0166261      0.024518111  
   3679000   0.060164839   -1.2434129      0.11254881    -1.0406285     -0.013165682  
   3680000   0.060627993   -1.2304315      0.11140029    -1.0281009     -0.026157754  
   3681000   0.060527914   -1.2384066      0.11348164    -1.0341448     -0.007038436  
   3682000   0.060696074   -1.2284484      0.11157113    -1.0258449     -0.017060694  
   3683000   0.060603499   -1.2313429      0.11096156    -1.0294878      0.010446537  
   3684000   0.060673253   -1.2401912      0.11160286    -1.0375902     -0.0028004302 
   3685000   0.060838465   -1.2225504      0.11167862    -1.0196259      0.013748264  
   3686000   0.062061301   -1.2325709      0.11084945    -1.0286415      0.0038981338 
   3687000   0.06082563    -1.227193       0.11101042    -1.0249559      0.0061901838 
   3688000   0.059330142   -1.230941       0.11308719    -1.0288701     -0.015518484  
   3689000   0.060008908   -1.2364652      0.11285177    -1.0336117     -0.0074121615 
   3690000   0.061339779   -1.2339171      0.11325699    -1.0286623      0.034208504  
   3691000   0.060628576   -1.2394861      0.1126069     -1.0359481     -0.011475867  
   3692000   0.060519604   -1.2177938      0.11323186    -1.0137943      0.030090144  
   3693000   0.060789409   -1.2230303      0.11353762    -1.0183203      0.032681631  
   3694000   0.060942159   -1.2296355      0.11391354    -1.0243205      0.012674007  
   3695000   0.062021147   -1.2256745      0.11443893    -1.0182159     -0.0043324207 
   3696000   0.061501553   -1.2246235      0.11391437    -1.0184687     -0.017013966  
   3697000   0.061689036   -1.2304518      0.11537791    -1.0225522     -0.013435063  
   3698000   0.061818703   -1.2307474      0.11127919    -1.0267522     -0.0052737237 
   3699000   0.060711481   -1.2246141      0.11203518    -1.0215234     -0.0069821842 
   3700000   0.061492021   -1.2467532      0.11196032    -1.0425668     -0.0002750057 
   3701000   0.061366851   -1.2203598      0.11499007    -1.0133314     -0.0041169331 
   3702000   0.061410992   -1.2275171      0.11201498    -1.0233975      0.032278122  
   3703000   0.061272151   -1.2231867      0.11237759    -1.0189128      0.023889354  
   3704000   0.061000972   -1.2265793      0.11328304    -1.0218066      0.012823585  
   3705000   0.061057969   -1.2379541      0.11368103    -1.0326979      0.017989995  
   3706000   0.061260494   -1.2319605      0.11216152    -1.0279201      0.025735813  
   3707000   0.060845597   -1.2352266      0.11353958    -1.0304304     -0.0058293499 
   3708000   0.061316405   -1.2362052      0.11385409    -1.0303884      0.034868139  
   3709000   0.061176044   -1.2305967      0.11362397    -1.0252205      0.014652256  
   3710000   0.060817841   -1.2212614      0.11329119    -1.0167553      0.010213298  
   3711000   0.061434414   -1.2279151      0.11250962    -1.0232658      0.025134377  
   3712000   0.061514152   -1.2319334      0.11269384    -1.0269803      0.013514448  
   3713000   0.061071738   -1.2396766      0.11095234    -1.0371285     -0.0033137754 
   3714000   0.060190088   -1.2292855      0.11313118    -1.0258809      0.031302077  
   3715000   0.060838577   -1.2265367      0.11297598    -1.0223146     -0.0018396626 
   3716000   0.060792398   -1.2327984      0.11344656    -1.0281751      0.0098853466 
   3717000   0.060891701   -1.2222201      0.11519468    -1.0156997      0.015862478  
   3718000   0.061130217   -1.2238387      0.11371354    -1.0184417      0.03096727   
   3719000   0.061226276   -1.2411139      0.11565001    -1.0336363      0.019113296  
   3720000   0.061146025   -1.2401632      0.11258855    -1.0358675      0.0089215564 
   3721000   0.060902745   -1.2214481      0.11231337    -1.0177924      0.0057200626 
   3722000   0.061184127   -1.2187683      0.11095502    -1.0160489      0.038826927  
   3723000   0.060800831   -1.2242253      0.1110583     -1.0219776      0.0067594916 
   3724000   0.06082743    -1.2382529      0.11128658    -1.035737       0.011947241  
   3725000   0.061455343   -1.2184355      0.11124902    -1.0150154      0.0046845729 
   3726000   0.06002889    -1.2231572      0.11408432    -1.0190412      0.021910729  
   3727000   0.061385748   -1.2313025      0.11242801    -1.0268077      0.007578062  
   3728000   0.061019307   -1.2233611      0.11279315    -1.0190508     -0.0013060777 
   3729000   0.06038436    -1.2295105      0.11337224    -1.0255734     -0.02051348   
   3730000   0.061229194   -1.2301744      0.11446458    -1.0238779      0.0111059    
   3731000   0.060349      -1.2325637      0.11291262    -1.0291393      0.013972801  
   3732000   0.061148548   -1.2278152      0.1124098     -1.0236945      0.0045972809 
   3733000   0.060738958   -1.2224811      0.11401718    -1.0173672      0.01523967   
   3734000   0.061742922   -1.2259649      0.11314945    -1.020213      -0.0051653481 
   3735000   0.060541835   -1.231835       0.11398204    -1.0270519      0.0079143989 
   3736000   0.060886393   -1.2342315      0.11394365    -1.0289701     -0.005424352  
   3737000   0.060979004   -1.2339473      0.11563692    -1.0268536     -0.0058396483 
   3738000   0.062019978   -1.2423385      0.11371836    -1.0356021      0.018359186  
   3739000   0.061588306   -1.2335977      0.11456608    -1.0266611     -0.016450163  
   3740000   0.061902534   -1.2252616      0.11199309    -1.0204267      0.0054997038 
   3741000   0.062645459   -1.2230584      0.11185089    -1.0172515     -0.023471949  
   3742000   0.060949995   -1.2299788      0.11222394    -1.0263416     -0.020332761  
   3743000   0.06179582    -1.2293417      0.11449382    -1.0221661     -0.035709859  
   3744000   0.06063205    -1.2261258      0.11300308    -1.0221863     -0.016773657  
   3745000   0.061191786   -1.2213036      0.11380775    -1.01572       -0.0057145504 
   3746000   0.060555624   -1.2221933      0.1124211     -1.0189505     -0.016353945  
   3747000   0.061063042   -1.2370296      0.11632125    -1.0291256      0.0048515366 
   3748000   0.061887615   -1.2225802      0.11563321    -1.0141276     -0.013383156  
   3749000   0.060425474   -1.222574       0.11516259    -1.0167849      0.027310165  
   3750000   0.060337212   -1.240315       0.11454588    -1.035275      -0.0011810576 
   3751000   0.060944685   -1.2396025      0.11260986    -1.0355875     -0.0057470463 
   3752000   0.060829483   -1.2181271      0.11258776    -1.0143069     -0.011607292  
   3753000   0.061886008   -1.2187519      0.11197906    -1.0139558     -0.017690368  
   3754000   0.060522      -1.2349232      0.11308457    -1.0310674     -0.020299681  
   3755000   0.061325943   -1.2229571      0.1119966     -1.0189834     -0.0049214974 
   3756000   0.061433062   -1.2326336      0.11130328    -1.0291927     -0.023947134  
   3757000   0.060261767   -1.2242375      0.11187376    -1.0219828     -0.0039757678 
   3758000   0.061999876   -1.2317731      0.1124761     -1.0263092     -0.013754332  
   3759000   0.061219494   -1.229226       0.114709      -1.0226996     -0.023573031  
   3760000   0.061724717   -1.2286405      0.11314725    -1.0229181      0.00080022899
   3761000   0.06166088    -1.2379498      0.11308069    -1.0323897      8.4447408e-06
   3762000   0.061366423   -1.2208524      0.11249877    -1.0163158      0.0081350285 
   3763000   0.061027108   -1.2255332      0.11142227    -1.0225821      0.01003859   
   3764000   0.06124265    -1.2338513      0.11232985    -1.0296693      0.0058374981 
   3765000   0.060516291   -1.227721       0.11269304    -1.0242652      0.0061603592 
   3766000   0.062169114   -1.2235616      0.11303854    -1.0172814      0.013360246  
   3767000   0.061939963   -1.2268003      0.11375052    -1.0201518     -0.0097669883 
   3768000   0.06100323    -1.2196439      0.11407871    -1.0140722     -0.0010781568 
   3769000   0.061099428   -1.2295426      0.11317191    -1.0247333      0.019384688  
   3770000   0.060794176   -1.2288132      0.11276487    -1.0248688     -0.0156407    
   3771000   0.061183854   -1.2333101      0.11274849    -1.0287977      0.012209187  
   3772000   0.061116543   -1.2296466      0.11379226    -1.0241914      0.0025596844 
   3773000   0.061161838   -1.2255466      0.11380841    -1.0200072     -0.0082176579 
   3774000   0.060795343   -1.2478468      0.11256605    -1.0440995      0.00039120149
   3775000   0.060631358   -1.2170611      0.11271805    -1.0134077     -0.018682192  
   3776000   0.060365476   -1.2366605      0.112062      -1.034062       0.014656414  
   3777000   0.061451848   -1.2345508      0.1138348     -1.0285501     -0.017147731  
   3778000   0.061562685   -1.2323425      0.11177373    -1.0282367     -0.012505464  
   3779000   0.061112651   -1.2172577      0.11170103    -1.0138995     -0.0090901583 
   3780000   0.062415904   -1.2205558      0.11305499    -1.013889       0.00041387511
   3781000   0.061429516   -1.2252159      0.11354834    -1.0195352      0.016875455  
   3782000   0.060387433   -1.2364309      0.11327451    -1.0325869     -0.011546886  
   3783000   0.060150909   -1.228865       0.11179082    -1.0268595      0.0095103231 
   3784000   0.060983066   -1.229645       0.11252024    -1.025662       0.039255922  
   3785000   0.061895663   -1.2230294      0.11255585    -1.0176421      0.024878391  
   3786000   0.061897949   -1.2389044      0.11304627    -1.0330232     -0.0097217358 
   3787000   0.062931804   -1.2306923      0.11106648    -1.0252403      0.010734685  
   3788000   0.061706863   -1.2250467      0.11259179    -1.0199066     -0.015498194  
   3789000   0.060975121   -1.2279063      0.11352312    -1.0229323      0.024505922  
   3790000   0.061102277   -1.2281877      0.11167926    -1.0248668     -0.0015517342 
   3791000   0.061319636   -1.2317592      0.11267816    -1.0271135     -0.00062995415
   3792000   0.060613149   -1.2224396      0.11184937    -1.0196823     -0.0064964028 
   3793000   0.060958359   -1.2196109      0.11142761    -1.0167576      0.0074201276 
   3794000   0.061037924   -1.2224508      0.11225077    -1.0186549      0.013943072  
   3795000   0.060791138   -1.2186634      0.11238007    -1.0151084      0.0074664547 
   3796000   0.060029797   -1.2226068      0.11288679    -1.0196869     -0.010136277  
   3797000   0.062185905   -1.2254409      0.11420948    -1.0179646     -0.0088923262 
   3798000   0.061087624   -1.2266992      0.11467312    -1.0204065     -0.019835056  
   3799000   0.06118624    -1.2269346      0.11332271    -1.0218444      0.0032613919 
   3800000   0.060252484   -1.2295654      0.11113669    -1.0280616     -0.01075995   
   3801000   0.061106954   -1.2192429      0.11318846    -1.0144059      0.01398118   
   3802000   0.060028027   -1.2263625      0.11186615    -1.024466      -0.0066373039 
   3803000   0.060497592   -1.2225442      0.11188258    -1.0199269     -0.0002790253 
   3804000   0.060680838   -1.2293521      0.11415967    -1.0241829     -0.01797978   
   3805000   0.061581216   -1.2372312      0.11242046    -1.0324509     -0.0069366105 
   3806000   0.060489967   -1.2362094      0.1127275     -1.0327587      0.0080173562 
   3807000   0.060981782   -1.2280417      0.11225579    -1.024325       0.013520252  
   3808000   0.060748081   -1.2412448      0.11357946    -1.0365549      0.013113976  
   3809000   0.060678011   -1.2221689      0.11434313    -1.0168205      0.018959439  
   3810000   0.060452221   -1.2358437      0.11208873    -1.0330883     -0.0041081879 
   3811000   0.061550172   -1.2336778      0.11269088    -1.0286735      0.010641843  
   3812000   0.061278898   -1.2244284      0.1128031     -1.0197188      0.016866359  
   3813000   0.061003348   -1.2264211      0.11207801    -1.0228499     -0.0049637022 
   3814000   0.061025468   -1.2281648      0.1124787     -1.0241597      0.0069952534 
   3815000   0.06105412    -1.2348167      0.11171335    -1.031534      -0.01450943   
   3816000   0.061285092   -1.2299075      0.11196379    -1.0260279      0.0058295218 
   3817000   0.061234209   -1.2231292      0.11357687    -1.0177128      0.009610517  
   3818000   0.061325739   -1.2271768      0.11204333    -1.0231567     -0.0030683891 
   3819000   0.060545431   -1.2303675      0.1127423     -1.0268188     -0.021671026  
   3820000   0.060574224   -1.2292206      0.11253943    -1.0258316     -0.0017868995 
   3821000   0.061263961   -1.235381       0.11247826    -1.0310187      0.011115983  
   3822000   0.061864636   -1.2190339      0.11206224    -1.0141867     -0.011946435  
   3823000   0.061363569   -1.2319767      0.11355597    -1.0263873      0.0038180322 
   3824000   0.060671861   -1.2171582      0.11267976    -1.0134824      0.017642133  
   3825000   0.060607087   -1.2195227      0.11037345    -1.0182503     -0.0018949904 
   3826000   0.060570869   -1.2185365      0.11276031    -1.0149316      0.0040861526 
   3827000   0.060798536   -1.2270103      0.11156223    -1.0242621     -0.0047923    
   3828000   0.061684222   -1.2299178      0.11206275    -1.0253407      0.019341929  
   3829000   0.061778407   -1.2345567      0.11152772    -1.0303733      0.0057387616 
   3830000   0.061534738   -1.2262583      0.11323705    -1.020731       0.003863225  
   3831000   0.060905363   -1.2214213      0.11384148    -1.0162335      0.00088711778
   3832000   0.061198084   -1.2234967      0.11084219    -1.0208692      0.0051315391 
   3833000   0.061021879   -1.2232198      0.11035808    -1.0213407     -0.0049199383 
   3834000   0.060630366   -1.2400203      0.11207524    -1.0370113     -0.0088700887 
   3835000   0.060675051   -1.2301711      0.11164964    -1.0275206      0.0056966505 
   3836000   0.060121412   -1.2333827      0.11163366    -1.0315786     -0.010773557  
   3837000   0.061011567   -1.2154491      0.11272646    -1.0112171     -0.016580338  
   3838000   0.061899622   -1.2360388      0.11256611    -1.0306352     -0.0065652879 
   3839000   0.060597306   -1.232945       0.11439505    -1.0276657     -0.0070012603 
   3840000   0.060716776   -1.226935       0.11276199    -1.0231096     -0.0048390434 
   3841000   0.061088603   -1.2443965      0.11245965    -1.0403158     -0.0039778054 
   3842000   0.060531607   -1.2369356      0.11278377    -1.0333662     -0.0093456169 
   3843000   0.061568943   -1.2183081      0.11357636    -1.0123902     -0.003853901  
   3844000   0.061332797   -1.2124329      0.11299696    -1.0074486     -0.054324568  
   3845000   0.060118553   -1.2185669      0.11149405    -1.0169066     -0.028630638  
   3846000   0.06127424    -1.2265204      0.11265949    -1.0219614     -7.8062654e-05
   3847000   0.060884222   -1.2419609      0.11350257    -1.0371437     -0.01467699   
   3848000   0.061050148   -1.2231544      0.11023743    -1.0213536     -0.013757936  
   3849000   0.060973578   -1.2318702      0.11057034    -1.0298513      0.008312808  
   3850000   0.061401661   -1.2267423      0.11298092    -1.0216708     -0.019968449  
   3851000   0.061068833   -1.2403676      0.11185022    -1.0369259     -0.0090445631 
   3852000   0.060587176   -1.2273089      0.11388042    -1.0225594     -0.011192659  
   3853000   0.060841447   -1.2371658      0.1118012     -1.0341143     -0.013954687  
   3854000   0.060903117   -1.2314112      0.11317205    -1.0268963     -0.0015474829 
   3855000   0.060917282   -1.2080864      0.11074579    -1.0059765     -0.027935048  
   3856000   0.060592098   -1.235175       0.11213472    -1.0321639     -0.01566979   
   3857000   0.059441413   -1.2300719      0.11508995    -1.0258313     -0.028042721  
   3858000   0.060926615   -1.2321483      0.11107993    -1.0296902     -0.026938898  
   3859000   0.060555453   -1.2304783      0.11243139    -1.0272255     -0.020479908  
   3860000   0.060682297   -1.2503288      0.11220848    -1.0471086     -0.0032298484 
   3861000   0.061035158   -1.2269365      0.11064063    -1.0247549     -0.023546069  
   3862000   0.06069198    -1.2400023      0.11295394    -1.0360221     -0.018269898  
   3863000   0.061613849   -1.2204964      0.11073753    -1.01735       -0.0072882572 
   3864000   0.060564612   -1.226697       0.10984842    -1.0260134     -0.0037026314 
   3865000   0.060072429   -1.2329678      0.11227657    -1.0305942      0.0056524253 
   3866000   0.061086553   -1.2307128      0.11198504    -1.0271097     -0.026411423  
   3867000   0.060421064   -1.2348693      0.11274264    -1.0315068     -0.02452907   
   3868000   0.060269551   -1.2230075      0.1122674     -1.0203474     -0.022907817  
   3869000   0.060562078   -1.2328661      0.11139257    -1.0306421     -0.018211327  
   3870000   0.061144407   -1.224498       0.11395115    -1.0188421      0.013099726  
   3871000   0.062568566   -1.2236704      0.11218322    -1.0176464     -0.0068326863 
   3872000   0.060489554   -1.2446162      0.11140132    -1.0424922     -0.0086193638 
   3873000   0.060240687   -1.2256774      0.11197599    -1.0233521     -0.024341022  
   3874000   0.061061316   -1.2383194      0.11159503    -1.0351442     -0.0023240698 
   3875000   0.060083166   -1.2329122      0.11310359    -1.0296955     -0.0025891016 
   3876000   0.06022896    -1.2299327      0.11251555    -1.0270854     -0.019609757  
   3877000   0.059999437   -1.237176       0.11129098    -1.0358975     -0.0031360164 
   3878000   0.060457599   -1.2206322      0.11141932    -1.0185382     -0.013053751  
   3879000   0.060984469   -1.2288358      0.11389582    -1.023475      -0.028684467  
   3880000   0.060504461   -1.2454599      0.11276772    -1.0419472     -0.016735921  
   3881000   0.06087462    -1.2394452      0.11221495    -1.0359301      0.0090054745 
   3882000   0.060892975   -1.2269737      0.11142881    -1.0242172     -0.0022525193 
   3883000   0.060990091   -1.2286478      0.11155533    -1.0256191      0.0084222944 
   3884000   0.06075606    -1.2338377      0.11354669    -1.0291687      0.0035118049 
   3885000   0.060802287   -1.2415695      0.11199079    -1.038387      -0.017052491  
   3886000   0.060636864   -1.2207908      0.111256      -1.0185912     -0.014309086  
   3887000   0.060873377   -1.2351206      0.11321512    -1.0306072      0.025115523  
   3888000   0.061527369   -1.2233275      0.11183216    -1.0192162      0.011160368  
   3889000   0.06100699    -1.2313779      0.11358507    -1.0262941     -0.012297654  
   3890000   0.060858376   -1.2283878      0.11237881    -1.0247333     -0.021967872  
   3891000   0.060381731   -1.2311029      0.11206607    -1.0284759     -0.012475292  
   3892000   0.060037294   -1.24249        0.11290112    -1.0395445     -0.0085464195 
   3893000   0.060513148   -1.2244014      0.11325511    -1.0203883     -0.0012864318 
   3894000   0.061531161   -1.234679       0.11155214    -1.030842      -0.0029107534 
   3895000   0.061052654   -1.2310827      0.11291107    -1.0266044     -0.006186583  
   3896000   0.061593835   -1.2366943      0.11463846    -1.029677      -0.025593793  
   3897000   0.061097091   -1.2322376      0.1127028     -1.027901       0.0058193564 
   3898000   0.061190943   -1.2234449      0.11255514    -1.0191152     -0.021998125  
   3899000   0.061130059   -1.2283898      0.11146209    -1.0252444     -0.02554057   
   3900000   0.060438812   -1.2279146      0.11176409    -1.025504       0.0009159303 
   3901000   0.060785171   -1.2331627      0.11427905    -1.0277177     -0.011418076  
   3902000   0.061225686   -1.2309891      0.11300443    -1.026158      -0.0064150806 
   3903000   0.061143484   -1.2454619      0.11393492    -1.0398236     -0.00013150677
   3904000   0.060518602   -1.2473579      0.11163124    -1.0449604     -0.025360769  
   3905000   0.061227746   -1.2287701      0.11270575    -1.0242346     -0.0076912688 
   3906000   0.061833665   -1.2382169      0.11105666    -1.0344217      3.1671419e-05
   3907000   0.060460029   -1.2418891      0.1124851     -1.0387256     -0.028448086  
   3908000   0.061001345   -1.2424731      0.11320704    -1.0377759     -0.026113574  
   3909000   0.059580961   -1.2433328      0.11373535    -1.0402376     -0.0068493462 
   3910000   0.060347705   -1.2218337      0.11259825    -1.0187256     -0.0098276612 
   3911000   0.060323892   -1.2300512      0.11311766    -1.0264594     -0.015525611  
   3912000   0.060247164   -1.2319889      0.11478536    -1.0268445     -0.0036793535 
   3913000   0.061294492   -1.2258619      0.11466095    -1.0192711     -0.0011682499 
   3914000   0.061026126   -1.2331619      0.11385946    -1.027775      -0.0080540109 
   3915000   0.061975418   -1.2270171      0.11477628    -1.0192897     -0.031078356  
   3916000   0.060868624   -1.2342236      0.11289267    -1.0300398     -0.022763131  
   3917000   0.061485213   -1.2325115      0.11312719    -1.0271684     -0.018829668  
   3918000   0.060941657   -1.2391238      0.11489793    -1.0328252     -0.039659631  
   3919000   0.06120028    -1.2342225      0.11446377    -1.0279702     -0.0054983139 
   3920000   0.060722881   -1.2315307      0.1129553     -1.0275029     -0.020043448  
   3921000   0.060970043   -1.2413439      0.1151969     -1.0347037      0.0090950022 
   3922000   0.060876252   -1.2255445      0.11395876    -1.0202831     -0.0025966044 
   3923000   0.060093202   -1.2231358      0.11377785    -1.0192298     -0.025701998  
   3924000   0.060396008   -1.2256426      0.11424325    -1.020817      -0.012289806  
   3925000   0.061460193   -1.2306811      0.11303953    -1.0254632     -0.0046318288 
   3926000   0.061674534   -1.2300816      0.1137727     -1.023809      -0.024745077  
   3927000   0.060463137   -1.2368851      0.11675107    -1.029451      -0.017519412  
   3928000   0.060719827   -1.2281365      0.11524881    -1.0218197     -0.0283262    
   3929000   0.06163248    -1.2265161      0.1144193     -1.01966       -0.02416759   
   3930000   0.062048339   -1.2391672      0.11498152    -1.0311251     -0.015428298  
   3931000   0.060411756   -1.2321411      0.11427775    -1.0272574     -0.028541316  
   3932000   0.0613616     -1.2376682      0.1141649     -1.0314728     -0.0039049465 
   3933000   0.060448161   -1.2280112      0.11395597    -1.0233947     -0.0048064902 
   3934000   0.060145513   -1.2273782      0.11162523    -1.0255463     -0.00034926859
   3935000   0.061603419   -1.2416794      0.11272278    -1.0365634     -0.034520861  
   3936000   0.061492487   -1.2259108      0.11512718    -1.0185568      0.017564885  
   3937000   0.061152597   -1.2285615      0.11211038    -1.0247341      0.0038767206 
   3938000   0.061464433   -1.2173713      0.11266074    -1.0125258     -0.024691709  
   3939000   0.060716931   -1.2197949      0.11418569    -1.0145456     -0.0027668522 
   3940000   0.061403781   -1.2292931      0.11420203    -1.0229973      0.0059201652 
   3941000   0.060344096   -1.2174075      0.11281504    -1.014088      -0.0084827217 
   3942000   0.061131085   -1.2263854      0.11375978    -1.0209408     -0.0074115141 
   3943000   0.06043773    -1.2462641      0.11412044    -1.0414988     -0.015617707  
   3944000   0.060892548   -1.2437706      0.1122926     -1.0401509     -0.01234008   
   3945000   0.060684164   -1.2411589      0.11140932    -1.0387351     -0.015348107  
   3946000   0.061085483   -1.2441699      0.11187731    -1.0406762      0.0074543905 
   3947000   0.061328337   -1.2488843      0.11276251    -1.0441412     -0.012262008  
   3948000   0.060896665   -1.2215733      0.11452597    -1.0157141     -0.0093048188 
   3949000   0.061433732   -1.2339213      0.11369214    -1.0280905     -0.018381924  
   3950000   0.060503807   -1.2389002      0.11486969    -1.0332865     -0.018115911  
   3951000   0.061013928   -1.2247298      0.11485983    -1.0183608     -0.021477153  
   3952000   0.061830713   -1.2357706      0.11075682    -1.0322797     -0.0049684161 
   3953000   0.060380182   -1.2274331      0.11388042    -1.0229941     -0.00061259016
   3954000   0.060499999   -1.229723       0.11113166    -1.027853      -0.013898226  
   3955000   0.060613671   -1.2191097      0.11356625    -1.0146347     -0.010046132  
   3956000   0.062019096   -1.2263891      0.11305587    -1.0203166     -0.0062225334 
   3957000   0.060869381   -1.242106       0.11415205    -1.0366617     -0.013235286  
   3958000   0.060367135   -1.2290046      0.11226722    -1.0261984     -0.019829456  
   3959000   0.060642578   -1.2402341      0.11029036    -1.0389916     -0.011214613  
   3960000   0.059318999   -1.2288711      0.11307139    -1.0268327     -0.017783963  
   3961000   0.061224728   -1.2320333      0.11303697    -1.0271711     -0.017663504  
   3962000   0.060537305   -1.2341674      0.11399367    -1.0293795     -0.015143936  
   3963000   0.061501897   -1.2431154      0.11333148    -1.037543       0.010286221  
   3964000   0.061700833   -1.225905       0.11432847    -1.0190372      0.0081847938 
   3965000   0.060604201   -1.241631       0.11299521    -1.0377412     -0.013110566  
   3966000   0.061843047   -1.235554       0.11589802    -1.0269034      0.0017901103 
   3967000   0.060638472   -1.222106       0.11340427    -1.0177557     -0.0055301045 
   3968000   0.060320981   -1.2303292      0.11258198    -1.0272774     -0.0073917746 
   3969000   0.062052832   -1.234049       0.11400408    -1.0269777     -0.019242235  
   3970000   0.061507301   -1.2408973      0.11281455    -1.0358337     -0.0086303982 
   3971000   0.060521003   -1.2275662      0.11132857    -1.0254678      0.030217375  
   3972000   0.060677865   -1.2348633      0.11385748    -1.0300008     -0.0097758738 
   3973000   0.06076727    -1.2358187      0.11260453    -1.032075      -0.0032606433 
   3974000   0.061373182   -1.2210577      0.11443241    -1.0145774     -0.014435161  
   3975000   0.061355404   -1.2317291      0.11371651    -1.0259914     -0.00097124073
   3976000   0.061505624   -1.2304364      0.114304      -1.0238859      0.0040792203 
   3977000   0.060416286   -1.247752       0.11535608    -1.0417832     -0.03232111   
   3978000   0.060440353   -1.2317661      0.11306907    -1.0280482     -0.012097021  
   3979000   0.061141769   -1.235664       0.11605925    -1.027904      -0.011403758  
   3980000   0.061409387   -1.2383784      0.11341194    -1.0328643      0.0027771954 
   3981000   0.060753632   -1.2311048      0.11613371    -1.0238524     -0.014906727  
   3982000   0.060764072   -1.2257517      0.11246324    -1.0221541     -0.0013047705 
   3983000   0.060194236   -1.2232324      0.11332058    -1.0196321     -0.010001142  
   3984000   0.06037536    -1.2329136      0.11259444    -1.0297678      0.010085933  
   3985000   0.061372579   -1.2357594      0.11360003    -1.0301124     -0.0091245801 
   3986000   0.060444958   -1.2321807      0.11207431    -1.0294506     -0.019465111  
   3987000   0.061433218   -1.2363877      0.11379285    -1.0304569      0.010893577  
   3988000   0.062020944   -1.2338441      0.11457515    -1.0262495     -0.014265007  
   3989000   0.062255517   -1.2376555      0.11401993    -1.0302644     -0.021331306  
   3990000   0.061926481   -1.2301191      0.11357984    -1.0236615      0.012405711  
   3991000   0.062313874   -1.2396775      0.11301924    -1.0331995     -0.0066183618 
   3992000   0.061688811   -1.2353656      0.11193573    -1.0309086     -0.0078440478 
   3993000   0.060801568   -1.2150714      0.11446937    -1.0094115      0.0095329906 
   3994000   0.060718503   -1.2287549      0.11375965    -1.0239292     -0.0070320407 
   3995000   0.060709914   -1.2337832      0.11320198    -1.0295281     -0.0175984    
   3996000   0.060740501   -1.2244269      0.11356497    -1.0197629     -0.0080417265 
   3997000   0.060766476   -1.2294949      0.11410065    -1.0242563     -0.011082428  
   3998000   0.061073515   -1.2371346      0.11579432    -1.0297418     -0.0051322011 
   3999000   0.060872057   -1.2317008      0.11268916    -1.0277153     -0.01290684   
   4000000   0.062111304   -1.2298931      0.11449171    -1.0222464     -0.0094128094 
   4001000   0.061823515   -1.2346338      0.11574882    -1.0261617     -0.014125212  
   4002000   0.060559735   -1.2302537      0.11334069    -1.0260851     -0.016625684  
   4003000   0.061858203   -1.2233075      0.11277246    -1.0177597     -0.016648842  
   4004000   0.061357829   -1.2303648      0.11400298    -1.024337      -0.015730222  
   4005000   0.061085394   -1.2259396      0.1140775     -1.0202458     -0.00090182817
   4006000   0.062083423   -1.2250557      0.1148345     -1.0171081     -0.0035712263 
   4007000   0.060956221   -1.2147447      0.11424915    -1.009073      -0.018225718  
   4008000   0.060242022   -1.2380883      0.11418528    -1.0335516     -0.036358767  
   4009000   0.061484673   -1.22802        0.11305111    -1.0227538      0.0016854308 
   4010000   0.061436378   -1.2304417      0.11231388    -1.0259851      0.0037346662 
   4011000   0.060401177   -1.2426618      0.11480474    -1.037267      -0.0079955678 
   4012000   0.061144486   -1.2294724      0.11396068    -1.0238068     -0.0038974052 
   4013000   0.06073289    -1.2178532      0.11490676    -1.0118589     -0.0025944556 
   4014000   0.060625761   -1.2317406      0.11270483    -1.0281088     -0.017744709  
   4015000   0.0612991     -1.2388657      0.11427304    -1.0326558     -0.0075520258 
   4016000   0.061176304   -1.2348139      0.11456258    -1.0284987      0.016495325  
   4017000   0.060910431   -1.2256979      0.11326433    -1.0210797     -0.014790246  
   4018000   0.06043224    -1.2293792      0.1140092     -1.0247333     -0.00039133563
   4019000   0.061104326   -1.2354936      0.11408194    -1.029767      -0.0040500848 
   4020000   0.060289574   -1.239619       0.11410846    -1.0350879     -0.025968733  
   4021000   0.061625435   -1.2327693      0.11259608    -1.027747       0.006518153  
   4022000   0.060154778   -1.2276552      0.11220249    -1.0252322     -0.015277451  
   4023000   0.061198734   -1.2325982      0.11163425    -1.0291777     -0.016145763  
   4024000   0.060955793   -1.2353555      0.11238928    -1.0315443      0.012603549  
   4025000   0.061108696   -1.2323734      0.1128811     -1.0278411      0.024259855  
   4026000   0.06129594    -1.2351911      0.11393615    -1.0293229     -0.016568861  
   4027000   0.060933261   -1.2348118      0.11459173    -1.028832       0.0043408607 
   4028000   0.061518806   -1.2356518      0.11346791    -1.0299176     -0.010073708  
   4029000   0.061407408   -1.2421774      0.11405014    -1.036028      -8.2317225e-05
   4030000   0.060568459   -1.2370403      0.11327204    -1.0329273      0.019987159  
   4031000   0.060736316   -1.2516813      0.11438532    -1.0462033     -0.03726129   
   4032000   0.061651683   -1.2314599      0.11336057    -1.0256337      0.0023758792 
   4033000   0.062004039   -1.2159635      0.11548563    -1.0074838     -0.0047914042 
   4034000   0.062052971   -1.238012       0.11395539    -1.0309892      0.0037365458 
   4035000   0.062706212   -1.2334197      0.11350926    -1.0258633      0.0072086756 
   4036000   0.060725106   -1.2388604      0.11261322    -1.0351713      0.014899029  
   4037000   0.060565775   -1.2276324      0.11554113    -1.0212543     -0.0025278581 
   4038000   0.061403905   -1.2288018      0.11439401    -1.0223138     -0.00063812434
   4039000   0.061195658   -1.2402978      0.1125591     -1.035957      -0.00050662765
   4040000   0.061537714   -1.2374895      0.11515615    -1.0300387      0.0017980856 
   4041000   0.061979927   -1.226946       0.11233378    -1.0216543      0.0088698262 
   4042000   0.061416482   -1.2322563      0.11215322    -1.0279902      0.010525132  
   4043000   0.060980468   -1.2284444      0.11343749    -1.023548       0.020730845  
   4044000   0.060234749   -1.2292801      0.11302312    -1.0259165     -0.0096455753 
   4045000   0.061420772   -1.2273762      0.11529969    -1.0199572     -0.013955071  
   4046000   0.060719336   -1.2514116      0.11398734    -1.046357      -0.0073484896 
   4047000   0.062124047   -1.23501        0.11397173    -1.0278642      0.0060317443 
   4048000   0.060669939   -1.2459826      0.11386647    -1.041123       0.0064415884 
   4049000   0.061931327   -1.2287219      0.11383535    -1.0220015      0.012062741  
   4050000   0.06103521    -1.2396997      0.11444681    -1.0337119      0.01182491   
   4051000   0.061774881   -1.2348686      0.11314516    -1.029073      -0.0041962024 
   4052000   0.061572936   -1.2375755      0.11285938    -1.0323686      0.015818338  
   4053000   0.061778597   -1.2263758      0.11430232    -1.0194175     -0.0081549326 
   4054000   0.060602951   -1.2389575      0.11420732    -1.0338574     -0.013643437  
   4055000   0.0615467     -1.2326627      0.11342955    -1.026925       0.00029526889
   4056000   0.061196194   -1.2345874      0.11435072    -1.0284542     -0.0010672052 
   4057000   0.060798931   -1.2269016      0.1128839     -1.0228311      0.002511003  
   4058000   0.060711086   -1.2270823      0.11140606    -1.0246214      0.0059266529 
   4059000   0.060977407   -1.228785       0.11306509    -1.0242656      0.0041231558 
   4060000   0.061458171   -1.2367987      0.11261119    -1.0320121     -0.0080023523 
   4061000   0.060980793   -1.2284908      0.11328479    -1.0237466      0.015748429  
   4062000   0.060373301   -1.2226626      0.11459661    -1.0175177     -0.014566147  
   4063000   0.0607385     -1.2283733      0.11206765    -1.0252097     -0.0064042619 
   4064000   0.060372472   -1.2327225      0.11275794    -1.0294175      0.0027888736 
   4065000   0.061616936   -1.2246046      0.11181668    -1.0203745     -0.0041279406 
   4066000   0.061698376   -1.2314487      0.11193204    -1.0269811     -0.01381534   
   4067000   0.061065264   -1.2346622      0.11244667    -1.0306295      0.021967191  
   4068000   0.060833002   -1.2405643      0.11108891    -1.0382377     -0.0076105645 
   4069000   0.062115683   -1.2270426      0.10857203    -1.025309       0.020813181  
   4070000   0.060691448   -1.2342859      0.10880528    -1.0344552      0.00015051324
   4071000   0.060728009   -1.2362326      0.10932486    -1.0358274      0.0023600571 
   4072000   0.061052903   -1.224344       0.10891239    -1.023864      -0.018222533  
   4073000   0.060979108   -1.2390151      0.1072344     -1.0403238      0.0025171652 
   4074000   0.061488943   -1.2474289      0.10970438    -1.045503      -0.016406225  
   4075000   0.060211578   -1.2269302      0.10926339    -1.0273611      0.013148429  
   4076000   0.061381541   -1.2370188      0.10959271    -1.0353657      0.020324582  
   4077000   0.06106697    -1.2311218      0.10815079    -1.0313824      0.0045921015 
   4078000   0.061154664   -1.2325983      0.10952437    -1.0313537      0.0051421291 
   4079000   0.061513415   -1.2343384      0.11098263    -1.0310976      0.020317185  
   4080000   0.060625493   -1.2179938      0.11176769    -1.0152996      0.024233258  
   4081000   0.061538613   -1.2254304      0.11008013    -1.0230543      0.0087173189 
   4082000   0.061097621   -1.2315421      0.1114472     -1.0284603     -0.01745133   
   4083000   0.060670968   -1.2396616      0.11097567    -1.0376913      0.0038896536 
   4084000   0.060916273   -1.2223732      0.11034629    -1.0206643     -0.0022784009 
   4085000   0.059943354   -1.2413209      0.11057912    -1.0408383     -0.0017640463 
   4086000   0.060117244   -1.2378756      0.11081416    -1.0368972      0.010082903  
   4087000   0.060212508   -1.2164922      0.10974992    -1.0164352     -0.0033903347 
   4088000   0.060031827   -1.2299651      0.1112856     -1.0286434      0.0093833471 
   4089000   0.060240454   -1.2360003      0.11033084    -1.0353205      0.008967974  
   4090000   0.060159036   -1.2407092      0.11166221    -1.03882        0.010087776  
   4091000   0.060994338   -1.2353848      0.11061217    -1.0332929     -0.0023285201 
   4092000   0.060558929   -1.2302809      0.11129965    -1.0281546      0.026438893  
   4093000   0.060715802   -1.2330521      0.11068188    -1.0313083      0.021967879  
   4094000   0.060429354   -1.2337871      0.11215059    -1.0310042     -0.017053775  
   4095000   0.061028042   -1.2222096      0.11351525    -1.0171641     -0.001424311  
   4096000   0.060539489   -1.230377       0.11164111    -1.0279384     -0.0037890222 
   4097000   0.060974382   -1.2254452      0.11058342    -1.023412       0.0033119637 
   4098000   0.060841991   -1.2285729      0.11170746    -1.0256142     -0.014095441  
   4099000   0.061694661   -1.2347035      0.11292388    -1.0292496      0.00700199   
   4100000   0.061293967   -1.2210412      0.10941749    -1.0196946     -0.0080097835 
   4101000   0.061181447   -1.2293243      0.11173173    -1.0258322      0.010215432  
   4102000   0.060944923   -1.2283847      0.1100012     -1.0269779      0.0015687362 
   4103000   0.060025869   -1.2359279      0.1128636     -1.0330371      0.013836356  
   4104000   0.061754631   -1.2289999      0.11322464    -1.0231552     -0.0011346916 
   4105000   0.060436687   -1.2387408      0.11311764    -1.0349798     -0.011734559  
   4106000   0.061111274   -1.2454368      0.11281428    -1.0409675     -0.0016960547 
   4107000   0.061234002   -1.2372737      0.11223473    -1.0331998     -0.0061462235 
   4108000   0.06141769    -1.2371055      0.11147407    -1.0335167      0.0093334715 
   4109000   0.060766609   -1.2293203      0.11382174    -1.0243604     -0.013202821  
   4110000   0.060681336   -1.2402211      0.11320887    -1.036002       0.0011001647 
   4111000   0.061059986   -1.231264       0.10899755    -1.0306882     -0.0092971328 
   4112000   0.061434711   -1.2493799      0.11157679    -1.0456629     -0.0081023155 
   4113000   0.060711466   -1.2415103      0.11329145    -1.0371634      0.0096186922 
   4114000   0.061529842   -1.2322103      0.11160426    -1.0283232      0.0098976605 
   4115000   0.060244948   -1.2238797      0.11011415    -1.0234098      0.0014370866 
   4116000   0.061411902   -1.2368497      0.10870158    -1.0360422      0.0097077083 
   4117000   0.060433054   -1.2369525      0.1126264     -1.0336882      0.0016632842 
   4118000   0.060700315   -1.2411499      0.11249018    -1.037621       0.0077679345 
   4119000   0.060799437   -1.2419323      0.11218134    -1.0385635     -0.0066005573 
   4120000   0.060828011   -1.2348004      0.11265669    -1.0309134      0.0087372232 
   4121000   0.062306041   -1.2271016      0.11118811    -1.0224665     -0.0046262402 
   4122000   0.060993778   -1.2278754      0.11274762    -1.023649       0.012322465  
   4123000   0.061594132   -1.2332186      0.11422541    -1.026614      -0.0058198386 
   4124000   0.061497402   -1.2277218      0.11072609    -1.0247616      0.018016847  
   4125000   0.060609919   -1.2347275      0.11319872    -1.0306256      0.002639424  
   4126000   0.06088322    -1.2422373      0.11350908    -1.0374152      0.001132821  
   4127000   0.061404175   -1.2282149      0.11145055    -1.0246699     -0.01076128   
   4128000   0.0616477     -1.2193178      0.11424257    -1.0126156      0.028780043  
   4129000   0.061683749   -1.2267611      0.11242187    -1.0218256      0.030582506  
   4130000   0.061764807   -1.2261528      0.1125236     -1.0209939     -0.012881999  
   4131000   0.061611      -1.2319147      0.11210267    -1.0274075     -0.0065775983 
   4132000   0.061827159   -1.2322784      0.11197725    -1.0275723      0.014356576  
   4133000   0.061338354   -1.2243836      0.11291196    -1.019476       0.028170968  
   4134000   0.061789335   -1.225552       0.11178659    -1.0210933     -0.0045582626 
   4135000   0.061688558   -1.2334783      0.113749      -1.0272084      0.0038589459 
   4136000   0.061020702   -1.2398458      0.11247211    -1.0358544      0.0062349006 
   4137000   0.060703617   -1.2323154      0.11121212    -1.0300596      0.0050813771 
   4138000   0.061209873   -1.2369756      0.11195809    -1.0332145     -0.00070962587
   4139000   0.060002896   -1.2484417      0.11230434    -1.0461446     -0.022848935  
   4140000   0.060750229   -1.2325015      0.11307104    -1.0283168     -0.029233859  
   4141000   0.060298777   -1.2321112      0.11261954    -1.0290552     -0.0018406914 
   4142000   0.060720638   -1.2282019      0.11251097    -1.0246217     -0.0064530398 
   4143000   0.060520992   -1.2265376      0.11281841    -1.0229494      0.010945218  
   4144000   0.061694009   -1.2375137      0.11250853    -1.0324761      0.020467397  
   4145000   0.060803708   -1.2219396      0.11064423    -1.0201016      0.0076305866 
   4146000   0.060871724   -1.2221267      0.11405467    -1.0167763      0.0046897126 
   4147000   0.060483343   -1.2293651      0.11160357    -1.0270482      0.012967619  
   4148000   0.060951323   -1.2352928      0.11268118    -1.0311964     -0.016570062  
   4149000   0.060678892   -1.2318814      0.11294492    -1.0279299     -0.015138812  
   4150000   0.061540181   -1.2197955      0.11155954    -1.0159376      0.01501925   
   4151000   0.061108286   -1.2363628      0.11334432    -1.0313678      0.0036179406 
   4152000   0.061533171   -1.2390914      0.1135649     -1.0332387      0.01874785   
   4153000   0.061312712   -1.2347665      0.11267606    -1.0301332      0.017324262  
   4154000   0.061050286   -1.2318215      0.1123819     -1.027876       0.0051261443 
   4155000   0.060831345   -1.2296968      0.1121345     -1.026327      -0.0079237323 
   4156000   0.060650781   -1.2265014      0.11225066    -1.0232863      0.0063880572 
   4157000   0.06123411    -1.2321293      0.11152199    -1.028768       0.026735119  
   4158000   0.060087145   -1.2241957      0.11289931    -1.0211773      0.005433311  
   4159000   0.060599832   -1.2349885      0.11114034    -1.0329602      0.0024564772 
   4160000   0.060606704   -1.2221879      0.1104886     -1.0208009      0.004899105  
   4161000   0.059703615   -1.2268182      0.1098215     -1.0274529      0.041704015  
   4162000   0.060705597   -1.2262312      0.11252227    -1.0226623      0.0054114255 
   4163000   0.061002343   -1.2245799      0.11078648    -1.0223017      0.0031764041 
   4164000   0.060978713   -1.2170998      0.11242483    -1.0132187     -0.012058536  
   4165000   0.060761696   -1.2311837      0.11199424    -1.0280587      0.006693707  
   4166000   0.060389602   -1.229172       0.11378395    -1.0248153      0.0013018656 
   4167000   0.061554413   -1.2231184      0.11186104    -1.0189377      0.014953936  
   4168000   0.059853257   -1.2330626      0.11019215    -1.0331022      0.0012629492 
   4169000   0.060440227   -1.2405562      0.11183308    -1.0380744      0.0066603022 
   4170000   0.060879398   -1.2233418      0.11173939    -1.0202951     -0.00080965102
   4171000   0.062265886   -1.2253892      0.11167266    -1.0203298      0.010003299  
   4172000   0.061562873   -1.2274748      0.11267849    -1.0224639      0.0062632395 
   4173000   0.061905323   -1.2341298      0.11332367    -1.0279602      0.01247128   
   4174000   0.062326153   -1.2234327      0.11063441    -1.0193211      0.030866681  
   4175000   0.061056758   -1.2281487      0.11234516    -1.0242303     -0.003762733  
   4176000   0.059974636   -1.2380137      0.11085783    -1.0372055      0.013132825  
   4177000   0.06175247    -1.2354791      0.10978414    -1.0330782      0.004926025  
   4178000   0.060099307   -1.2354199      0.1129923     -1.0322903     -0.0046135348 
   4179000   0.061831554   -1.2332913      0.11031468    -1.0302413      0.015440213  
   4180000   0.061394625   -1.2354462      0.11264615    -1.03072        0.010471452  
   4181000   0.061373981   -1.2224681      0.11086775    -1.0195512      0.010268101  
   4182000   0.061106831   -1.2154648      0.11044583    -1.0133706     -0.010165421  
   4183000   0.061525013   -1.2334433      0.11218023    -1.0289874      0.0092843232 
   4184000   0.061049162   -1.2341641      0.11035806    -1.0322441      0.014447588  
   4185000   0.061607109   -1.2375325      0.11236274    -1.032771      -0.0055178111 
   4186000   0.060938529   -1.2161312      0.11245495    -1.0122803      0.0016455035 
   4187000   0.062029637   -1.21741        0.11192926    -1.0124483      0.0099650357 
   4188000   0.061596112   -1.2404986      0.11002856    -1.0380878      0.025161993  
   4189000   0.06133751    -1.2327365      0.10918074    -1.0315613      0.015273908  
   4190000   0.061436559   -1.2345742      0.1090208     -1.0334105     -0.012608303  
   4191000   0.061436803   -1.2373519      0.11005991    -1.0351487      0.015396308  
   4192000   0.061025528   -1.2353483      0.10949113    -1.0343307      0.016035551  
   4193000   0.060855125   -1.2285582      0.10886787    -1.0284194      0.016787795  
   4194000   0.061876687   -1.236807       0.11034926    -1.0336547     -0.0040477476 
   4195000   0.060810006   -1.2298448      0.11062735    -1.0280142      0.012268611  
   4196000   0.061476249   -1.2317864      0.108722      -1.0308619      0.0086677646 
   4197000   0.061024157   -1.2362516      0.10886215    -1.0358651      0.017286811  
   4198000   0.061116457   -1.239385       0.10974311    -1.037979      -0.012553591  
   4199000   0.061283724   -1.2328228      0.11111758    -1.0297915      0.012865843  
   4200000   0.060473468   -1.2283134      0.11052522    -1.0270897      0.011086188  
   4201000   0.059659357   -1.2240306      0.10999687    -1.0245562      0.0043567764 
   4202000   0.060584364   -1.233883       0.10960995    -1.0334083      0.0026978973 
   4203000   0.06112519    -1.2325407      0.11111431    -1.0297504     -0.017300327  
   4204000   0.060176104   -1.2270011      0.11121851    -1.0255301      0.0048629348 
   4205000   0.060988858   -1.2337575      0.11010254    -1.0321834     -0.024101574  
   4206000   0.060676865   -1.2411129      0.11214689    -1.0379625     -0.0074995083 
   4207000   0.060836279   -1.239433       0.11128353    -1.0369068      0.0015586662 
   4208000   0.060781449   -1.2284407      0.11193314    -1.0253471     -0.006216658  
   4209000   0.06113981    -1.2283645      0.11371661    -1.02295       -0.014145789  
   4210000   0.060798058   -1.233439       0.11183251    -1.0304212     -0.0028638601 
   4211000   0.061470255   -1.2310524      0.11178966    -1.0270692     -0.00070735071
   4212000   0.061499535   -1.2393801      0.11163938    -1.0355033      0.018901654  
   4213000   0.061703361   -1.2292187      0.10937868    -1.0272969      0.014529891  
   4214000   0.061471068   -1.2417765      0.10999795    -1.0395839      0.020700173  
   4215000   0.060088059   -1.2363329      0.11065686    -1.0355556      0.00027625197
   4216000   0.061423778   -1.2279216      0.11001083    -1.025787       0.0030812298 
   4217000   0.060598457   -1.2434634      0.11159468    -1.0409828     -0.013725398  
   4218000   0.060664764   -1.2337122      0.10933845    -1.0333883      0.0267486    
   4219000   0.060426788   -1.2420224      0.11060341    -1.0407905      0.022146632  
   4220000   0.060619212   -1.2330233      0.111096      -1.0310102      0.016213181  
   4221000   0.060039717   -1.2208484      0.11037139    -1.0204291      0.0019175883 
   4222000   0.060477105   -1.2322034      0.10828771    -1.0332117      0.017630124  
   4223000   0.060487068   -1.2266011      0.10987477    -1.0260074      0.006182062  
   4224000   0.062054537   -1.2381497      0.11024884    -1.034831       0.0072754398 
   4225000   0.061115213   -1.2370691      0.11187015    -1.033538       0.01380904   
   4226000   0.060728051   -1.2367094      0.11069759    -1.0349315     -0.0090633217 
   4227000   0.061551947   -1.2315163      0.11099779    -1.0282025      0.012957741  
   4228000   0.061223857   -1.2289214      0.11078686    -1.0263106      0.021496847  
   4229000   0.060886356   -1.2308113      0.10964219    -1.0298513      0.0032563575 
   4230000   0.060572492   -1.2201415      0.11005059    -1.0192439      0.032288208  
   4231000   0.061176417   -1.2338326      0.11046875    -1.0316111      0.014371803  
   4232000   0.060769598   -1.2296992      0.11281667    -1.0257399     -0.0052624529 
   4233000   0.06139126    -1.2269907      0.11253936    -1.0223764      0.025749445  
   4234000   0.062310827   -1.2382804      0.11048321    -1.0343431      0.0077004404 
   4235000   0.061358816   -1.2419655      0.11036271    -1.0395764      0.0070209232 
   4236000   0.061125558   -1.2324685      0.11104159    -1.0297504      0.017116213  
   4237000   0.061233409   -1.2396827      0.11232936    -1.035515       0.01738631   
   4238000   0.062238465   -1.240208       0.11212705    -1.0347353     -0.001553667  
   4239000   0.061211058   -1.2271023      0.11097203    -1.0243255      0.024008366  
   4240000   0.060562753   -1.224025       0.11060525    -1.0225873      0.0026667988 
   4241000   0.060917914   -1.2374216      0.11143217    -1.0346244      0.011844162  
   4242000   0.061223295   -1.237234       0.1115991     -1.0338118     -0.0023526009 
   4243000   0.060714393   -1.2298553      0.11113977    -1.0276557      0.020572272  
   4244000   0.06303481    -1.24185        0.1125854     -1.0347246      0.0092192862 
   4245000   0.062661877   -1.2308079      0.11143502    -1.0253922     -0.012327489  
   4246000   0.06174378    -1.2375921      0.11198438    -1.033004       0.020000102  
   4247000   0.061414817   -1.2480599      0.111684      -1.0442656      0.0016560014 
   4248000   0.061761898   -1.2334604      0.11095567    -1.0298738     -0.007471078  
   4249000   0.061393838   -1.222947       0.11080268    -1.0200655      0.024753181  
   4250000   0.061499492   -1.2216464      0.11166576    -1.0177433      0.016420733  
   4251000   0.060959086   -1.2082925      0.11174579    -1.0051198     -0.0028146722 
   4252000   0.06031967    -1.2280637      0.11044699    -1.0271489      0.0092446984 
   4253000   0.062209542   -1.2230782      0.11019419    -1.0195818     -0.0099525882 
   4254000   0.061476142   -1.2439108      0.11163077    -1.0400777      0.016041761  
   4255000   0.060569897   -1.234206       0.11169736    -1.0316656     -0.023282648  
   4256000   0.05991365    -1.2339963      0.11129033    -1.0328471     -0.0031859098 
   4257000   0.060308301   -1.2265647      0.11353902    -1.0225748      0.007825955  
   4258000   0.061123617   -1.2392655      0.1117061     -1.0358859      0.012799216  
   4259000   0.060848526   -1.2312873      0.11165306    -1.0283733      0.01659231   
   4260000   0.060501374   -1.2374285      0.11217283    -1.0345154      0.0049893364 
   4261000   0.061776246   -1.2294497      0.11132085    -1.0254765      0.012810939  
   4262000   0.060918894   -1.2356727      0.11240071    -1.0319054     -0.0075600203 
   4263000   0.061594184   -1.2268763      0.11420786    -1.0202891      0.016899567  
   4264000   0.061170165   -1.2340097      0.11282102    -1.0294452      0.026573641  
   4265000   0.062331382   -1.2376369      0.11396232    -1.0301896      0.01513035   
   4266000   0.061729642   -1.2223223      0.11268826    -1.0170515      0.018295908  
   4267000   0.061119591   -1.2379019      0.11369739    -1.0325369      0.013862768  
   4268000   0.062069354   -1.2344896      0.11167837    -1.0297193      0.0064205447 
   4269000   0.060745001   -1.2386582      0.11281506    -1.0347374      0.015918865  
   4270000   0.060740759   -1.2351769      0.11340398    -1.0306735      0.010415911  
   4271000   0.061230958   -1.2467452      0.11161979    -1.0432908     -0.0040565999 
   4272000   0.061231704   -1.2253719      0.11361337    -1.0199228      0.011615876  
   4273000   0.061194381   -1.2351104      0.11216508    -1.0311656     -0.00039786762
   4274000   0.061941421   -1.2318358      0.11301323    -1.0259224     -0.01327293   
   4275000   0.061109224   -1.2351586      0.11174189    -1.0317647      0.0095571333 
   4276000   0.060913049   -1.2282548      0.11294086    -1.0239562      0.013893653  
   4277000   0.059426385   -1.2384905      0.1128616     -1.0365008      0.00072444915
   4278000   0.061536153   -1.2339217      0.11209783    -1.0295315     -0.0010219552 
   4279000   0.060564932   -1.2332783      0.11330493    -1.0291377     -0.0025431282 
   4280000   0.06166649    -1.2319612      0.11338232    -1.0260911     -0.0022077203 
   4281000   0.061605944   -1.2267479      0.11259622    -1.0217547      0.0020504037 
   4282000   0.061092048   -1.2277592      0.11273196    -1.0234009     -0.0041070576 
   4283000   0.06137654    -1.237905       0.11609552    -1.0297566     -0.012477511  
   4284000   0.060282322   -1.2413074      0.11443908    -1.0364565      0.011579837  
   4285000   0.060119756   -1.2236637      0.11561998    -1.0178757      0.0088978909 
   4286000   0.059912662   -1.230199       0.11364821    -1.0266934     -0.0042966704 
   4287000   0.060453905   -1.2291307      0.11317401    -1.0252875      0.0088103625 
   4288000   0.061286262   -1.2256105      0.11321402    -1.0204789     -0.01084907   
   4289000   0.06104721    -1.2283436      0.11293579    -1.0238488      0.013019104  
   4290000   0.061475673   -1.2280361      0.11129678    -1.0245378      0.0013827339 
   4291000   0.061481313   -1.2363579      0.1119481     -1.0321997      0.0075937808 
   4292000   0.061132721   -1.2428701      0.11104177    -1.040141       0.0045300067 
   4293000   0.06034711    -1.2283209      0.11062375    -1.0271882     -0.0043043542 
   4294000   0.061787349   -1.2310232      0.11032583    -1.0280283     -0.0058553059 
   4295000   0.061265399   -1.2300798      0.11008359    -1.0281099      0.014851357  
   4296000   0.06067583    -1.2369092      0.11099238    -1.0349149      0.0025069769 
   4297000   0.061347036   -1.2203275      0.11074387    -1.0175749      0.018722323  
   4298000   0.059926952   -1.2190511      0.11170171    -1.0174705      0.011335429  
   4299000   0.061849734   -1.2505727      0.10843482    -1.0493753      0.018300664  
   4300000   0.060714684   -1.238196       0.1113344     -1.0358013      0.014635165  
   4301000   0.060817128   -1.2364202      0.11094214    -1.0342642     -0.017485056  
   4302000   0.060141193   -1.2291228      0.11213294    -1.0267897      0.019963948  
   4303000   0.061325061   -1.2335404      0.11011981    -1.0314448     -0.0033522396 
   4304000   0.060838936   -1.2468086      0.1106339     -1.0449281      0.013953842  
   4305000   0.060546177   -1.2266079      0.1111574     -1.0246429      0.02182407   
   4306000   0.060867847   -1.2401824      0.11090454    -1.0379879      0.0089894971 
   4307000   0.060919564   -1.2306298      0.11168633    -1.0275759      0.023824021  
   4308000   0.061478485   -1.2305204      0.11027079    -1.0280438     -0.001213531  
   4309000   0.06145253    -1.23461        0.10974449    -1.0326986      0.0053502779 
   4310000   0.060840331   -1.2248549      0.10953455    -1.0240716      0.029674072  
   4311000   0.061695606   -1.2262079      0.11187385    -1.0218026      0.00023974548
   4312000   0.060964046   -1.2252377      0.11337935    -1.0204241     -0.0081352046 
   4313000   0.060810763   -1.2320302      0.11107743    -1.0297484      0.013631062  
   4314000   0.061659849   -1.2272213      0.11309041    -1.021653       0.0091222371 
   4315000   0.060484708   -1.2274287      0.11182808    -1.0248852      0.0093484688 
   4316000   0.060398237   -1.2389429      0.11271465    -1.0356425     -0.01476796   
   4317000   0.061507692   -1.2301844      0.11166053    -1.0262742     -0.00033154064
   4318000   0.061862648   -1.2281443      0.11125911    -1.0241032     -0.0046912225 
   4319000   0.061600345   -1.2352857      0.11287514    -1.030022       0.00076940552
   4320000   0.060743236   -1.2167032      0.11085989    -1.0147402     -0.015623634  
   4321000   0.061202936   -1.2336706      0.11152362    -1.0303544     -0.0098792447 
   4322000   0.060296424   -1.234673       0.11283391    -1.0314062     -0.0072519687 
   4323000   0.061043306   -1.2292483      0.1126089     -1.0250863     -0.0031204187 
   4324000   0.061625627   -1.2312124      0.11283558    -1.0259503     -0.0094922844 
   4325000   0.061193961   -1.2325838      0.11326482    -1.0275398     -0.0093673426 
   4326000   0.061275843   -1.2215405      0.11234668    -1.0172919      0.006039002  
   4327000   0.060865951   -1.2284128      0.11153641    -1.0255892      0.0048838057 
   4328000   0.060897991   -1.219788       0.11285804    -1.0155947     -0.0011957536 
   4329000   0.060546646   -1.2277203      0.11105631    -1.0258557     -0.0040216255 
   4330000   0.061419738   -1.2394185      0.11292534    -1.0343754      0.01469271   
   4331000   0.060913553   -1.235078       0.11312349    -1.030596       0.026398041  
   4332000   0.060432194   -1.2273938      0.11220602    -1.0245512     -7.1037294e-05
   4333000   0.061811317   -1.2292491      0.10924587    -1.0272983      0.0088440487 
   4334000   0.060514985   -1.2203123      0.11274571    -1.0168058      0.010979385  
   4335000   0.062045353   -1.2231271      0.11175588    -1.0183152      0.014031273  
   4336000   0.061028295   -1.2219488      0.11238758    -1.0180306      0.022637997  
   4337000   0.061541162   -1.2458633      0.11083585    -1.0427276     -0.013183259  
   4338000   0.061030358   -1.2444625      0.11139444    -1.0415343      0.028349494  
   4339000   0.062301362   -1.2269976      0.11383432    -1.0197233      0.013390209  
   4340000   0.060943725   -1.2243983      0.1117766     -1.0212179      0.010157554  
   4341000   0.061153614   -1.2324373      0.11219138    -1.0285273     -0.0066666785 
   4342000   0.060752183   -1.2276159      0.11510763    -1.0213917     -0.0063385203 
   4343000   0.062017391   -1.2433335      0.11395891    -1.0363605      0.0030542333 
   4344000   0.061570382   -1.2305413      0.11429301    -1.0239046      0.00019386875
   4345000   0.0605946     -1.2293236      0.11166634    -1.0267771      0.018616605  
   4346000   0.061323766   -1.2339082      0.11259918    -1.0293352     -0.017353647  
   4347000   0.061636739   -1.2297359      0.11316349    -1.0241292     -0.0049490497 
   4348000   0.061913949   -1.2261894      0.11219104    -1.0211394      0.012376216  
   4349000   0.061801816   -1.2347466      0.11191004    -1.0301458      0.013627339  
   4350000   0.060370343   -1.2373186      0.11127611    -1.0354986      0.011090949  
   4351000   0.061012118   -1.2332789      0.11239745    -1.0293751      0.0038570736 
   4352000   0.060486696   -1.2400045      0.11322967    -1.0360565      0.02190265   
   4353000   0.060136066   -1.2311301      0.11293514    -1.0280025     -0.0045012667 
   4354000   0.059988966   -1.2434209      0.11300313    -1.0404459      0.020182144  
   4355000   0.061914799   -1.2210488      0.11205463    -1.016134      -0.016359858  
   4356000   0.061906627   -1.2356033      0.11352357    -1.0292318      0.0080100614 
   4357000   0.061594871   -1.2314206      0.11251376    -1.0265265     -0.024176854  
   4358000   0.061632532   -1.2423298      0.11272538    -1.0371676      0.021664447  
   4359000   0.060083597   -1.2288497      0.11127892    -1.027457       0.013214717  
   4360000   0.059401116   -1.2258789      0.11118331    -1.0256054      0.041837063  
   4361000   0.061466759   -1.2396622      0.11256104    -1.0349129      0.0051108997 
   4362000   0.061801485   -1.2316283      0.11259729    -1.0263408      0.044706374  
   4363000   0.061255345   -1.2345742      0.11317683    -1.0295262      0.013809375  
   4364000   0.06070027    -1.2267919      0.11415676    -1.0215964      0.024639298  
   4365000   0.060989945   -1.2214659      0.11247771    -1.0175151      0.035795583  
   4366000   0.062109734   -1.2343361      0.11254733    -1.0286362      0.032055321  
   4367000   0.060863344   -1.2434079      0.11136702    -1.0407576      0.008361332  
   4368000   0.060466643   -1.2435797      0.11419406    -1.0386974     -0.004055664  
   4369000   0.060799751   -1.2195098      0.11257144    -1.0157505      0.036253786  
   4370000   0.060931968   -1.2307888      0.11352391    -1.0258788     -0.0026803338 
   4371000   0.061727835   -1.2278255      0.11421083    -1.0210348      0.041878168  
   4372000   0.060951621   -1.2311316      0.11337312    -1.0263428      0.0012257331 
   4373000   0.061115275   -1.2315682      0.11152373    -1.0283834      0.034933893  
   4374000   0.060180886   -1.2313674      0.11330849    -1.0277992      0.027948248  
   4375000   0.061510384   -1.2353693      0.11409971    -1.0290159      0.012174455  
   4376000   0.061256705   -1.2399364      0.11484337    -1.0332199     -0.011324815  
   4377000   0.061620338   -1.2191924      0.11370646    -1.0130673     -0.0091064703 
   4378000   0.060938064   -1.2406505      0.11490238    -1.0343528      0.019215774  
   4379000   0.060757908   -1.241646       0.1142254     -1.0362955     -0.011220787  
   4380000   0.060217929   -1.2267637      0.11380617    -1.0226423     -0.0069672298 
   4381000   0.061627974   -1.2266152      0.11499091    -1.0191943     -0.0002702732 
   4382000   0.060857681   -1.2385227      0.11412849    -1.0331194     -0.016564259  
   4383000   0.061209964   -1.2292427      0.11246251    -1.0249771      0.013048437  
   4384000   0.06206456    -1.2462571      0.11305313    -1.0401192      0.013008859  
   4385000   0.061654151   -1.2321892      0.11329414    -1.0264257      0.03068648   
   4386000   0.061750496   -1.2276064      0.11346616    -1.0215264      0.0263447    
   4387000   0.061756238   -1.2478645      0.11412863    -1.0411135      0.0042342631 
   4388000   0.061725113   -1.2354309      0.11331191    -1.0295432      0.0083276659 
   4389000   0.061845846   -1.2300291      0.11376467    -1.0235076      0.038606075  
   4390000   0.061257767   -1.2305605      0.11395574    -1.0247299      0.027702279  
   4391000   0.061275774   -1.2309612      0.11147562    -1.0275838      0.0089135504 
   4392000   0.061192687   -1.2349182      0.11245181    -1.0306892      0.013816005  
   4393000   0.060744037   -1.2272174      0.11366511    -1.022448       0.0064631028 
   4394000   0.060037279   -1.2275941      0.11236288    -1.0251869      0.030645654  
   4395000   0.061324632   -1.2344924      0.11440853    -1.0281088      0.0080506046 
   4396000   0.060674825   -1.2333883      0.11312548    -1.0292623      0.0079838146 
   4397000   0.061049782   -1.2258451      0.11311065    -1.0211716      0.02552097   
   4398000   0.061325196   -1.2384233      0.11459587    -1.0318516      0.0017255674 
   4399000   0.061695426   -1.2369242      0.11348381    -1.0309092      0.028367727  
   4400000   0.062251805   -1.2322455      0.11353416    -1.0253457      0.0059040325 
   4401000   0.06085672    -1.2425712      0.11197094    -1.039327       0.020545068  
   4402000   0.061515224   -1.2293114      0.11227142    -1.0247791      0.028272827  
   4403000   0.060666969   -1.2421959      0.11505072    -1.0361565      0.017186597  
   4404000   0.060610061   -1.2356052      0.11301677    -1.031685       0.038746276  
   4405000   0.061596384   -1.2275874      0.11443776    -1.020767       0.03654527   
   4406000   0.06085753    -1.2272366      0.11203127    -1.0239309      0.017082073  
   4407000   0.061504361   -1.2190078      0.11239585    -1.0143673      0.025725691  
   4408000   0.06150218    -1.2328241      0.113441      -1.0271417      0.015751355  
   4409000   0.061912764   -1.2287384      0.11280157    -1.0230796      0.021912124  
   4410000   0.062119168   -1.2353571      0.11254628    -1.0296441      0.0064000178 
   4411000   0.062145814   -1.2266357      0.1142219     -1.0192071      0.021799851  
   4412000   0.061034275   -1.2500131      0.11185334    -1.0466202      0.037277875  
   4413000   0.061048134   -1.2251228      0.11251886    -1.0210435      0.027634883  
   4414000   0.061960449   -1.2312022      0.1138528     -1.0244208      0.02874307   
   4415000   0.061769028   -1.2424098      0.11348169    -1.0362865      0.025185777  
   4416000   0.060134828   -1.2381069      0.11339615    -1.0345202      0.02982786   
   4417000   0.060690503   -1.2304204      0.11235271    -1.0270437      0.031568821  
   4418000   0.06253579    -1.2527284      0.11457427    -1.0443625      0.060586416  
   4419000   0.061911864   -1.2547478      0.11180161    -1.0500904      0.042096267  
   4420000   0.06121862    -1.2375575      0.11346177    -1.0322797      0.047514509  
   4421000   0.062125049   -1.2365428      0.11310927    -1.030258       0.024896853  
   4422000   0.061068825   -1.2302696      0.11347706    -1.0252011      0.024414851  
   4423000   0.062207604   -1.2250227      0.11242291    -1.0193004      0.041685842  
   4424000   0.061485726   -1.2372291      0.11394415    -1.0310683      0.019455672  
   4425000   0.062405586   -1.2252918      0.11207705    -1.0196185      0.031106997  
   4426000   0.060863837   -1.2384081      0.113026      -1.0340981      0.018249051  
   4427000   0.06150255    -1.2362702      0.11669903    -1.0273292      0.0029253227 
   4428000   0.06196546    -1.2369915      0.11308529    -1.03097        0.0081464361 
   4429000   0.061223266   -1.2385207      0.11428864    -1.032409       0.028030707  
   4430000   0.061282659   -1.2393763      0.11255814    -1.034906       0.046677802  
   4431000   0.060755759   -1.2468385      0.11399156    -1.0417251      0.0061166484 
   4432000   0.061779066   -1.2378551      0.11293938    -1.032259       0.0445589    
   4433000   0.061024734   -1.2357646      0.11281381    -1.0314255      0.02949131   
   4434000   0.061682268   -1.2353421      0.11361309    -1.0292175      0.015853436  
   4435000   0.061734582   -1.2248232      0.11510673    -1.0171265      0.0062314119 
   4436000   0.061782358   -1.240791       0.11407345    -1.034056       0.017150171  
   4437000   0.06130443    -1.2416455      0.11288768    -1.036813       0.056669267  
   4438000   0.06086159    -1.2336396      0.11390211    -1.0284569      0.023509969  
   4439000   0.062097948   -1.2249654      0.11347164    -1.0183588      0.0055810031 
   4440000   0.061404923   -1.2385261      0.11456479    -1.0318658      0.00068936688
   4441000   0.06235214    -1.2313657      0.11298715    -1.0248624      0.015460248  
   4442000   0.062435076   -1.2363171      0.1147799     -1.0278967      0.020923214  
   4443000   0.061299287   -1.2463206      0.11290964    -1.0414739      0.037330766  
   4444000   0.061152754   -1.226973       0.11308373    -1.0221719     -0.0026620593 
   4445000   0.061823678   -1.2395523      0.11499346    -1.0318353      0.00026339575
   4446000   0.061109842   -1.2436534      0.1139634     -1.038037      -0.0035403204 
   4447000   0.061613731   -1.2463582      0.11346933    -1.0404802      0.018549562  
   4448000   0.061582308   -1.2275412      0.11433352    -1.0208461     -0.018034782  
   4449000   0.061372399   -1.2222145      0.11271106    -1.0174568      0.018467573  
   4450000   0.061574047   -1.2427177      0.11274804    -1.0376205      0.0081049035 
   4451000   0.061711944   -1.2353135      0.11108477    -1.0316727      0.0036885735 
   4452000   0.061639419   -1.2416135      0.11505774    -1.0341085      0.014381799  
   4453000   0.061360733   -1.2278998      0.11500264    -1.020868       0.02006669   
   4454000   0.061798052   -1.2296674      0.11557415    -1.0214081      0.03019436   
   4455000   0.060963817   -1.2366875      0.11403084    -1.0312227      0.022340676  
   4456000   0.060649458   -1.2519989      0.11361238    -1.0474241      0.0013041552 
   4457000   0.060268549   -1.2342486      0.11268279    -1.0311747      0.00594504   
   4458000   0.061155947   -1.2364771      0.1131292     -1.0316258      0.0046698785 
   4459000   0.061274158   -1.2253576      0.11499872    -1.0184595     -0.021898543  
   4460000   0.060683851   -1.227744       0.11378114    -1.0229488      0.0071876875 
   4461000   0.060921906   -1.2201933      0.11297637    -1.0158459      0.031862303  
   4462000   0.061391239   -1.2333257      0.11409885    -1.0271518      0.00026757262
   4463000   0.060957254   -1.2387827      0.11384437    -1.0335143      0.02123041   
   4464000   0.061620341   -1.234959       0.11445312    -1.0280873     -0.010711763  
   4465000   0.061890388   -1.2394288      0.11572871    -1.0308764      0.021863747  
   4466000   0.060129657   -1.2282101      0.11345757    -1.0245697     -0.011168463  
   4467000   0.060543863   -1.2353961      0.11344303    -1.031149       0.012090679  
   4468000   0.062099862   -1.2332083      0.11288954    -1.027181      -0.010359402  
   4469000   0.060758912   -1.2289722      0.1155066     -1.022339       0.024839757  
   4470000   0.061155513   -1.2239725      0.11457238    -1.0176786      0.017528466  
   4471000   0.060639559   -1.2317062      0.11374794    -1.0270107      0.013067142  
   4472000   0.060580402   -1.2251846      0.1145968     -1.019729      -0.009375834  
   4473000   0.061876987   -1.2325241      0.1150024     -1.0247182      0.023787274  
   4474000   0.06089675    -1.2385226      0.1148886     -1.0323006      0.015941605  
   4475000   0.060304265   -1.2284182      0.11368395    -1.0242895      0.0036909541 
   4476000   0.060790706   -1.2254379      0.11495663    -1.0193069      0.0095388539 
   4477000   0.061130775   -1.2360542      0.11339636    -1.0309735      0.019930332  
   4478000   0.060324921   -1.2262313      0.11368332    -1.0220723      0.028517143  
   4479000   0.061414478   -1.2285661      0.11399947    -1.0224568      0.024953585  
   4480000   0.061544927   -1.2405391      0.11483398    -1.0333997      0.026305281  
   4481000   0.061239951   -1.2135513      0.11499399    -1.0067093      0.024975166  
   4482000   0.061178223   -1.2329279      0.11459019    -1.0265822      0.012330506  
   4483000   0.061619008   -1.2370246      0.11413695    -1.030471       0.026446156  
   4484000   0.061677067   -1.2299403      0.11468975    -1.0227469     -0.0022363776 
   4485000   0.060926513   -1.2340621      0.11546137    -1.0272227     -0.00049612751
   4486000   0.06129988    -1.2422598      0.11536006    -1.0349618      0.009247025  
   4487000   0.06238329    -1.2443404      0.11356096    -1.0372166     -0.0047334413 
   4488000   0.0615214     -1.2331993      0.11572071    -1.0252084      0.0042246405 
   4489000   0.061483931   -1.2372543      0.11386193    -1.0311784     -0.0034310996 
   4490000   0.06089772    -1.2353603      0.11292846    -1.031097       0.0048689846 
   4491000   0.06212062    -1.2350956      0.11436972    -1.0275569     -0.0063528965 
   4492000   0.06173186    -1.2472851      0.11348338    -1.0412159      0.011110191  
   4493000   0.059935359   -1.2365875      0.11433456    -1.0323615     -0.0057556061 
   4494000   0.060051419   -1.230805       0.11429878    -1.0264408     -0.0033080905 
   4495000   0.06065338    -1.2295619      0.11447428    -1.0241193     -0.013864287  
   4496000   0.060609988   -1.2164907      0.11305717    -1.0125303      0.015088606  
   4497000   0.060373327   -1.2255826      0.1138251     -1.0212092      0.026033691  
   4498000   0.061150508   -1.245505       0.11297011    -1.0408209      0.0077555351 
   4499000   0.061598306   -1.2426878      0.11576445    -1.0345378      0.0073838068 
   4500000   0.06166591    -1.2463693      0.11568046    -1.0382019      0.033641572  
   4501000   0.060574616   -1.2382687      0.1151105     -1.032308      -0.015519454  
   4502000   0.060516218   -1.232861       0.11390166    -1.0281967      0.0042062945 
   4503000   0.060730089   -1.2338119      0.11373511    -1.0289934      0.019106817  
   4504000   0.060873892   -1.2373081      0.11605678    -1.0299522      0.013996026  
   4505000   0.061156254   -1.2405276      0.11284712    -1.0359579      0.00010486276
   4506000   0.060617506   -1.2285847      0.11525354    -1.0224167      0.026674569  
   4507000   0.061725775   -1.232772       0.11477966    -1.0254156      0.030818812  
   4508000   0.060213108   -1.2336852      0.11373949    -1.0296377      0.025510576  
   4509000   0.061167039   -1.2424529      0.11256305    -1.0381511      0.017179347  
   4510000   0.061232681   -1.2298744      0.11415069    -1.0238866      0.012821736  
   4511000   0.061695826   -1.2407326      0.11296112    -1.0352397      0.044326276  
   4512000   0.060696057   -1.2285651      0.11511216    -1.0224206      0.0099096377 
   4513000   0.060485278   -1.2419387      0.11356362    -1.0376589     -0.0075770107 
   4514000   0.060946542   -1.2380156      0.113884      -1.0327236      0.017591389  
   4515000   0.06170084    -1.2395589      0.11243386    -1.0345858      0.016628275  
   4516000   0.061846405   -1.2341066      0.11355891    -1.02779        0.022011826  
   4517000   0.060813337   -1.2491436      0.11388332    -1.0440521      0.025367108  
   4518000   0.061021998   -1.236334       0.11299772    -1.0318151      0.030975268  
   4519000   0.06266472    -1.2375878      0.11580962    -1.0277932     -0.0106095    
   4520000   0.061721482   -1.2439318      0.11294388    -1.0384176      0.0093890586 
   4521000   0.061432662   -1.2406904      0.1151342     -1.0334191     -0.014853419  
   4522000   0.061017219   -1.2370826      0.11475674    -1.0308118      0.0074502471 
   4523000   0.061148869   -1.2356371      0.11623773    -1.0276879      0.0066999644 
   4524000   0.061335827   -1.2292851      0.11410326    -1.02319       -0.0021056428 
   4525000   0.061895952   -1.2429028      0.11598763    -1.0340832      0.02401922   
   4526000   0.061543762   -1.2372697      0.11613511    -1.0288308      0.018656698  
   4527000   0.061598437   -1.2296764      0.11531303    -1.0219776     -0.00763447   
   4528000   0.06143704    -1.2243288      0.11651691    -1.0156682     -0.0014098785 
   4529000   0.061621515   -1.2331262      0.11406437    -1.0266415      0.017405081  
   4530000   0.06220917    -1.2371072      0.1148338     -1.0289717      0.011822324  
   4531000   0.061302094   -1.2415453      0.11481554    -1.0347885      0.015731804  
   4532000   0.060801762   -1.2251135      0.11632975    -1.0175929      0.023603888  
   4533000   0.061023248   -1.2414003      0.11557954    -1.0342977      0.001965621  
   4534000   0.060384725   -1.2392673      0.11537955    -1.0333223     -0.028455265  
   4535000   0.060509361   -1.2358903      0.11525611    -1.0298819     -0.013277914  
   4536000   0.061353897   -1.2334073      0.11667728    -1.024711       0.012465956  
   4537000   0.061929086   -1.250565       0.1147461     -1.0429373     -0.02567603   
   4538000   0.062101871   -1.2313205      0.11549051    -1.0226892     -0.0057262355 
   4539000   0.061259233   -1.2451092      0.11296812    -1.0402641      0.011899173  
   4540000   0.061102975   -1.238153       0.11413805    -1.0323723     -0.040965148  
   4541000   0.061092513   -1.2328504      0.11322084    -1.0280026     -0.0094975242 
   4542000   0.061433356   -1.2384735      0.11531933    -1.0310161     -0.016923695  
   4543000   0.060955017   -1.2391715      0.11591924    -1.0318315     -0.015401499  
   4544000   0.060672694   -1.2226373      0.11421601    -1.017424      -0.015701561  
   4545000   0.061547031   -1.2409773      0.11556398    -1.0331047      0.0007519984 
   4546000   0.062381739   -1.2325103      0.11619888    -1.0227509     -0.0095406077 
   4547000   0.061211435   -1.2314523      0.11422267    -1.0254243      0.010405139  
   4548000   0.060508877   -1.2372253      0.11556339    -1.0309103      0.015258396  
   4549000   0.060812777   -1.2371546      0.11390622    -1.032041      -0.0067225536 
   4550000   0.061137324   -1.2371517      0.11345647    -1.032001      -0.0022939949 
   4551000   0.06076891    -1.2389523      0.11368816    -1.0341225     -0.0094162522 
   4552000   0.06194556    -1.2353187      0.11443596    -1.0279764      0.005603013  
   4553000   0.061202038   -1.2276523      0.11363771    -1.0222234      0.015808351  
   4554000   0.060663751   -1.2504679      0.11606504    -1.0434189      0.016416446  
   4555000   0.061110769   -1.2395445      0.11271803    -1.0351722      0.0083845687 
   4556000   0.061320304   -1.2391596      0.11360228    -1.0335888     -0.0030689587 
   4557000   0.060334694   -1.2376477      0.11251083    -1.0346465      0.013847041  
   4558000   0.060576623   -1.2370834      0.11388925    -1.0323409      0.0025929381 
   4559000   0.061324956   -1.2427204      0.11428691    -1.036458       0.012979285  
   4560000   0.06038733    -1.2335285      0.11369017    -1.029269       0.0057050182 
   4561000   0.060037123   -1.2392376      0.11455101    -1.0346425     -0.031506514  
   4562000   0.060736705   -1.2381647      0.11336454    -1.0337069     -0.036549664  
   4563000   0.062016055   -1.2332516      0.11492376    -1.0253158     -0.028653274  
   4564000   0.060903064   -1.2635932      0.11452839    -1.057722       0.018452316  
   4565000   0.061728647   -1.2334234      0.1148132     -1.0260292     -0.0069346869 
   4566000   0.061887609   -1.232182       0.11391255    -1.02545        0.0038251652 
   4567000   0.061451865   -1.2325699      0.11464164    -1.0257623     -0.019864836  
   4568000   0.061308173   -1.2262965      0.11433161    -1.0200145     -0.0034948289 
   4569000   0.061415582   -1.2265576      0.11379223    -1.0206539      0.0038364757 
   4570000   0.061041768   -1.2359876      0.11352594    -1.0309108     -0.015969428  
   4571000   0.062198051   -1.2324457      0.11532167    -1.023839       0.0060757402 
   4572000   0.061805144   -1.2380168      0.11440659    -1.0309145     -0.0095201526 
   4573000   0.060327152   -1.2342563      0.11230157    -1.0314757     -0.0094623092 
   4574000   0.060644828   -1.2318902      0.11466005    -1.0262747      0.0097413822 
   4575000   0.06004042    -1.2354943      0.11585581    -1.0295895     -0.0056392718 
   4576000   0.060992096   -1.228343       0.11233789    -1.0245288      0.019203963  
   4577000   0.060340072   -1.2326828      0.11383519    -1.0283492      0.011273666  
   4578000   0.061347776   -1.231918       0.11339311    -1.0265151      0.0028744576 
   4579000   0.060954636   -1.2362097      0.11522917    -1.0295604     -0.003166472  
   4580000   0.061318843   -1.2318133      0.11440834    -1.0254385     -0.006105901  
   4581000   0.061469912   -1.2165727      0.11455506    -1.0098247      0.0042110201 
   4582000   0.061070727   -1.2426265      0.11509768    -1.0359345     -0.011971549  
   4583000   0.060533317   -1.2416281      0.11382784    -1.037012       0.012287228  
   4584000   0.061619603   -1.2351856      0.11359012    -1.029178      -0.021772735  
   4585000   0.061284608   -1.2395141      0.11501696    -1.0325821      0.0051919023 
   4586000   0.0612382     -1.2426182      0.11396106    -1.0368116     -0.0034644862 
   4587000   0.061383218   -1.2437712      0.11405875    -1.0376495      0.019832752  
   4588000   0.061021407   -1.2447061      0.11516265    -1.0380231      0.00073367654
   4589000   0.061482824   -1.2316452      0.11464293    -1.02479        0.014250176  
   4590000   0.061441189   -1.2409922      0.1117655     -1.0370768     -0.001530518  
   4591000   0.061488349   -1.2329477      0.11300596    -1.0277211      0.0018048018 
   4592000   0.060417219   -1.2353425      0.11598077    -1.0287476     -0.00085592313
   4593000   0.060944406   -1.2314562      0.11347754    -1.0265738      0.032413601  
   4594000   0.060937503   -1.2445191      0.11419274    -1.0389319      0.010964719  
   4595000   0.061531383   -1.2343786      0.11329494    -1.0287985      0.028025267  
   4596000   0.060683368   -1.2358867      0.11379093    -1.0310825      0.016577869  
   4597000   0.060665812   -1.2373835      0.11384625    -1.0325503      0.01233703   
   4598000   0.060887564   -1.2334214      0.11284552    -1.0292563     -0.0057961505 
   4599000   0.061557925   -1.2337648      0.11419728    -1.0272426     -0.0075913195 
   4600000   0.06229352    -1.2311941      0.11345147    -1.0243144     -0.0077782173 
   4601000   0.061223729   -1.241844       0.11469499    -1.0353253      0.016040965  
   4602000   0.061105436   -1.2255329      0.1142906     -1.019596      -0.0091389871 
   4603000   0.061258693   -1.2361503      0.11426349    -1.0300106     -0.012015798  
   4604000   0.060881868   -1.2375212      0.11327146    -1.0329387      0.010554663  
   4605000   0.061726651   -1.2385105      0.11433383    -1.0315987     -0.012458838  
   4606000   0.061826111   -1.2291612      0.11497456    -1.0214594     -0.010500498  
   4607000   0.061467157   -1.2249351      0.11544773    -1.0172985     -0.0009722344 
   4608000   0.060271581   -1.2325552      0.11421349    -1.027946      -0.0056357542 
   4609000   0.06001408    -1.2363379      0.1131351     -1.0331933     -0.0066666318 
   4610000   0.060502558   -1.23672        0.11424664    -1.0317312      0.006090811  
   4611000   0.060112114   -1.2488907      0.1128376     -1.0458966      0.027490462  
   4612000   0.06023246    -1.2342499      0.11575775    -1.0281551     -0.0032995686 
   4613000   0.060383891   -1.2323445      0.11420179    -1.0275785     -0.022899166  
   4614000   0.060233797   -1.2372359      0.11506483    -1.0318321      0.0010002813 
   4615000   0.06067171    -1.2414688      0.11384259    -1.0366304      0.0063603152 
   4616000   0.060523385   -1.2384715      0.11465804    -1.0330401     -0.012250557  
   4617000   0.060588086   -1.2333888      0.11567395    -1.0268445     -0.035405645  
   4618000   0.061096322   -1.2296826      0.11513707    -1.0229128     -0.016828901  
   4619000   0.06112828    -1.2317945      0.11441593    -1.025698      -0.016642896  
   4620000   0.061914528   -1.2414613      0.11460916    -1.0339923     -0.020932903  
   4621000   0.0611951     -1.2459495      0.11309442    -1.0410742      0.0087300657 
   4622000   0.062514408   -1.239931       0.11617009    -1.0300014     -0.0054447562 
   4623000   0.06222648    -1.2373792      0.11640452    -1.027647      -0.019225461  
   4624000   0.061607786   -1.2363189      0.11452099    -1.0293981     -0.010197477  
   4625000   0.06092621    -1.2420004      0.1149346     -1.0356882      0.0150957    
   4626000   0.061213133   -1.2278717      0.11477497    -1.0212889     -0.0078230148 
   4627000   0.060785923   -1.2398316      0.11423706    -1.0344275      0.011661265  
   4628000   0.06058464    -1.2375791      0.11530272    -1.0314112     -0.014214777  
   4629000   0.06158201    -1.2448005      0.11460007    -1.0378394     -0.0063627664 
   4630000   0.06131053    -1.2359496      0.11203936    -1.0319563     -0.0079052356 
   4631000   0.060640864   -1.2251026      0.11415653    -1.0199965     -0.016288765  
   4632000   0.06121227    -1.2434111      0.11489269    -1.0367119     -0.0036886304 
   4633000   0.060776676   -1.2350095      0.11565145    -1.0282048     -0.015939227  
   4634000   0.061006594   -1.2391307      0.11485542    -1.0327772      0.0079941326 
   4635000   0.062199334   -1.2363408      0.11437609    -1.0286777     -0.0041775317 
   4636000   0.061940346   -1.2384593      0.11296619    -1.0325946      0.0046824017 
   4637000   0.060515633   -1.2380657      0.11462687    -1.0326771     -0.018031302  
   4638000   0.061417247   -1.2339856      0.1139962     -1.0278754     -0.019622886  
   4639000   0.060996311   -1.2281221      0.113678      -1.0229614     -0.022292029  
   4640000   0.061351892   -1.2207858      0.11464198    -1.0141278     -0.054652766  
   4641000   0.060024371   -1.2330619      0.11456086    -1.0284761      0.013448096  
   4642000   0.061684608   -1.2392754      0.11273418    -1.0340262     -0.038895723  
   4643000   0.06120854    -1.2285558      0.11422322    -1.0225316     -0.023571494  
   4644000   0.061584887   -1.2337768      0.1153161     -1.0260952     -0.012247124  
   4645000   0.061754975   -1.2349189      0.11576709    -1.0265313     -0.033470412  
   4646000   0.061685359   -1.2364196      0.11479405    -1.0291095      0.00042150917
   4647000   0.06143529    -1.2402447      0.11489878    -1.0332049     -0.026408693  
   4648000   0.061614621   -1.2329606      0.11418877    -1.0263618     -0.029527389  
   4649000   0.060144106   -1.2365144      0.11675998    -1.0295499     -0.031570282  
   4650000   0.061002904   -1.2356353      0.11580935    -1.0283334     -0.010231963  
   4651000   0.061039869   -1.2336746      0.11605769    -1.0260689     -0.027328077  
   4652000   0.061459416   -1.2346632      0.11438582    -1.0281002     -0.0040089478 
   4653000   0.06131132    -1.2244294      0.11394513    -1.0185292     -0.014047394  
   4654000   0.0609567     -1.2316865      0.11469552    -1.0255678     -0.022595337  
   4655000   0.060604419   -1.2389715      0.1149987     -1.0330779     -0.021163212  
   4656000   0.061002519   -1.246016       0.11349185    -1.0410322     -0.029884619  
   4657000   0.06075968    -1.2383891      0.11437176    -1.0328896      0.013708321  
   4658000   0.06037734    -1.2238674      0.11583553    -1.0174775     -0.03055638   
   4659000   0.060586144   -1.2173227      0.11697212    -1.0094831     -0.024066015  
   4660000   0.060431003   -1.2391948      0.11750428    -1.0310558     -0.032722584  
   4661000   0.060863085   -1.2269935      0.1159301     -1.0197805     -0.032275245  
   4662000   0.060906152   -1.2334721      0.11522036    -1.0269043     -0.014691706  
   4663000   0.060840074   -1.2415826      0.11488073    -1.0354536     -0.014645399  
   4664000   0.062053771   -1.2304093      0.11685277    -1.0204879     -0.030488683  
   4665000   0.06132173    -1.2350825      0.11518854    -1.0279233     -0.026573681  
   4666000   0.060891969   -1.2358488      0.11620933    -1.0283133     -0.070056548  
   4667000   0.060423994   -1.2391322      0.11647588    -1.032032      -0.009686502  
   4668000   0.06125959    -1.2391868      0.11329798    -1.0340113     -0.015311059  
   4669000   0.062089703   -1.2393732      0.11489249    -1.0313582     -0.033780726  
   4670000   0.061356755   -1.2324531      0.11436386    -1.0260659     -0.047000077  
   4671000   0.060805956   -1.2263541      0.11416443    -1.0209925     -0.017873417  
   4672000   0.059971557   -1.2365704      0.11345675    -1.0331679     -0.03454457   
   4673000   0.061058061   -1.2314882      0.11506505    -1.0248479     -0.046940708  
   4674000   0.060951531   -1.2275916      0.11463913    -1.0215369     -0.024846997  
   4675000   0.061244907   -1.2234511      0.11489561    -1.0167        -0.0097491954 
   4676000   0.061118034   -1.2320848      0.11505931    -1.0253602     -0.025185182  
   4677000   0.061292619   -1.2504808      0.11581046    -1.0427432     -0.019396715  
   4678000   0.060656639   -1.2384716      0.11485845    -1.0326399     -0.019007274  
   4679000   0.060834065   -1.2285318      0.11527577    -1.0220167     -0.050492476  
   4680000   0.060509703   -1.2427567      0.11491158    -1.0370923     -0.021261375  
   4681000   0.062227232   -1.2432514      0.11527701    -1.0346456     -0.035133668  
   4682000   0.061141625   -1.2306123      0.11726212    -1.0216496     -0.031495946  
   4683000   0.061320662   -1.2279384      0.11608647    -1.0198828     -0.031723092  
   4684000   0.061615537   -1.2365846      0.11514023    -1.029033      -0.015833951  
   4685000   0.062008832   -1.2401018      0.1135938     -1.0335068     -0.043157918  
   4686000   0.061596755   -1.2313592      0.11562793    -1.0233481     -6.249729e-05 
   4687000   0.061053103   -1.2364281      0.11624157    -1.0286187     -0.033541388  
   4688000   0.060682185   -1.238499       0.11485575    -1.0326317     -0.034857415  
   4689000   0.060595219   -1.2211456      0.11466459    -1.0155999     -0.036305516  
   4690000   0.060942132   -1.2423952      0.11667423    -1.0343195     -0.023076844  
   4691000   0.060861962   -1.2329529      0.11453122    -1.0271405     -0.018739656  
   4692000   0.061186802   -1.2285826      0.112911      -1.0239032      0.00042935128
   4693000   0.061757935   -1.2293885      0.11549295    -1.0212706     -0.0075586936 
   4694000   0.061745473   -1.2259682      0.11428206    -1.0190799     -0.026023698  
   4695000   0.060581622   -1.2357208      0.11596348    -1.0288966     -0.03110962   
   4696000   0.061799629   -1.2286006      0.11452697    -1.0213861     -0.041445037  
   4697000   0.059597614   -1.235017       0.11762217    -1.02801       -0.010482842  
   4698000   0.060911053   -1.2292126      0.11495822    -1.0228996     -0.021642198  
   4699000   0.059971313   -1.2426325      0.11617435    -1.0365128     -0.024093598  
   4700000   0.060972974   -1.2483089      0.11535029    -1.041511      -0.017815189  
   4701000   0.061949561   -1.227232       0.1141739     -1.0201458     -0.028791441  
   4702000   0.060397584   -1.2347602      0.11604133    -1.0281342     -0.053603997  
   4703000   0.061352376   -1.2372284      0.11491882    -1.0302928     -0.0040555186 
   4704000   0.061319093   -1.2384203      0.11630635    -1.0301472     -0.023483607  
   4705000   0.061215095   -1.2482503      0.11661331    -1.0398262     -0.043178071  
   4706000   0.062522443   -1.2274967      0.11668354    -1.0170416     -0.019752688  
   4707000   0.061010026   -1.2435441      0.11532095    -1.0367199     -0.027513837  
   4708000   0.061113425   -1.237133       0.11497002    -1.0305047     -0.026975375  
   4709000   0.060675024   -1.2324282      0.11493593    -1.0264915     -0.013694594  
   4710000   0.06126252    -1.2313906      0.11652207    -1.0229866     -0.013429695  
   4711000   0.062853226   -1.2441579      0.11471494    -1.0351753      0.001889415  
   4712000   0.061782145   -1.2420939      0.11446965    -1.0349629     -0.008360848  
   4713000   0.06096565    -1.2366295      0.11566517    -1.0295277     -0.038530383  
   4714000   0.060987889   -1.239086       0.11525852    -1.0323574     -0.051145699  
   4715000   0.061059179   -1.2243681      0.11390747    -1.0188837     -0.016235552  
   4716000   0.060901929   -1.2353897      0.11417283    -1.0298757     -0.0058710058 
   4717000   0.060985072   -1.2394561      0.11479002    -1.0332002     -0.03911135   
   4718000   0.060651606   -1.2401688      0.11588584    -1.0333173     -0.040536199  
   4719000   0.061558285   -1.2358496      0.11579465    -1.0277294     -0.029232705  
   4720000   0.061364012   -1.2363274      0.11512063    -1.0291726     -0.022962341  
   4721000   0.061034631   -1.2300121      0.11425994    -1.024212      -0.013704537  
   4722000   0.062298774   -1.2377514      0.11580191    -1.0285134     -0.01355327   
   4723000   0.061871586   -1.2462395      0.11627168    -1.0371725     -0.02633964   
   4724000   0.061942428   -1.2359446      0.11452448    -1.0285185     -0.040810624  
   4725000   0.061301187   -1.2350141      0.11601261    -1.0270616     -0.0099764604 
   4726000   0.061787338   -1.2427084      0.11663699    -1.0334024      0.0046210775 
   4727000   0.061742965   -1.2415281      0.1131055     -1.0358201     -0.0019688974 
   4728000   0.061218047   -1.2386312      0.11526615    -1.0315499     -0.014978053  
   4729000   0.06211914    -1.2423039      0.11603298    -1.0331043     -0.029076251  
   4730000   0.060779838   -1.2338111      0.1139508     -1.0287023     -0.015059584  
   4731000   0.062056042   -1.2353809      0.11417014    -1.0281387     -0.0018812754 
   4732000   0.060663377   -1.2441249      0.11483231    -1.0383092     -0.033432037  
   4733000   0.061176287   -1.235879       0.11263268    -1.0314937      0.0040472866 
   4734000   0.062643705   -1.2391407      0.11501214    -1.0301751     -0.00099098771
   4735000   0.06213665    -1.233267       0.11651208    -1.023562      -0.02623592   
   4736000   0.061833181   -1.2384279      0.11359544    -1.0320947     -0.0015327888 
   4737000   0.061136407   -1.2311607      0.1158282     -1.0236397      0.0088164877 
   4738000   0.061050754   -1.2415574      0.11411981    -1.0358733     -0.021232044  
   4739000   0.060546178   -1.236556       0.11617162    -1.0295768     -0.034501199  
   4740000   0.061873762   -1.2372316      0.11623568    -1.0281973     -0.028685142  
   4741000   0.06119277    -1.2441012      0.11433134    -1.0379926     -0.041680649  
   4742000   0.0623261     -1.2437243      0.11397942    -1.0362678      0.0026400664 
   4743000   0.060929646   -1.2324313      0.11490263    -1.026146      -0.026231309  
   4744000   0.062101734   -1.2367082      0.11486545    -1.0287021      1.312207e-05 
   4745000   0.06089998    -1.240403       0.11386257    -1.0352022     -0.013555554  
   4746000   0.061662178   -1.2448643      0.11574091    -1.0366421     -0.016757813  
   4747000   0.061819447   -1.239879       0.11312739    -1.0340344     -0.012589787  
   4748000   0.061294414   -1.2355477      0.1152971     -1.0283208     -0.011086037  
   4749000   0.062628893   -1.2308314      0.11292774    -1.0239725     -0.0097171568 
   4750000   0.062677172   -1.2349386      0.11398136    -1.0269536     -0.016812426  
   4751000   0.061069348   -1.2256243      0.11363677    -1.0203954     -0.027489881  
   4752000   0.061709386   -1.2296269      0.11642787    -1.0206468     -0.047689549  
   4753000   0.062092564   -1.2255922      0.11453406    -1.0179313      0.0054033788 
   4754000   0.062429619   -1.223404       0.11520787    -1.0145638     -0.04265367   
   4755000   0.061610416   -1.2420001      0.1161725     -1.0334239     -0.014086552  
   4756000   0.061720629   -1.233925       0.11508442    -1.0262716     -0.00072572935
   4757000   0.061132858   -1.2318677      0.11350445    -1.0266758     -0.027130543  
   4758000   0.060669794   -1.2440852      0.11476223    -1.03833        0.0042176426 
   4759000   0.061052659   -1.2281071      0.11515115    -1.0213888     -0.013869456  
   4760000   0.061319641   -1.2477332      0.11509189    -1.0406738     -0.023690468  
   4761000   0.06305479    -1.2343072      0.11362919    -1.026108      -0.018129835  
   4762000   0.060968957   -1.2312803      0.11499563    -1.024843      -0.0098299735 
   4763000   0.061700734   -1.2532391      0.1130927     -1.0476072      0.015815525  
   4764000   0.061223675   -1.2225221      0.11576323    -1.0149352     -0.0079711666 
   4765000   0.062578322   -1.2347798      0.11276177    -1.0281627     -0.011387055  
   4766000   0.061720736   -1.2215993      0.11418141    -1.0148487     -0.021836142  
   4767000   0.062228384   -1.2362233      0.11374808    -1.0291447     -0.006854537  
   4768000   0.061434588   -1.2427527      0.11340964    -1.0372031     -0.006957526  
   4769000   0.062243795   -1.2459298      0.11465645    -1.0379197     -0.0029403637 
   4770000   0.061409342   -1.2394944      0.11536747    -1.0320248     -0.014361368  
   4771000   0.061540219   -1.244648       0.11458344    -1.0377661      0.01141819   
   4772000   0.061438124   -1.2455634      0.11517338    -1.0382447     -0.065120692  
   4773000   0.060642485   -1.236268       0.11327757    -1.0320384     -0.0077961175 
   4774000   0.061474603   -1.2156269      0.11324613    -1.0101807     -0.025956163  
   4775000   0.061599737   -1.243592       0.11407646    -1.0371278     -0.0084470706 
   4776000   0.061924974   -1.2351292      0.11315491    -1.0290988     -0.0093955685 
   4777000   0.061410569   -1.236809       0.11272545    -1.0319796     -0.02204614   
   4778000   0.061148655   -1.2419328      0.1147839     -1.0354377     -0.024252279  
   4779000   0.06156259    -1.2374267      0.11563154    -1.0294632      0.005023845  
   4780000   0.06115429    -1.243155       0.1156649     -1.0357705     -0.0066068862 
   4781000   0.060670003   -1.2316178      0.11416805    -1.0264564     -0.029454366  
   4782000   0.061632925   -1.2323867      0.11395469    -1.0259946     -0.034559588  
   4783000   0.061054631   -1.2288545      0.11277454    -1.0245099     -0.040259259  
   4784000   0.061368457   -1.2340075      0.11582818    -1.0261385     -0.012002657  
   4785000   0.060982172   -1.2302699      0.11403583    -1.0247726     -0.00054901375
   4786000   0.061077438   -1.2385977      0.1143863     -1.0326071      0.0015563384 
   4787000   0.062132406   -1.2324261      0.11395152    -1.025288       0.012360737  
   4788000   0.06141686    -1.236002       0.11476712    -1.0291215     -0.013647875  
   4789000   0.06126392    -1.2344504      0.11309029    -1.029476      -0.0055919208 
   4790000   0.061250318   -1.2373677      0.11626137    -1.0292427      0.00027313301
   4791000   0.062353689   -1.2293995      0.11341407    -1.0224669     -0.01656852   
   4792000   0.062594675   -1.2467008      0.11375671    -1.0390642     -0.028963962  
   4793000   0.061365046   -1.2372478      0.11504219    -1.0301699     -0.0056476796 
   4794000   0.062142842   -1.2423627      0.11518851    -1.0339719      0.016135857  
   4795000   0.06156752    -1.2445124      0.11284912    -1.0393239     -0.033087088  
   4796000   0.061761994   -1.2406785      0.11545372    -1.0325937      0.0018793169 
   4797000   0.061231388   -1.2403092      0.11379472    -1.0346792     -0.024048645  
   4798000   0.061064248   -1.2474031      0.11512416    -1.0406944     -0.0095142166 
   4799000   0.060819386   -1.233986       0.11572647    -1.0270422     -0.028192465  
   4800000   0.061008881   -1.2330121      0.11401105    -1.0274996     -0.022171696  
   4801000   0.061382625   -1.233602       0.11476242    -1.0267775     -0.020260905  
   4802000   0.061378918   -1.2341389      0.11450516    -1.0275773     -0.026103769  
   4803000   0.061168257   -1.2374285      0.11565021    -1.0300377     -0.01399504   
   4804000   0.061650873   -1.2351198      0.11410148    -1.0285539     -0.0096324575 
   4805000   0.062297226   -1.2524442      0.11417055    -1.0448398     -0.018691159  
   4806000   0.061935192   -1.2403651      0.11349001    -1.0339843     -0.0026785294 
   4807000   0.061603597   -1.2292162      0.11379212    -1.0230306      0.020013617  
   4808000   0.060840048   -1.2349165      0.11476992    -1.0288983     -0.0035148853 
   4809000   0.062656844   -1.24191        0.11324956    -1.0346873      0.0089463201 
   4810000   0.062045044   -1.2532374      0.11405672    -1.0461251     -0.040972212  
   4811000   0.062273399   -1.2494899      0.11502452    -1.0410674     -0.020886033  
   4812000   0.062041591   -1.2364561      0.11289048    -1.0305153     -0.022106526  
   4813000   0.061521647   -1.2454676      0.11457476    -1.0386222     -0.015009798  
   4814000   0.061458723   -1.2588943      0.11351598    -1.0532021     -0.026985586  
   4815000   0.061424279   -1.2269692      0.11263518    -1.0222095      0.0052178598 
   4816000   0.061093177   -1.240347       0.11233233    -1.0363867     -0.0012019752 
   4817000   0.06156213    -1.2556757      0.11377046    -1.0495739     -0.030841651  
   4818000   0.062262282   -1.2263168      0.11361607    -1.0193193     -0.0011023735 
   4819000   0.061919245   -1.2303861      0.11392389    -1.0235953     -0.0056398135 
   4820000   0.061636149   -1.2422652      0.11399655    -1.0358263     -0.0012730361 
   4821000   0.061692386   -1.2395435      0.11665445    -1.0303624      0.004716356  
   4822000   0.062136576   -1.2500724      0.11452042    -1.0423591     -0.0084210073 
   4823000   0.061175974   -1.2589769      0.1151925     -1.0520323     -0.023155153  
   4824000   0.062027781   -1.2200274      0.1145212     -1.0124766     -0.0093059914 
   4825000   0.061000146   -1.231996       0.11506592    -1.0254417     -0.0028146583 
   4826000   0.061729748   -1.2320287      0.11350223    -1.0259438     -0.012752081  
   4827000   0.061263857   -1.2394268      0.11445973    -1.0330831     -0.023737738  
   4828000   0.061635369   -1.2421309      0.11370341    -1.0359864     -0.0099957588 
   4829000   0.062348945   -1.2432046      0.11327567    -1.0364176     -0.01122003   
   4830000   0.061409776   -1.2294966      0.11249795    -1.0248958     -0.017893662  
   4831000   0.061347269   -1.2349019      0.1133391     -1.0295537      0.0014708241 
   4832000   0.063581345   -1.2308305      0.11342363    -1.0220472      0.012079652  
   4833000   0.061382513   -1.2449692      0.11338444    -1.0395228      0.01726285   
   4834000   0.059894163   -1.2433785      0.11453164    -1.0390172     -0.022451647  
   4835000   0.061127352   -1.2286633      0.11399833    -1.0229858      0.0063734668 
   4836000   0.061552904   -1.2497331      0.11359129    -1.0438244     -0.0031282808 
   4837000   0.061728809   -1.2434442      0.11426272    -1.0366002     -0.017617419  
   4838000   0.061139526   -1.2453689      0.11672192    -1.0369496      0.0045562544 
   4839000   0.060829538   -1.2362612      0.11360031    -1.0314284     -0.0045828232 
   4840000   0.061210877   -1.2408007      0.11368496    -1.0353112      0.0022920237 
   4841000   0.061541051   -1.2368856      0.11569879    -1.0288871      0.0023363236 
   4842000   0.061820276   -1.2323156      0.11324212    -1.026355       0.00048028075
   4843000   0.06148193    -1.2284472      0.11366417    -1.022572      -0.019616144  
   4844000   0.06068247    -1.2373576      0.11231558    -1.03403        0.0055608026 
   4845000   0.060726091   -1.2218157      0.11281089    -1.0179274     -0.013455897  
   4846000   0.061362506   -1.2263714      0.11449195    -1.0198476      0.008749337  
   4847000   0.061540708   -1.2276367      0.11456819    -1.0207693      0.024411421  
   4848000   0.0625751     -1.2261418      0.11375951    -1.0185317     -0.0084001809 
   4849000   0.062479935   -1.2266487      0.11344469    -1.0194962     -0.019186454  
   4850000   0.061195105   -1.2364947      0.11396952    -1.0307444     -0.017105131  
   4851000   0.061183266   -1.2339667      0.1147197     -1.0274839      0.011226057  
   4852000   0.060204063   -1.2470434      0.11301428    -1.0437347     -0.004922591  
   4853000   0.06088828    -1.2415082      0.11374227    -1.0364453      0.0014821657 
   4854000   0.061274231   -1.221446       0.11217044    -1.0173761      0.0095506601 
   4855000   0.060933604   -1.2481641      0.1148803     -1.0418952      0.0070101198 
   4856000   0.061285061   -1.2481792      0.1137903     -1.0424732     -0.018562047  
   4857000   0.06107202    -1.2395214      0.11355824    -1.034367      -0.031958106  
   4858000   0.061215157   -1.2369235      0.11367954    -1.0314331     -0.011332762  
   4859000   0.061909614   -1.2487244      0.11313612    -1.0427359     -0.014532332  
   4860000   0.060741588   -1.235793       0.11207603    -1.0326163     -0.00030452119
   4861000   0.061469448   -1.2401461      0.11363894    -1.0343149      0.0059047144 
   4862000   0.060488169   -1.2351256      0.11248745    -1.0319176     -0.013972936  
   4863000   0.060924811   -1.2272922      0.11341786    -1.0224989     -0.03753786   
   4864000   0.061601328   -1.2376138      0.11529722    -1.0299266     -0.01382947   
   4865000   0.060983642   -1.2369497      0.11375875    -1.0317273      0.0030147625 
   4866000   0.061915726   -1.2365594      0.11258617    -1.0311116     -0.0027682953 
   4867000   0.060986324   -1.2487316      0.111851      -1.045413       0.0011299986 
   4868000   0.061178206   -1.2435886      0.1115529     -1.0402803     -0.016209483  
   4869000   0.060837989   -1.2443296      0.11277728    -1.0403071      0.023579103  
   4870000   0.061386426   -1.2369816      0.11349736    -1.0314165      0.023659621  
   4871000   0.060661888   -1.2405593      0.11263708    -1.0369411      0.023910065  
   4872000   0.062161834   -1.2364475      0.11197014    -1.0312466      0.0061172088 
   4873000   0.061245159   -1.2369089      0.11419783    -1.0308551      0.0090267211 
   4874000   0.061089987   -1.2540819      0.112965      -1.0494937     -0.0093906379 
   4875000   0.061386844   -1.2404898      0.11397167    -1.0344498      0.0043797239 
   4876000   0.061607682   -1.2315765      0.11411968    -1.0250572     -0.005080621  
   4877000   0.060399      -1.2434812      0.11310978    -1.0397846     -0.0040017064 
   4878000   0.061384156   -1.2351219      0.11248393    -1.0305736     -0.01844789   
   4879000   0.061384747   -1.2378654      0.11259636    -1.0332038      0.0062372125 
   4880000   0.061976308   -1.239503       0.11289658    -1.0336539      0.014493823  
   4881000   0.060600333   -1.2357595      0.11275288    -1.0321179     -0.020397472  
   4882000   0.062283696   -1.2471595      0.11271863    -1.0410274     -0.014189486  
   4883000   0.062427381   -1.23349        0.11537679    -1.0244842      0.02203604   
   4884000   0.062173015   -1.2299993      0.1134178     -1.023334       0.0094176725 
   4885000   0.062161888   -1.2300527      0.11312393    -1.023698       0.0080169905 
   4886000   0.062067922   -1.2312354      0.11192522    -1.0262203     -0.0028649118 
   4887000   0.060771298   -1.2393354      0.11326454    -1.0349257      0.0076182352 
   4888000   0.061578618   -1.2312149      0.11292117    -1.0259377      0.021639099  
   4889000   0.060948979   -1.2370337      0.11394961    -1.0316724      0.011033935  
   4890000   0.061430259   -1.2517055      0.11406905    -1.0455029      0.0059544454 
   4891000   0.060812298   -1.2263373      0.11268083    -1.0224498     -0.010807989  
   4892000   0.061356353   -1.2396098      0.11270504    -1.0348821      0.0027413999 
   4893000   0.061889674   -1.2477709      0.11348519    -1.0414632      0.0080367441 
   4894000   0.061133935   -1.2382304      0.1138064     -1.032735      -0.015941654  
   4895000   0.060880386   -1.2400324      0.11400047    -1.0347232      0.00093221665
   4896000   0.061593969   -1.250031       0.11343616    -1.0442158     -0.0021349645 
   4897000   0.060678528   -1.2348833      0.11163754    -1.0322397     -0.028099679  
   4898000   0.059821635   -1.2450574      0.11383447    -1.041502      -0.017394891  
   4899000   0.061510032   -1.2281638      0.11307922    -1.0228315      0.00428551   
   4900000   0.060507878   -1.2391083      0.11355024    -1.034808      -0.016882944  
   4901000   0.06150018    -1.238883       0.11391984    -1.0327248      0.0058855013 
   4902000   0.061004296   -1.2338919      0.1120023     -1.030395      -0.012301221  
   4903000   0.060347892   -1.2405841      0.11428693    -1.035787       0.0061885646 
   4904000   0.061213887   -1.2409464      0.11383875    -1.0352987     -0.018694077  
   4905000   0.062341312   -1.2296765      0.11266414    -1.0235124     -0.015066159  
   4906000   0.061924693   -1.2400384      0.11438283    -1.0327805     -0.02046165   
   4907000   0.062034401   -1.238923       0.11430145    -1.0315819      0.015777171  
   4908000   0.062389286   -1.2472011      0.11379117    -1.0398381      0.00082071541
   4909000   0.0621841     -1.2428642      0.1149559     -1.0346442     -0.0093416964 
   4910000   0.061891365   -1.2437782      0.1144645     -1.0364887      0.023992493  
   4911000   0.061463251   -1.2326963      0.11365854    -1.0268548      0.0060300907 
   4912000   0.062593237   -1.2414696      0.11438284    -1.033209      -0.00030782298
   4913000   0.061479237   -1.2579769      0.11480618    -1.0509638     -0.011152036  
   4914000   0.06218499    -1.2346081      0.11430531    -1.0270374      0.0049191492 
   4915000   0.060523132   -1.2310267      0.11385785    -1.0263959      0.022984201  
   4916000   0.061419447   -1.225896       0.11294605    -1.0208327      0.0060928591 
   4917000   0.062504073   -1.2431457      0.11534071    -1.034061       0.011677163  
   4918000   0.061613188   -1.23944        0.11525214    -1.03178        0.0068794052 
   4919000   0.060684911   -1.247583       0.1144054     -1.0421619      0.0054486961 
   4920000   0.061152531   -1.242839       0.11469903    -1.036423      -0.0055086418 
   4921000   0.061079443   -1.2381443      0.11436565    -1.0321713     -0.0022027892 
   4922000   0.060882111   -1.2301664      0.11521415    -1.0236409     -0.0039062554 
   4923000   0.060585118   -1.2406253      0.11331515    -1.0364442      0.0050739359 
   4924000   0.061770636   -1.2476021      0.11490297    -1.0400551     -0.028438315  
   4925000   0.061506722   -1.2303048      0.11160694    -1.0264497     -0.0088333764 
   4926000   0.062590349   -1.2443272      0.11550886    -1.034945      -0.028818185  
   4927000   0.061858906   -1.2384794      0.11570596    -1.0299971      0.010209424  
   4928000   0.063162484   -1.2313676      0.11341142    -1.0232247     -0.0053768775 
   4929000   0.061955572   -1.2274154      0.11486681    -1.0196272     -0.0077463928 
   4930000   0.062403298   -1.239911       0.11207798    -1.0342401      0.0052304236 
   4931000   0.06180589    -1.2428635      0.11499886    -1.0351678      0.017938716  
   4932000   0.062012924   -1.2412198      0.11521093    -1.0330015      0.010893733  
   4933000   0.062082153   -1.2414625      0.11396499    -1.0343863      0.00055671179
   4934000   0.061780815   -1.2415159      0.11415238    -1.0347042      0.022421016  
   4935000   0.061310422   -1.2391787      0.11350802    -1.0337169     -0.0018024268 
   4936000   0.062296893   -1.2379267      0.11245805    -1.0320353     -0.012554478  
   4937000   0.061138997   -1.2497748      0.11506401    -1.0430141     -0.0071332284 
   4938000   0.061041842   -1.2493749      0.11211425    -1.0457097     -0.0026297681 
   4939000   0.061685314   -1.2449225      0.11449466    -1.0379118     -0.0064715524 
   4940000   0.062267704   -1.2324996      0.11423832    -1.0248718      0.0037166865 
   4941000   0.062106646   -1.230705       0.11264626    -1.0249108      0.0076775887 
   4942000   0.061913008   -1.2354953      0.11333138    -1.0293064      0.0098497783 
   4943000   0.061621179   -1.237609       0.11244391    -1.0327453      0.0089588345 
   4944000   0.060913712   -1.235319       0.1133961     -1.0305641     -0.0063040428 
   4945000   0.061551993   -1.2426939      0.11160148    -1.0387763      0.012925923  
   4946000   0.060971298   -1.2455161      0.11389905    -1.0401719      0.025778781  
   4947000   0.060683319   -1.2351945      0.11300189    -1.0311794      0.0020343799 
   4948000   0.061509926   -1.2431256      0.11440077    -1.0364718     -0.014669297  
   4949000   0.06097357    -1.2364288      0.11449807    -1.0304821     -0.0042139881 
   4950000   0.060577975   -1.2371304      0.11211502    -1.0341601     -0.00042026937
   4951000   0.060686673   -1.2471975      0.11472947    -1.0414498      8.6016558e-05
   4952000   0.061894974   -1.2354944      0.11436978    -1.0282941     -0.0098565631 
   4953000   0.062012229   -1.2322973      0.11362516    -1.0256658     -0.0050605465 
   4954000   0.061739776   -1.2377058      0.112799      -1.0323091      0.0084756727 
   4955000   0.060565771   -1.248077       0.11487063    -1.0423695     -0.0058324207 
   4956000   0.06260723    -1.247313       0.113187      -1.0402272      0.012926468  
   4957000   0.061822617   -1.2379474      0.11379947    -1.031426      -0.001660341  
   4958000   0.061876434   -1.2407344      0.11389887    -1.0340329     -0.011894267  
   4959000   0.061216741   -1.2423775      0.11498265    -1.0355816     -0.028687769  
   4960000   0.060181537   -1.2436725      0.11379566    -1.0396161      0.00014094194
   4961000   0.060532627   -1.2529566      0.11473788    -1.0474315     -0.009673738  
   4962000   0.060519036   -1.2361335      0.11688471    -1.0284819     -0.021046638  
   4963000   0.061857826   -1.234346       0.11287306    -1.0286982      0.0074945156 
   4964000   0.061939942   -1.2298443      0.1120729     -1.0248735      0.00025896247
   4965000   0.062383327   -1.2344948      0.11459573    -1.0263362     -0.018202412  
   4966000   0.060997961   -1.2473201      0.11300701    -1.0428279     -0.021613005  
   4967000   0.061091815   -1.2417306      0.11444724    -1.0356574     -0.027544776  
   4968000   0.061479334   -1.2436139      0.11480116    -1.0366056      0.0074979666 
   4969000   0.062262374   -1.2432027      0.11579827    -1.0340229     -0.014231879  
   4970000   0.062254641   -1.2366347      0.11458466    -1.0286802      0.0054426867 
   4971000   0.061051449   -1.2475599      0.1145661     -1.0414285     -0.013106427  
   4972000   0.061336919   -1.2506336      0.11507473    -1.0435654     -0.0031611717 
   4973000   0.061505485   -1.2359781      0.11288255    -1.0308493      0.0029045058 
   4974000   0.062950506   -1.2444817      0.11446279    -1.0356053      0.01303452   
   4975000   0.063250092   -1.2444226      0.11528994    -1.0342698     -0.013047428  
   4976000   0.062373055   -1.2445024      0.11636454    -1.0345903     -0.030024564  
   4977000   0.063057776   -1.2454991      0.1143434     -1.0365812     -0.017314314  
   4978000   0.061991758   -1.2483393      0.1163812     -1.0389824      0.0029300108 
   4979000   0.061538108   -1.239243       0.11572216    -1.0312256      0.0072878611 
   4980000   0.061661167   -1.2292729      0.11508568    -1.0217074     -0.006806771  
   4981000   0.061849786   -1.2438562      0.11512285    -1.0359707      0.0068067949 
   4982000   0.061806366   -1.2385829      0.11550453    -1.0303808     -0.0048757532 
   4983000   0.062122148   -1.2401119      0.11455791    -1.0323828      0.0027313282 
   4984000   0.061890621   -1.236853       0.11430317    -1.0297258     -0.014774778  
   4985000   0.062443955   -1.2290848      0.11392097    -1.02151        0.026887698  
   4986000   0.062444339   -1.2446696      0.11284314    -1.038172       0.020356012  
   4987000   0.062552976   -1.2542692      0.11457376    -1.0458781      0.0025552198 
   4988000   0.061974274   -1.2475991      0.11405817    -1.0405915     -0.0049644297 
   4989000   0.06178673    -1.2329036      0.11325716    -1.0269783      0.010860136  
   4990000   0.061462965   -1.2492968      0.11640307    -1.0407112     -0.01452558   
   4991000   0.062536986   -1.2485568      0.11583454    -1.0389289     -0.01244722   
   4992000   0.061641476   -1.2434394      0.11470603    -1.0362831      0.0026730346 
   4993000   0.062816946   -1.2556495      0.11485342    -1.0465828     -0.0092633666 
   4994000   0.061701479   -1.2410599      0.11556404    -1.0329555     -0.016084183  
   4995000   0.06269534    -1.2500446      0.11670291    -1.0393109      0.015929052  
   4996000   0.062065915   -1.2452728      0.11604169    -1.0361443     -0.00054608561
   4997000   0.061975918   -1.2515479      0.11617874    -1.0424173     -0.0054001081 
   4998000   0.061598826   -1.2420678      0.11670113    -1.0329804     -0.01258411   
   4999000   0.061344356   -1.2465776      0.11665358    -1.0379194     -0.021827497  
   5000000   0.062210937   -1.2362771      0.11387924    -1.0290935     -0.0076159335 
   5001000   0.061587114   -1.2423614      0.11590998    -1.0340827     -0.0043853008 
   5002000   0.061947464   -1.2284199      0.11643186    -1.0190788     -0.021080997  
   5003000   0.061728067   -1.2463269      0.11477428    -1.0389725     -0.017742151  
   5004000   0.062281374   -1.2305749      0.1145849     -1.02258        0.0058564293 
   5005000   0.061230852   -1.2517764      0.11563393    -1.044308       0.033080162  
   5006000   0.060892377   -1.2409833      0.11337271    -1.0362838      0.015786828  
   5007000   0.06166855    -1.2412448      0.11368228    -1.0350716      0.0045357926 
   5008000   0.06205095    -1.244863       0.11415048    -1.0376481      0.003742812  
   5009000   0.062162012   -1.2358744      0.11548113    -1.0271623      0.018526918  
   5010000   0.062253243   -1.2336563      0.11486042    -1.0254281     -0.01715865   
   5011000   0.060866178   -1.2402058      0.11530292    -1.0336154      0.00019834832
   5012000   0.062539002   -1.2308916      0.11339376    -1.0237014     -0.02129279   
   5013000   0.061763594   -1.2468234      0.11449662    -1.0396933     -0.0023206741 
   5014000   0.062119739   -1.2333256      0.11487651    -1.0252815     -0.01307066   
   5015000   0.061573314   -1.2527569      0.11611484    -1.044294      -0.00071592407
   5016000   0.0620016     -1.2395927      0.11657422    -1.0300281     -0.0024383968 
   5017000   0.061511465   -1.2357897      0.11432882    -1.0292056      0.00040417186
   5018000   0.061207145   -1.2490963      0.11527185    -1.0420256     -0.0053537536 
   5019000   0.061498434   -1.2360496      0.1151828     -1.028631      -0.0096349424 
   5020000   0.061915495   -1.2408195      0.11397568    -1.0339826      0.004583092  
   5021000   0.063030654   -1.2436483      0.11513225    -1.0339822      0.016129829  
   5022000   0.062155373   -1.2421308      0.11411894    -1.0347908     -0.011178847  
   5023000   0.061490061   -1.2369423      0.11289868    -1.0318204      0.037235297  
   5024000   0.061647594   -1.24496        0.11452029    -1.0379803      0.013496997  
   5025000   0.062648655   -1.2413999      0.11444156    -1.0329974     -0.005347394  
   5026000   0.061195018   -1.2326867      0.1150458     -1.0258602      0.007884138  
   5027000   0.061920041   -1.2400055      0.11359781    -1.0335396      0.0061710945 
   5028000   0.062227503   -1.2386174      0.11426149    -1.0310267     -0.015321475  
   5029000   0.061901563   -1.2421829      0.11361171    -1.0357308     -0.0050893455 
   5030000   0.061411994   -1.2401534      0.11409874    -1.0339486      0.020594408  
   5031000   0.061747642   -1.2380043      0.11358529    -1.0318095      0.027074844  
   5032000   0.061899938   -1.2430975      0.11498863    -1.0352709     -0.0068234957 
   5033000   0.061108762   -1.2477313      0.11474026    -1.0413398     -0.00038581582
   5034000   0.061315667   -1.25051        0.11377041    -1.0447779     -0.023918443  
   5035000   0.06142202    -1.2490453      0.11772537    -1.0391988      0.0054371459 
   5036000   0.060568847   -1.2361044      0.11506802    -1.0301948     -0.011490047  
   5037000   0.061578717   -1.2308702      0.11422656    -1.0242875      0.016102233  
   5038000   0.060547477   -1.2350443      0.11522324    -1.0290115     -0.0084363827 
   5039000   0.061099543   -1.2385407      0.11491253    -1.0319907      0.030677644  
   5040000   0.061454867   -1.2456622      0.11488387    -1.0386079      0.015942603  
   5041000   0.061125728   -1.2379776      0.11509829    -1.0312025      0.0054067484 
   5042000   0.061491721   -1.2502898      0.11351571    -1.0445484      0.027964328  
   5043000   0.060964387   -1.2440827      0.11641918    -1.0362288     -0.011458676  
   5044000   0.062631598   -1.2572685      0.11389724    -1.0494359     -0.014140165  
   5045000   0.06262445    -1.2301487      0.11395191    -1.0222723      0.024031648  
   5046000   0.061869713   -1.245146       0.1147585     -1.0375949      0.033354496  
   5047000   0.060684134   -1.2336282      0.11362073    -1.028993       0.0081582012 
   5048000   0.060947827   -1.2362284      0.1160148     -1.0288037      0.0010752656 
   5049000   0.061142765   -1.2403164      0.11386619    -1.0347479     -0.0038877021 
   5050000   0.061976359   -1.242471       0.11423204    -1.0352865      0.0091828966 
   5051000   0.061783678   -1.249444       0.11542098    -1.0413594      0.029113714  
   5052000   0.061973564   -1.2389159      0.11572421    -1.0302433      0.020824676  
   5053000   0.06117236    -1.2467628      0.11457095    -1.0404451      0.0095272027 
   5054000   0.061144841   -1.2539878      0.11487321    -1.0474092      0.0028344186 
   5055000   0.061529608   -1.2310431      0.11495394    -1.0238067      0.030354154  
   5056000   0.061038807   -1.2280616      0.1147572     -1.021758      -0.0021167452 
   5057000   0.061629721   -1.2312539      0.11446807    -1.0243532     -0.012284467  
   5058000   0.060664813   -1.2398302      0.1142527     -1.034592       0.016547217  
   5059000   0.062740575   -1.2317063      0.11425858    -1.023349       0.024942855  
   5060000   0.061785905   -1.2388106      0.11511246    -1.0310313      0.0085582589 
   5061000   0.062016874   -1.2241124      0.11401172    -1.0170874      0.0059670423 
   5062000   0.06273245    -1.2535945      0.11330498    -1.046203       0.019737734  
   5063000   0.06178083    -1.2424552      0.11112117    -1.0386747      0.025995481  
   5064000   0.061545997   -1.2462954      0.11281183    -1.0411764     -0.0094677485 
   5065000   0.060927577   -1.2498051      0.11450078    -1.0439248      0.057575328  
   5066000   0.06180564    -1.2629197      0.11407022    -1.056153      -0.0086192239 
   5067000   0.061559505   -1.2493138      0.11396183    -1.0430246      0.019763144  
   5068000   0.061393841   -1.2436855      0.11233055    -1.039276       0.01436477   
   5069000   0.060910237   -1.2495714      0.11479316    -1.0434247      0.015962608  
   5070000   0.060808151   -1.2416822      0.11362695    -1.0368548      0.0094827684 
   5071000   0.061957449   -1.2398095      0.11346759    -1.0334177      0.025344699  
   5072000   0.062052584   -1.249404       0.11560448    -1.0407327      0.020349019  
   5073000   0.062463632   -1.2523791      0.11421994    -1.0444758     -0.005067674  
   5074000   0.061834069   -1.2385489      0.11503696    -1.0307728      0.026201267  
   5075000   0.061927221   -1.2448382      0.11409025    -1.0378691      0.0034857404 
   5076000   0.061619484   -1.232161       0.11260318    -1.0271405      0.030376876  
   5077000   0.062659709   -1.254022       0.11248074    -1.0475638      0.018198284  
   5078000   0.060205545   -1.249805       0.11287046    -1.0466378      0.022876348  
   5079000   0.061103302   -1.2372995      0.11457753    -1.0310788      0.0053549141 
   5080000   0.061536912   -1.2452694      0.11434403    -1.038632      -0.022223989  
   5081000   0.061358868   -1.2400562      0.11316122    -1.0348685      0.003820769  
   5082000   0.062080568   -1.243229       0.11431378    -1.0358064     -0.010441867  
   5083000   0.061436668   -1.2420162      0.11516994    -1.0347032     -0.016951774  
   5084000   0.061088658   -1.2480237      0.11343646    -1.0429661      0.02241617   
   5085000   0.061418848   -1.2475171      0.11490022    -1.0405005      0.01194676   
   5086000   0.060349968   -1.2467888      0.11403647    -1.042239      -0.0011075005 
   5087000   0.061040824   -1.2416162      0.11527829    -1.0347885      0.010195952  
   5088000   0.061237771   -1.2340829      0.11495857    -1.0272795     -0.0017485514 
   5089000   0.062086606   -1.250331       0.11467189    -1.0425412      0.0064485303 
   5090000   0.06178286    -1.2520139      0.11590813    -1.0434434      0.018130872  
   5091000   0.062316257   -1.2375236      0.11513939    -1.0289219      0.0038734019 
   5092000   0.06193311    -1.2432692      0.11643973    -1.0339418     -0.0062923564 
   5093000   0.061839162   -1.2426287      0.11456839    -1.0353136      0.0070703252 
   5094000   0.061528195   -1.252338       0.11406313    -1.0459945      0.013338313  
   5095000   0.061523586   -1.2444029      0.11651141    -1.035618       0.034057514  
   5096000   0.061017878   -1.2380374      0.11505237    -1.03147       -0.0061661975 
   5097000   0.061144338   -1.2390012      0.11274935    -1.0345472      0.0046898062 
   5098000   0.061427061   -1.2395553      0.11466914    -1.0327575      0.0079186356 
   5099000   0.061040715   -1.2481339      0.11531969    -1.0412649      0.0025497371 
   5100000   0.06243783    -1.2421883      0.11735483    -1.0311888     -0.0038596021 
   5101000   0.06266692    -1.2369261      0.11569289    -1.027245      -0.015411646  
   5102000   0.061760184   -1.2402219      0.11450453    -1.033089      -0.0085655144 
   5103000   0.06103976    -1.2442945      0.11751012    -1.0352366     -0.0095328159 
   5104000   0.062805156   -1.2305016      0.11470479    -1.0216012      0.020131859  
   5105000   0.062066008   -1.2484428      0.11466562    -1.0406902      0.010381684  
   5106000   0.062059575   -1.2455545      0.113608      -1.0388692     -0.0098482402 
   5107000   0.061169857   -1.2440022      0.11512109    -1.0371382     -0.0076652122 
   5108000   0.061275262   -1.2323244      0.11375589    -1.0266675      0.011680544  
   5109000   0.061589988   -1.2447406      0.11399114    -1.0383764     -0.0026493238 
   5110000   0.060968875   -1.2483277      0.11503042    -1.0418558     -0.009668536  
   5111000   0.06092314    -1.2324695      0.11567881    -1.0254177      0.012582142  
   5112000   0.060478622   -1.2521558      0.11566064    -1.0457889      0.00037641817
   5113000   0.062637394   -1.2351879      0.11671171    -1.0245322     -0.0084448046 
   5114000   0.062237916   -1.2340821      0.11367758    -1.0270596      0.035861871  
   5115000   0.061981575   -1.2308489      0.11570775    -1.0221807     -0.0033143472 
   5116000   0.061517093   -1.2475187      0.11533849    -1.0399164      0.031694189  
   5117000   0.061496181   -1.2483229      0.11599799    -1.0400926      0.0013786816 
   5118000   0.061345484   -1.2561442      0.11636709    -1.0477708      0.024427084  
   5119000   0.061613393   -1.2323023      0.11490972    -1.0249844     -0.0003338595 
   5120000   0.061706748   -1.2529121      0.1147047     -1.0456592     -0.0016881775 
   5121000   0.061284603   -1.2330553      0.11508106    -1.0260592      0.019281894  
   5122000   0.062534697   -1.2494598      0.11625444    -1.0394154     -0.007004031  
   5123000   0.061795864   -1.2367547      0.11497094    -1.0291019      0.028440344  
   5124000   0.062219138   -1.2420948      0.1159729     -1.0328052     -0.012320209  
   5125000   0.061494356   -1.2412019      0.11702239    -1.0319498     -0.0034966103 
   5126000   0.060828169   -1.2397094      0.11747808    -1.0310008      0.00124696   
   5127000   0.061242745   -1.2448768      0.11432295    -1.0387016     -0.0033713687 
   5128000   0.061637435   -1.2434921      0.11680255    -1.0342453      0.03132393   
   5129000   0.061543752   -1.226467       0.11627671    -1.0178865      0.016805414  
   5130000   0.060842038   -1.2325533      0.11569844    -1.0256036      0.0014614347 
   5131000   0.06139176    -1.2402717      0.11565506    -1.0325409      0.0057603941 
   5132000   0.062531085   -1.2419426      0.11587608    -1.032282       0.0063983541 
   5133000   0.061231834   -1.2551753      0.11826574    -1.0450736      0.0021888283 
   5134000   0.061358397   -1.2480893      0.11745814    -1.0386055      0.028165347  
   5135000   0.060520832   -1.2471488      0.11616784    -1.0402114      0.0089910257 
   5136000   0.060836847   -1.2469734      0.11713786    -1.038592       0.0078450818 
   5137000   0.062041585   -1.2529074      0.11812405    -1.041733      -0.0014375027 
   5138000   0.061457481   -1.2524026      0.11658814    -1.0436401      0.020296053  
   5139000   0.061634109   -1.2378102      0.11856609    -1.0268049      0.016971751  
   5140000   0.062208797   -1.2349985      0.11705292    -1.0246444      0.0072269777 
   5141000   0.062449914   -1.2402851      0.11781196    -1.0288104      0.022633245  
   5142000   0.061366688   -1.2396633      0.11836217    -1.029263       0.00074843641
   5143000   0.061142533   -1.2326227      0.11900726    -1.0219134      0.0086189953 
   5144000   0.06144774    -1.2387599      0.11921794    -1.0273823      0.0158603    
   5145000   0.06167658    -1.2539801      0.11895237    -1.0425248     -0.00075260109
   5146000   0.061356163   -1.2458434      0.11875017    -1.0350709     -0.011423206  
   5147000   0.061248591   -1.2420569      0.11825036    -1.0319455      0.022340354  
   5148000   0.061253458   -1.2489543      0.11851517    -1.0385708      0.01030934   
   5149000   0.060797388   -1.2457668      0.11876383    -1.0358187     -0.0095365246 
   5150000   0.060343788   -1.2547012      0.11744037    -1.0467569     -0.0080003852 
   5151000   0.060422081   -1.2514986      0.1186937     -1.0421834      0.020452089  
   5152000   0.060051928   -1.2461118      0.11705304    -1.0389925      0.041342333  
   5153000   0.061676451   -1.2439162      0.11905441    -1.0323591      0.025924135  
   5154000   0.060647555   -1.2390335      0.11747059    -1.0306033      0.032849593  
   5155000   0.060746383   -1.242145       0.12035672    -1.0306805     -0.0096056422 
   5156000   0.061477707   -1.2417382      0.11889027    -1.0306432     -0.001509494  
   5157000   0.060535406   -1.2408955      0.11875963    -1.0313444      0.0064895306 
   5158000   0.061750377   -1.2496292      0.11886737    -1.0381482      0.0085419221 
   5159000   0.061605658   -1.2368664      0.1186576     -1.0258123      0.0067208634 
   5160000   0.062233216   -1.2371615      0.11833579    -1.0254879      0.017505425  
   5161000   0.06292102    -1.2530879      0.119176      -1.0395426      0.01753958   
   5162000   0.061522179   -1.2431679      0.11859513    -1.0323015      0.031834591  
   5163000   0.062326616   -1.2393077      0.11874155    -1.0270883      0.031170117  
   5164000   0.062488074   -1.2594637      0.11874146    -1.0470023      0.020187224  
   5165000   0.061708755   -1.2569655      0.11823488    -1.0461794      0.029969179  
   5166000   0.061594749   -1.245863       0.11910395    -1.0343789      0.0423198    
   5167000   0.062373182   -1.2440892      0.11992466    -1.0306168      0.00015868216
   5168000   0.061520064   -1.2381815      0.11838503    -1.0275283      0.031185718  
   5169000   0.061166325   -1.244821       0.11892187    -1.0341614      0.0040182552 
   5170000   0.061159056   -1.2352927      0.11869713    -1.0248688      0.025440479  
   5171000   0.061723421   -1.2652576      0.11911403    -1.0535704      0.012818696  
   5172000   0.062453321   -1.2447413      0.11984668    -1.0312267      0.00064646156
   5173000   0.061913381   -1.2509686      0.11878947    -1.0393211      0.028710746  
   5174000   0.060622631   -1.2386079      0.11930943    -1.0283763      0.0081547278 
   5175000   0.061536243   -1.2489001      0.11914371    -1.0374639      0.020417596  
   5176000   0.061817211   -1.2581084      0.11991004    -1.0454845      0.038734272  
   5177000   0.060799674   -1.2422575      0.11964166    -1.0314281     -0.0048893681 
   5178000   0.06097232    -1.2453386      0.11912342    -1.0347685     -0.0026286168 
   5179000   0.060815149   -1.2452684      0.11935471    -1.0347028     -0.0036018699 
   5180000   0.060626524   -1.2373226      0.11877233    -1.0276222      0.014090159  
   5181000   0.061594785   -1.2438444      0.11826653    -1.0331976      0.021097261  
   5182000   0.061028668   -1.2336181      0.11905744    -1.0230295     -0.015336368  
   5183000   0.061520881   -1.2373784      0.11920869    -1.0259003      0.020114803  
   5184000   0.061188611   -1.2471064      0.12002851    -1.0353068      0.0031210949 
   5185000   0.061928151   -1.242127       0.11995212    -1.0292946      0.020011207  
   5186000   0.062647702   -1.2405149      0.11988576    -1.0266697      0.029889101  
   5187000   0.061232285   -1.2435577      0.1175299     -1.0341912      0.026025313  
   5188000   0.061301284   -1.2424686      0.1183382     -1.0321903      0.033393053  
   5189000   0.061615423   -1.2381741      0.11870768    -1.0270552     -0.015605775  
   5190000   0.060839866   -1.252729       0.11775477    -1.0437262      0.027346473  
   5191000   0.061558292   -1.2367308      0.1178567     -1.0265486      0.02242515   
   5192000   0.061536383   -1.2444465      0.11838033    -1.0337735      0.010469075  
   5193000   0.061612727   -1.2601362      0.12101458    -1.0467145      0.013108771  
   5194000   0.060729311   -1.2511162      0.11901342    -1.0410206      0.0002565265 
   5195000   0.061722732   -1.24337        0.11961573    -1.0311821      0.021237976  
   5196000   0.061638978   -1.2414699      0.11991177    -1.0291116     -0.0089896945 
   5197000   0.060957398   -1.2444709      0.11960383    -1.0334428      0.0056910179 
   5198000   0.061771498   -1.2362023      0.1190251     -1.0245319      0.014736561  
   5199000   0.061986099   -1.2496226      0.11902785    -1.0376276      0.0066068348 
   5200000   0.06230964    -1.2447946      0.11935729    -1.0319849      0.034302478  
   5201000   0.061990989   -1.2486519      0.120275      -1.0354024     -0.0091944479 
   5202000   0.062049677   -1.2560967      0.12209495    -1.0409392      0.00070571144
   5203000   0.061127016   -1.240332       0.1222966     -1.0263568      0.01646213   
   5204000   0.061756794   -1.2465271      0.12019278    -1.0337111      0.0049917959 
   5205000   0.062130478   -1.2516524      0.1194039     -1.0390648      0.016782552  
   5206000   0.060636528   -1.2389357      0.12171246    -1.0262801      0.018160197  
   5207000   0.062533439   -1.2452984      0.12036391    -1.0311464     -0.018369757  
   5208000   0.060914753   -1.2559983      0.12150429    -1.0431337      0.0033441811 
   5209000   0.062620968   -1.2455002      0.11804011    -1.0335408      0.021060703  
   5210000   0.061210858   -1.2456652      0.12133112    -1.0325297      0.0024470761 
   5211000   0.061332634   -1.2483351      0.12140482    -1.0349432     -0.0030282065 
   5212000   0.061621468   -1.2546852      0.1202964     -1.0419686     -0.014107559  
   5213000   0.061900972   -1.2386336      0.12088667    -1.0249075      0.0035453725 
   5214000   0.061758201   -1.246986       0.11959235    -1.0347683      0.017885739  
   5215000   0.060897504   -1.2476248      0.12013911    -1.0361512      0.035682367  
   5216000   0.062683051   -1.250707       0.11959308    -1.0371015     -0.0014496465 
   5217000   0.062230851   -1.2457268      0.1203868     -1.0320058      5.9902937e-05
   5218000   0.060717692   -1.239481       0.12131565    -1.0271006     -0.0087371351 
   5219000   0.061735322   -1.2411474      0.12030839    -1.028248       0.019822345  
   5220000   0.061262558   -1.2620451      0.12092539    -1.0492377      0.022099328  
   5221000   0.061550874   -1.2283716      0.12082701    -1.0152302      0.0057530796 
   5222000   0.062191308   -1.2433742      0.12009393    -1.0300053      0.0051694271 
   5223000   0.061461213   -1.2415213      0.1202694     -1.0290719      0.011951949  
   5224000   0.060856939   -1.2367098      0.12108346    -1.0243527      0.019726398  
   5225000   0.061817692   -1.2402138      0.11855438    -1.0289448      0.018650699  
   5226000   0.061912447   -1.2325378      0.1190321     -1.020649       0.0017444077 
   5227000   0.061477028   -1.2459996      0.11969726    -1.0340987     -0.0079418551 
   5228000   0.060764723   -1.2448278      0.12052643    -1.033166       0.019079446  
   5229000   0.060268301   -1.2527612      0.11984112    -1.0425293      0.036510077  
   5230000   0.06139162    -1.2346959      0.12040679    -1.0222136     -0.011515884  
   5231000   0.061362833   -1.2448402      0.1203687     -1.0324392      0.0035524538 
   5232000   0.06135074    -1.237588       0.11942145    -1.0261523     -0.00056001081
   5233000   0.060853856   -1.2367286      0.12007004    -1.0253896      0.010424069  
   5234000   0.062098878   -1.2414983      0.11972516    -1.0286369     -0.009551533  
   5235000   0.062465105   -1.2566557      0.12164048    -1.0413296      0.023872841  
   5236000   0.061417824   -1.2303069      0.12140707    -1.016785       0.015322878  
   5237000   0.061187569   -1.2381499      0.12053398    -1.0258464      0.020372537  
   5238000   0.060528361   -1.2464792      0.11980163    -1.0358967      0.0071519193 
   5239000   0.061862504   -1.2368393      0.12033109    -1.0237264     -0.019538072  
   5240000   0.061502986   -1.2524284      0.11976625    -1.0404196      0.014343662  
   5241000   0.061865012   -1.2528634      0.11985544    -1.0402224      0.008855562  
   5242000   0.061543273   -1.2452923      0.12066868    -1.0323206      0.0050023774 
   5243000   0.061460937   -1.2452322      0.12005555    -1.0329971      0.014273774  
   5244000   0.062178835   -1.2438667      0.11928075    -1.0313297      0.030485263  
   5245000   0.06162429    -1.2648906      0.12035589    -1.0521102     -0.0016751058 
   5246000   0.061499163   -1.2435817      0.12053106    -1.0308138      0.0004907226 
   5247000   0.061932298   -1.2368019      0.12009963    -1.0238158      0.015312298  
   5248000   0.061171145   -1.2400264      0.12138199    -1.0268995      0.016658198  
   5249000   0.062150497   -1.2402503      0.11966286    -1.0273738      0.014750614  
   5250000   0.062215607   -1.2441977      0.12153586    -1.0293505      0.021519991  
   5251000   0.061606631   -1.2441453      0.11977648    -1.0319708      0.034048001  
   5252000   0.061720423   -1.2532939      0.12039512    -1.0403301      0.019288756  
   5253000   0.0617832     -1.2459721      0.12038277    -1.0329265     -0.00017328222
   5254000   0.061091723   -1.2538087      0.1192675     -1.0429155      0.030009416  
   5255000   0.061722641   -1.2456281      0.12097543    -1.0320806      0.0067532965 
   5256000   0.062250632   -1.2469369      0.11916097    -1.034412       0.036190377  
   5257000   0.061315585   -1.2349426      0.12032497    -1.0226561      0.0094347121 
   5258000   0.060851241   -1.2513428      0.1204094     -1.0396683      0.027781314  
   5259000   0.062279809   -1.2405248      0.12002655    -1.0270906      0.0038168742 
   5260000   0.061485491   -1.2511068      0.12133258    -1.0375579     -0.014083064  
   5261000   0.06327157    -1.2398273      0.12113166    -1.0238006      0.0079611389 
   5262000   0.061784494   -1.2455211      0.12028084    -1.0325755      0.01682746   
   5263000   0.061428085   -1.2383944      0.11904605    -1.0272182     -0.0054915802 
   5264000   0.062329389   -1.2253056      0.12072452    -1.011099      -0.0120472    
   5265000   0.061381331   -1.2427844      0.11928701    -1.0314372     -0.0087924769 
   5266000   0.061288317   -1.2549489      0.11988173    -1.0431466      0.0027663444 
   5267000   0.061171413   -1.244869       0.12111804    -1.0320057     -0.014753593  
   5268000   0.061235169   -1.2409854      0.12255799    -1.0265865     -0.00023293705
   5269000   0.061628883   -1.2530646      0.12041115    -1.0402221      0.0049319894 
   5270000   0.061280995   -1.2375632      0.12116752    -1.0244861      0.016071716  
   5271000   0.060885411   -1.246203       0.12036538    -1.0345213      0.019596348  
   5272000   0.060955074   -1.2447104      0.12118508    -1.0321045      0.0059781812 
   5273000   0.061586133   -1.2460545      0.12083889    -1.0328484      7.5196943e-05
   5274000   0.062553077   -1.2410099      0.12009386    -1.0270985     -0.015919831  
   5275000   0.060777946   -1.2467245      0.11992568    -1.0356437      0.0084944451 
   5276000   0.060877389   -1.2436516      0.1201774     -1.0321699      1.0968626e-05
   5277000   0.062070471   -1.2384812      0.12004574    -1.0253418      0.0099362264 
   5278000   0.061712605   -1.2498409      0.12199001    -1.0352939     -0.0015706816 
   5279000   0.06042797    -1.248423       0.12142192    -1.0363708      0.0047507081 
   5280000   0.062188924   -1.2402385      0.12156596    -1.0254012      0.0018146286 
   5281000   0.061089374   -1.2511353      0.1215028     -1.0380103     -0.003708658  
   5282000   0.062518578   -1.2521883      0.11962332    -1.0387992      0.0047203511 
   5283000   0.062365692   -1.2646842      0.12085576    -1.0502919      0.0066979024 
   5284000   0.06152727    -1.2348728      0.12173238    -1.0208614     -0.02700985   
   5285000   0.061591624   -1.2489061      0.11937098    -1.0371596     -0.0014929701 
   5286000   0.062197199   -1.2401173      0.12091855    -1.025915       0.017900667  
   5287000   0.060080073   -1.2559927      0.11951713    -1.0463671     -0.0027721996 
   5288000   0.060730171   -1.2380016      0.11947076    -1.0274473     -0.0070995929 
   5289000   0.061347823   -1.2444819      0.11984861    -1.0326234     -0.0016525097 
   5290000   0.061497498   -1.248248       0.11947545    -1.0365382      0.01738192   
   5291000   0.060636585   -1.255101       0.11976662    -1.0443912     -0.011282547  
   5292000   0.060614716   -1.2367327      0.12083524    -1.0249871     -0.0024016077 
   5293000   0.062243037   -1.2421236      0.12052918    -1.0282419      0.0016286131 
   5294000   0.060517851   -1.2510951      0.1206348     -1.0396952     -0.010126413  
   5295000   0.061270972   -1.2566966      0.1205589     -1.0442431      0.0074567162 
   5296000   0.06162176    -1.2483585      0.12045347    -1.0354843      0.0085578417 
   5297000   0.061257946   -1.239815       0.11980317    -1.0281368     -0.0045253205 
   5298000   0.061028463   -1.2559891      0.12208962    -1.0423686      0.00016609175
   5299000   0.061321789   -1.254721       0.12236037    -1.0403898     -0.013580357  
   5300000   0.061828409   -1.2429267      0.11978002    -1.030416       0.0021226665 
   5301000   0.061775501   -1.2537169      0.12166338    -1.0394022      0.019964143  
   5302000   0.062427935   -1.2303659      0.1193254     -1.0174107      0.041117969  
   5303000   0.062694491   -1.2549818      0.1215955     -1.0393567     -0.011161407  
   5304000   0.060793671   -1.2676299      0.12044108    -1.0560101     -0.010880084  
   5305000   0.060567645   -1.2491006      0.12148335    -1.0367775      0.0090939627 
   5306000   0.061969286   -1.24059        0.122019      -1.0256291      0.014397664  
   5307000   0.062703717   -1.2456913      0.11894789    -1.0327         0.029102463  
   5308000   0.061616826   -1.242427       0.12128882    -1.0287248      0.011178686  
   5309000   0.062193901   -1.2468626      0.12170676    -1.031877       0.0069401633 
   5310000   0.062386933   -1.2506451      0.12052497    -1.0365518      0.0055719826 
   5311000   0.061136554   -1.2505121      0.1208981     -1.037921       0.0023874167 
   5312000   0.062673864   -1.2441552      0.12201625    -1.0281403     -0.016325175  
   5313000   0.062362283   -1.2427994      0.11950628    -1.0297618      0.011289778  
   5314000   0.061760733   -1.2382262      0.12025886    -1.0253382     -0.0052453366 
   5315000   0.06201422    -1.2545051      0.12179762    -1.0396982      0.010956619  
   5316000   0.062414374   -1.2441567      0.11940095    -1.0311463     -0.0051286627 
   5317000   0.062563591   -1.2477297      0.12071925    -1.0331772      0.02583911   
   5318000   0.062438346   -1.2429347      0.11923432    -1.0300549      0.0072527808 
   5319000   0.062151603   -1.244382       0.11942542    -1.0317412      0.0068799221 
   5320000   0.060949044   -1.2491481      0.12136331    -1.036373      -0.020881915  
   5321000   0.061380621   -1.238362       0.12019344    -1.0261095     -0.0064882666 
   5322000   0.060831285   -1.2466189      0.11976072    -1.035623       0.032930415  
   5323000   0.060884609   -1.2484783      0.11993896    -1.0372242      0.02068312   
   5324000   0.060645813   -1.2423262      0.11968171    -1.0316875     -0.009811877  
   5325000   0.061471388   -1.2485165      0.12022635    -1.036095      -8.8157144e-05
   5326000   0.06146771    -1.2435438      0.11916249    -1.0321917      0.023444737  
   5327000   0.060951684   -1.241954       0.11846891    -1.0320693     -0.0015628252 
   5328000   0.060900698   -1.2485549      0.12052137    -1.0366943      0.0046345126 
   5329000   0.061548812   -1.2628531      0.11996842    -1.0505734      0.02467414   
   5330000   0.061305341   -1.2630274      0.11962581    -1.0514554     -0.00018986706
   5331000   0.060957801   -1.2515174      0.12065517    -1.0394373      0.016338491  
   5332000   0.060463542   -1.2516955      0.12203233    -1.0389795      0.0058681097 
   5333000   0.060269179   -1.254931       0.12102573    -1.0435132      0.011628872  
   5334000   0.059855221   -1.2478708      0.11948564    -1.0386139      0.0078643229 
   5335000   0.060825971   -1.2426111      0.11992985    -1.0314541      0.013743657  
   5336000   0.061878523   -1.2533973      0.11967588    -1.0409156      0.00073021247
   5337000   0.062023375   -1.2536766      0.1196726     -1.0409809      0.025238302  
   5338000   0.060807281   -1.2467919      0.12107273    -1.03452        0.018148188  
   5339000   0.060431171   -1.2514368      0.12069662    -1.0401052      0.031985813  
   5340000   0.0616221     -1.2501079      0.12039922    -1.0372874      0.0021439785 
   5341000   0.061796592   -1.2372394      0.12024519    -1.0243113      0.021476387  
   5342000   0.061500761   -1.2459046      0.12040706    -1.0332583      0.042333545  
   5343000   0.062721313   -1.2487879      0.12073422    -1.0339838      0.032560805  
   5344000   0.061491848   -1.2501134      0.11882725    -1.0390603      0.022432755  
   5345000   0.06095977    -1.2505621      0.1205186     -1.0386156      0.047893373  
   5346000   0.061361762   -1.2494502      0.12013634    -1.0372831      0.025093226  
   5347000   0.061889516   -1.2435         0.12095506    -1.0297226      0.019859543  
   5348000   0.061964069   -1.2402329      0.12191712    -1.0253817      0.023388318  
   5349000   0.060857558   -1.2656396      0.12037291    -1.0539921      0.01346623   
   5350000   0.061481384   -1.2475044      0.12006121    -1.035233       0.016127296  
   5351000   0.061299637   -1.2557445      0.12044679    -1.0433601      0.025041576  
   5352000   0.061793412   -1.2583782      0.11986065    -1.0458394     -0.021948205  
   5353000   0.060479453   -1.237192       0.11956973    -1.0269148      0.025351268  
   5354000   0.061640296   -1.2660283      0.11894238    -1.0546374      0.012067632  
   5355000   0.060812159   -1.245613       0.11942609    -1.0349804      0.040486276  
   5356000   0.061276565   -1.2425456      0.1193607     -1.0312819      0.036304217  
   5357000   0.061154787   -1.2531762      0.11874233    -1.0427135      0.031102168  
   5358000   0.061594901   -1.2638069      0.12075262    -1.0506738      0.0085356282 
   5359000   0.060810459   -1.2390875      0.12150077    -1.0263828     -0.01520629   
   5360000   0.06245196    -1.2441225      0.12028659    -1.0301701      0.01180695   
   5361000   0.06156112    -1.2435944      0.12144915    -1.0298155     -0.00016496455
   5362000   0.062390953   -1.2518204      0.11887941    -1.0393667      0.031074397  
   5363000   0.061474773   -1.2540472      0.12101086    -1.0408361      0.036863025  
   5364000   0.061714041   -1.2452639      0.11968499    -1.0330198      0.067029315  
   5365000   0.061496649   -1.2388085      0.12228468    -1.0242908      0.012054602  
   5366000   0.061438333   -1.2515756      0.12053204    -1.038898      -0.00097320708
   5367000   0.061005163   -1.2567066      0.12041195    -1.0447987     -0.0059873634 
   5368000   0.060683144   -1.2333058      0.11961133    -1.0226815      0.0088682201 
   5369000   0.061003589   -1.2321304      0.1211745     -1.0194623     -0.0061530494 
   5370000   0.061349681   -1.2562058      0.12170793    -1.0424852      0.045671718  
   5371000   0.062646074   -1.2419202      0.12026875    -1.0276944     -0.0078712886 
   5372000   0.062277824   -1.2585133      0.11941185    -1.0456968      0.024420938  
   5373000   0.061788838   -1.2580671      0.11961105    -1.0457848      0.021437227  
   5374000   0.061102664   -1.2497005      0.11902689    -1.0390315      0.0055982035 
   5375000   0.060346509   -1.2593503      0.12073603    -1.0481061      0.0095087415 
   5376000   0.060827914   -1.2518534      0.11894958    -1.0416738      0.00070277847
   5377000   0.060860483   -1.2391424      0.11983267    -1.0280308      0.0038651052 
   5378000   0.061664834   -1.2401654      0.11950007    -1.02818        0.037828223  
   5379000   0.060884812   -1.2491501      0.11995516    -1.0378795      0.0094673259 
   5380000   0.061740188   -1.2548961      0.1204085     -1.0418892      0.02581609   
   5381000   0.061230965   -1.2500478      0.11994038    -1.0382729      0.018894082  
   5382000   0.061477785   -1.2522534      0.12135533    -1.0386933      0.00098103216
   5383000   0.061091344   -1.2528655      0.12031641    -1.0409239      0.013529652  
   5384000   0.062522612   -1.2450089      0.11996668    -1.0312704      0.030468195  
   5385000   0.062054635   -1.2463718      0.11990354    -1.0333983      0.03183025   
   5386000   0.0612039     -1.2345971      0.11864479    -1.0241583      0.016617893  
   5387000   0.061658315   -1.2464849      0.11967799    -1.0343314      0.0090811389 
   5388000   0.061353977   -1.2607472      0.121866      -1.0468621     -0.0016083526 
   5389000   0.060717478   -1.251148       0.12123138    -1.0388522      0.03477599   
   5390000   0.061133305   -1.2575876      0.11971807    -1.0461814      0.035843914  
   5391000   0.061605678   -1.24528        0.12013554    -1.0327479     -0.0076637546 
   5392000   0.060828367   -1.2477111      0.12143873    -1.0350416      0.027789849  
   5393000   0.061083414   -1.2456236      0.12087582    -1.0331345      0.013966278  
   5394000   0.061906358   -1.2401589      0.12017479    -1.0271366      0.0031023902 
   5395000   0.060635936   -1.2509396      0.12120299    -1.0387944      0.0054410759 
   5396000   0.061493529   -1.2489442      0.11914393    -1.0375719      0.02151289   
   5397000   0.061954253   -1.2439065      0.11943774    -1.0315493     -0.012485024  
   5398000   0.061589397   -1.2407857      0.12132286    -1.0270907      0.015533994  
   5399000   0.062270297   -1.2497427      0.12152164    -1.0348276      0.023636118  
   5400000   0.062077707   -1.2508291      0.11784206    -1.0398825      0.040282068  
   5401000   0.061905233   -1.2547249      0.11906016    -1.0428189      0.025173905  
   5402000   0.061188337   -1.2478566      0.11980362    -1.0362823      0.026561494  
   5403000   0.061603111   -1.2478795      0.12115051    -1.0343363      0.025813217  
   5404000   0.061614837   -1.2508669      0.12161266    -1.0368439      0.0117514    
   5405000   0.061843363   -1.2547981      0.12029888    -1.0417461      0.01688733   
   5406000   0.06137561    -1.244828       0.1203072     -1.0324692      0.022341578  
   5407000   0.060779132   -1.2472806      0.1198432     -1.0362805     -0.010077716  
   5408000   0.06101748    -1.2535628      0.12027809    -1.0417703      0.029706117  
   5409000   0.061510397   -1.2499714      0.11972809    -1.0379896      0.026490757  
   5410000   0.060553886   -1.2444932      0.11989967    -1.0337744      0.024158603  
   5411000   0.061517492   -1.2406867      0.11975128    -1.0286711      0.045665494  
   5412000   0.061213348   -1.2494123      0.12024723    -1.0373569      0.020573674  
   5413000   0.061687282   -1.2455524      0.11939516    -1.0336382      0.0087014314 
   5414000   0.060844081   -1.2509888      0.1206102     -1.0391243      0.043158132  
   5415000   0.061735502   -1.2561253      0.12140861    -1.0421253      0.030797124  
   5416000   0.062091405   -1.2441823      0.12112951    -1.0299277      0.015559849  
   5417000   0.060672159   -1.2504209      0.12115079    -1.0382736      0.0099831133 
   5418000   0.061967827   -1.2499947      0.12319784    -1.0338571      0.024327255  
   5419000   0.061595668   -1.2253239      0.12291195    -1.0100303      0.039384303  
   5420000   0.06090704    -1.2449091      0.1212044     -1.032356       0.01506321   
   5421000   0.06088702    -1.2512309      0.12195538    -1.0379568      0.040728515  
   5422000   0.06149354    -1.2442732      0.12058312    -1.0314617      0.017930589  
   5423000   0.061357128   -1.2483774      0.12324169    -1.0331119      0.022198488  
   5424000   0.061964286   -1.2460473      0.12273037    -1.0303825      0.0030106648 
   5425000   0.061584914   -1.2502199      0.12320249    -1.034652       0.0066363985 
   5426000   0.062086694   -1.2592853      0.12185183    -1.0443154      0.0069243369 
   5427000   0.062370477   -1.2511048      0.12224678    -1.0353144      0.011845507  
   5428000   0.061481518   -1.2481214      0.12330432    -1.0326067      0.00012266922
   5429000   0.062103961   -1.2402607      0.12173876    -1.025378       0.017529595  
   5430000   0.062028301   -1.2316502      0.12350291    -1.0151169      0.034950093  
   5431000   0.062300008   -1.2476503      0.12277166    -1.0314407      0.0078207422 
   5432000   0.061055696   -1.2447624      0.12252481    -1.0306658      0.037668169  
   5433000   0.062306059   -1.2568942      0.12152221    -1.0419249      0.018875231  
   5434000   0.062185919   -1.238858       0.12204569    -1.0235455      0.038240321  
   5435000   0.060972073   -1.2491066      0.12162467    -1.0360357      0.045374533  
   5436000   0.060910806   -1.2444335      0.12077864    -1.0323005      0.0061354314 
   5437000   0.061736299   -1.2476535      0.12149104    -1.03357        0.055440965  
   5438000   0.062473782   -1.239392       0.12184357    -1.0238499      0.027405311  
   5439000   0.060842774   -1.2457657      0.12383388    -1.0306794      0.026041154  
   5440000   0.062825604   -1.2493949      0.12388288    -1.0312857      0.023905264  
   5441000   0.063126945   -1.2420211      0.12222782    -1.0251151      0.023655026  
   5442000   0.062064728   -1.2453236      0.12287512    -1.0293634      0.056062705  
   5443000   0.061500931   -1.2479901      0.12352581    -1.0322248      0.051390474  
   5444000   0.062102005   -1.2630128      0.12199884    -1.047873       0.031440721  
   5445000   0.061669515   -1.2527157      0.12132999    -1.0388934      0.071930831  
   5446000   0.061317549   -1.2460122      0.1212093     -1.0328384      0.029774694  
   5447000   0.061945444   -1.2519517      0.12032605    -1.0387194      0.030045068  
   5448000   0.061443858   -1.2501123      0.12125655    -1.0367018      0.03328577   
   5449000   0.061063383   -1.2417569      0.12231116    -1.0278625      0.037424205  
   5450000   0.061072275   -1.248823       0.12170888    -1.0355176      0.01784735   
   5451000   0.061537778   -1.245979       0.12285958    -1.0308246      0.040533576  
   5452000   0.06135351    -1.2542773      0.12199405    -1.0402649      0.015187247  
   5453000   0.061126023   -1.2730125      0.12246767    -1.0588676      0.021322998  
   5454000   0.061920091   -1.2408697      0.12207148    -1.02593        0.025344555  
   5455000   0.062394959   -1.2404121      0.12233629    -1.0244954      0.020162721  
   5456000   0.062884602   -1.2523564      0.12341757    -1.0346241      0.028400861  
   5457000   0.06141462    -1.2500971      0.12307212    -1.034915       0.042748915  
   5458000   0.062022607   -1.2525598      0.1217354     -1.0378025      0.0287968    
   5459000   0.061488331   -1.2418198      0.12359532    -1.0260039      0.02681417   
   5460000   0.061797393   -1.2538759      0.12205089    -1.0391408      0.009613468  
   5461000   0.061528601   -1.2369022      0.12634701    -1.0182742      0.011994978  
   5462000   0.060701804   -1.2658823      0.12134312    -1.0534982      0.05013794   
   5463000   0.060829916   -1.244053       0.12324208    -1.0295779      0.030415394  
   5464000   0.060831986   -1.2561943      0.12430175    -1.0406563      0.026057792  
   5465000   0.06160523    -1.2498179      0.12352147    -1.0339005      0.042185396  
   5466000   0.061886925   -1.2544775      0.12128725    -1.0403719      0.058993821  
   5467000   0.061515544   -1.2374819      0.12272622    -1.0224942      0.0053714608 
   5468000   0.062205586   -1.2524766      0.12265953    -1.0365207      0.049656499  
   5469000   0.061582679   -1.2483268      0.12299046    -1.0329742      0.036140275  
   5470000   0.061576929   -1.2483138      0.12347413    -1.0324862      0.021002825  
   5471000   0.062113696   -1.2448135      0.12130757    -1.0303474      0.046848149  
   5472000   0.062223467   -1.2574009      0.12016475    -1.043913       0.023975087  
   5473000   0.061392596   -1.2506208      0.12319771    -1.0353461      0.015300443  
   5474000   0.061446812   -1.2341841      0.12241998    -1.0196057      0.032347218  
   5475000   0.061410516   -1.2516538      0.12301651    -1.0365334      0.034233039  
   5476000   0.061333603   -1.2414398      0.12277998    -1.0266713      0.028287049  
   5477000   0.06115747    -1.244066       0.1222859     -1.0300558      0.026366717  
   5478000   0.062595083   -1.2581705      0.1237547     -1.0405353      0.0525475    
   5479000   0.062027516   -1.238278       0.12394419    -1.0213045      0.023862386  
   5480000   0.062395884   -1.2456645      0.12355078    -1.028532       0.029059396  
   5481000   0.061484582   -1.2525223      0.12206616    -1.0382412      0.03706843   
   5482000   0.061284665   -1.2608137      0.12221031    -1.0466882      0.045035207  
   5483000   0.061032972   -1.2410912      0.12348489    -1.0260686      0.022026723  
   5484000   0.061100084   -1.2598493      0.12125527    -1.0469558      0.045795362  
   5485000   0.06185998    -1.2538413      0.12180389    -1.0392594      0.050815878  
   5486000   0.061667926   -1.246082       0.12412453    -1.0294675      0.037650481  
   5487000   0.061621804   -1.2359723      0.12253634    -1.0210152      0.040572999  
   5488000   0.061733486   -1.2421052      0.12273532    -1.0267816      0.011503151  
   5489000   0.061861234   -1.2506782      0.12251938    -1.0353789      0.052839026  
   5490000   0.060926409   -1.2559291      0.12427764    -1.0402736      0.046227807  
   5491000   0.062093591   -1.2349912      0.12348197    -1.0183809      0.026469936  
   5492000   0.061571317   -1.2399685      0.12220258    -1.0254209      0.025588169  
   5493000   0.060861541   -1.2482316      0.12120115    -1.0357499      0.026718632  
   5494000   0.061539132   -1.2534573      0.12176635    -1.0393941      0.014362629  
   5495000   0.061038972   -1.241454       0.12226308    -1.0276443      0.0087401222 
   5496000   0.061547056   -1.2416122      0.12163413    -1.0276694      0.025102157  
   5497000   0.062081409   -1.2411068      0.12174983    -1.0262469      0.013394733  
   5498000   0.061882853   -1.23879        0.12053486    -1.0254428      0.00092478778
   5499000   0.061185972   -1.246627       0.12238319    -1.0324767      0.0069879837 
   5500000   0.06027894    -1.2454667      0.12062061    -1.0344394      0.010438625  
   5501000   0.060305325   -1.2479524      0.12239438    -1.0351117      0.002226108  
   5502000   0.061332723   -1.23767        0.12216008    -1.0235227      0.015967797  
   5503000   0.061358436   -1.2369876      0.12469352    -1.0202683      0.0235074    
   5504000   0.061401062   -1.2528755      0.123026      -1.0377598      0.036172219  
   5505000   0.0617553     -1.2499684      0.1226956     -1.0346518      0.012810268  
   5506000   0.061916627   -1.2428414      0.12251924    -1.0274592      0.033954573  
   5507000   0.061694399   -1.245556       0.12233637    -1.03069        0.010638133  
   5508000   0.061448831   -1.2419093      0.12097458    -1.0287734      0.012479142  
   5509000   0.061374849   -1.2483375      0.12198897    -1.0342981     -0.00062415136
   5510000   0.061771722   -1.2524005      0.12318512    -1.0365697      0.013570637  
   5511000   0.060475554   -1.2431752      0.12252117    -1.0299524      0.0064086638 
   5512000   0.061830438   -1.2496363      0.12147501    -1.0354276     -0.012256773  
   5513000   0.060900623   -1.2314367      0.12209802    -1.0179996     -0.032223728  
   5514000   0.061400057   -1.2422937      0.11988037    -1.0303251      0.0046918045 
   5515000   0.060503241   -1.2574678      0.1209856     -1.0457391      0.024661198  
   5516000   0.061737876   -1.2382903      0.12243384    -1.0232616      0.019580653  
   5517000   0.061740187   -1.2483875      0.12220942    -1.0335798      0.0026833455 
   5518000   0.062472005   -1.2469798      0.12210359    -1.0311803      0.028171671  
   5519000   0.061246896   -1.2600728      0.12206925    -1.0461451      0.012465704  
   5520000   0.061633032   -1.2470426      0.12252402    -1.0320809      0.0079617407 
   5521000   0.061871642   -1.2604828      0.12268867    -1.0449987     -0.0041661529 
   5522000   0.061551376   -1.2467541      0.12139623    -1.0330427      0.0068505119 
   5523000   0.06205141    -1.2412444      0.12328394    -1.0248953      0.011968554  
   5524000   0.061551497   -1.2481478      0.12416933    -1.0316631      0.0038484273 
   5525000   0.062187211   -1.2516904      0.12613388    -1.0322877     -0.019107942  
   5526000   0.062473606   -1.2407122      0.12187871    -1.0251351     -0.011132904  
   5527000   0.061954493   -1.2372896      0.12411423    -1.0202556      0.00016115365
   5528000   0.062512465   -1.2471981      0.12238734    -1.0310542      0.021470992  
   5529000   0.061006991   -1.2485379      0.12270974    -1.0343295      0.0099983577 
   5530000   0.062249691   -1.2507798      0.12229964    -1.0351177     -0.0039081163 
   5531000   0.062286576   -1.248324       0.12172782    -1.0331784     -0.0089986398 
   5532000   0.061486337   -1.2499641      0.12380485    -1.0339416     -0.0036689052 
   5533000   0.0608119     -1.2478452      0.12400074    -1.0326384      0.0053117318 
   5534000   0.062105577   -1.2558772      0.12211434    -1.0406165      0.019783806  
   5535000   0.061003384   -1.2438329      0.12295092    -1.0293887      0.016257657  
   5536000   0.062177973   -1.2710055      0.12233517    -1.0554154      0.00066723208
   5537000   0.062297111   -1.2535961      0.12236817    -1.0377944      0.011375596  
   5538000   0.061727769   -1.2500722      0.12279055    -1.0347019      0.020682195  
   5539000   0.060607511   -1.2538461      0.12175391    -1.0411927      0.023811098  
   5540000   0.061510984   -1.2449858      0.12216073    -1.0305705      0.017789612  
   5541000   0.061685951   -1.2478809      0.12321381    -1.0321501     -0.022481952  
   5542000   0.061589141   -1.2500777      0.12105779    -1.0366481      0.0054606916 
   5543000   0.062375775   -1.2550487      0.12100232    -1.0404948      0.00023824963
   5544000   0.061833321   -1.2485337      0.12203885    -1.0337568     -0.0075873886 
   5545000   0.061727405   -1.2383002      0.12115251    -1.0245685      0.017275598  
   5546000   0.060440899   -1.2492662      0.12263222    -1.0359843     -0.012216247  
   5547000   0.061168585   -1.2483859      0.12146885    -1.035176       0.0023684149 
   5548000   0.060799587   -1.2598564      0.12120895    -1.0474598     -0.0064018366 
   5549000   0.062237429   -1.241233       0.12245952    -1.0254293      0.0075347096 
   5550000   0.06197417    -1.2438656      0.12158211    -1.0293342      0.017856752  
   5551000   0.061056142   -1.2487978      0.12154444    -1.035681      -0.02313866   
   5552000   0.061819033   -1.2735481      0.12117421    -1.0596573      0.0030269803 
   5553000   0.061021239   -1.2647745      0.12306388    -1.0501906      0.0078670943 
   5554000   0.061641824   -1.2519435      0.12276188    -1.0367308      0.011763385  
   5555000   0.061091992   -1.2585012      0.12256106    -1.044314       0.0068778078 
   5556000   0.061286363   -1.2628778      0.12282545    -1.0481346     -0.020380821  
   5557000   0.061615035   -1.2512298      0.12283221    -1.035987       0.023906517  
   5558000   0.060726039   -1.2386281      0.12131242    -1.0262384     -0.00093315058
   5559000   0.061728611   -1.2451854      0.12234933    -1.0302551      0.0070719122 
   5560000   0.062289786   -1.2451568      0.12305005    -1.0286841      0.0011128616 
   5561000   0.062553294   -1.258281       0.12275895    -1.0417042     -0.0015535243 
   5562000   0.061945367   -1.2612713      0.12321721    -1.0451481      0.011353118  
   5563000   0.062202883   -1.2462985      0.12312317    -1.0298831     -0.004079098  
   5564000   0.062235964   -1.2420688      0.12198618    -1.0267407      0.018349853  
   5565000   0.062972568   -1.2522898      0.12153431    -1.0363089     -0.0084572683 
   5566000   0.062338556   -1.2527685      0.12331274    -1.03596       -0.019063237  
   5567000   0.063099228   -1.2578543      0.12252699    -1.0406907      0.0057637117 
   5568000   0.060849554   -1.2488814      0.12296747    -1.0346514      0.002243519  
   5569000   0.061828272   -1.2440094      0.12324702    -1.028032       0.020815375  
   5570000   0.061716613   -1.2387455      0.12302724    -1.0231553      0.032110077  
   5571000   0.061305777   -1.2585727      0.12057274    -1.0460532      0.016074093  
   5572000   0.061497145   -1.2569231      0.12255301    -1.0421363      0.02898415   
   5573000   0.06131135    -1.2392112      0.1227569     -1.0244992     -0.0031450552 
   5574000   0.061841344   -1.2665227      0.12268       -1.0510927      0.0054028988 
   5575000   0.062683998   -1.2598556      0.12404716    -1.0417945      0.0031989476 
   5576000   0.062829629   -1.2450871      0.12303321    -1.0278216      0.0052184437 
   5577000   0.061162048   -1.2457795      0.12245852    -1.0315898      0.019832733  
   5578000   0.061443514   -1.2403814      0.12273407    -1.025494       0.010024999  
   5579000   0.061839992   -1.2460548      0.12344064    -1.0298662     -0.011026647  
   5580000   0.062123884   -1.2493818      0.12140461    -1.0348034      0.01030123   
   5581000   0.061099693   -1.2459789      0.12355997    -1.0307812     -0.013927135  
   5582000   0.06107166    -1.2558987      0.12469949    -1.0396035     -0.011591519  
   5583000   0.06167348    -1.2466938      0.12424381    -1.0299517      0.0014107387 
   5584000   0.062200297   -1.2408471      0.12440273    -1.023156       0.0020743862 
   5585000   0.063008128   -1.2467724      0.12260723    -1.0296651      0.018708753  
   5586000   0.061793178   -1.2509003      0.12534533    -1.0328771     -0.0096519061 
   5587000   0.061476682   -1.2548765      0.12449713    -1.0381762      0.0075067044 
   5588000   0.061734066   -1.2508222      0.12285688    -1.0353762     -0.017929814  
   5589000   0.061417303   -1.2496489      0.12192889    -1.0356059      0.018793617  
   5590000   0.061307025   -1.2424003      0.12232205    -1.0281296      0.0064123889 
   5591000   0.061212568   -1.252108       0.12362554    -1.0366754      0.0043133086 
   5592000   0.062543615   -1.2590787      0.12360898    -1.0416664     -0.012462733  
   5593000   0.061755409   -1.2558776      0.12161737    -1.0416391      0.010492023  
   5594000   0.062110681   -1.2477364      0.12382779    -1.0307546      0.013010527  
   5595000   0.060935324   -1.2611453      0.1242708     -1.0454833      0.0013587778 
   5596000   0.062609086   -1.2385397      0.12357608    -1.0210621     -0.0024456046 
   5597000   0.063243385   -1.2513097      0.12261895    -1.0338379      0.0049612532 
   5598000   0.062287029   -1.2453804      0.12364772    -1.0283142      0.0030543234 
   5599000   0.061769456   -1.2428657      0.12470166    -1.0255219     -0.0099873675 
   5600000   0.061867794   -1.245187       0.12486039    -1.0275369     -0.0017748223 
   5601000   0.063049376   -1.2583113      0.12295445    -1.040795      -0.024100274  
   5602000   0.063562252   -1.2496323      0.1250436     -1.0292576      0.010633663  
   5603000   0.062713271   -1.2386264      0.12253048    -1.0220382     -0.012946589  
   5604000   0.0618705     -1.2480044      0.12329439    -1.0319162      0.0080171759 
   5605000   0.06189219    -1.2499217      0.12243812    -1.0346572     -0.0011115836 
   5606000   0.061774731   -1.2546535      0.12331807    -1.0386853      0.025052415  
   5607000   0.061681009   -1.2395737      0.12343954    -1.0236246      0.0045369948 
   5608000   0.061423719   -1.2524757      0.12494721    -1.0354048      0.020357525  
   5609000   0.062551195   -1.2491145      0.12399222    -1.0313076      0.0099551997 
   5610000   0.062929184   -1.2406992      0.12414936    -1.0221682      0.019224469  
   5611000   0.061676571   -1.2477799      0.12386299    -1.031414       0.0094972062 
   5612000   0.062456896   -1.2474353      0.12377034    -1.0299917      0.0047463705 
   5613000   0.060612302   -1.2628999      0.12504682    -1.0469463      0.013691981  
   5614000   0.062279897   -1.2421106      0.12353414    -1.0251686      0.015634381  
   5615000   0.061688601   -1.2444903      0.1239213     -1.0280481      0.0091609414 
   5616000   0.061286639   -1.2377629      0.12285187    -1.022993       0.014330692  
   5617000   0.062523903   -1.2438545      0.12432059    -1.0257602     -0.0079053432 
   5618000   0.062052398   -1.2469143      0.12346465    -1.0303831      0.0082126469 
   5619000   0.061994134   -1.2617872      0.12341213    -1.0453959     -0.0023507787 
   5620000   0.062193387   -1.2643541      0.12164099    -1.0494351     -0.0037086725 
   5621000   0.062287538   -1.2503438      0.12401786    -1.0329067      0.0050259922 
   5622000   0.061805966   -1.2514008      0.12179654    -1.0369073      0.0097283975 
   5623000   0.061787103   -1.2440919      0.12256405    -1.0288591     -0.0024189885 
   5624000   0.061850159   -1.2425028      0.12322827    -1.0265113     -0.002513763  
   5625000   0.061353452   -1.2563635      0.12457405    -1.0397712      0.02194221   
   5626000   0.061870495   -1.2375616      0.12389797    -1.0208698      0.0013159012 
   5627000   0.061894671   -1.2402025      0.12426248    -1.02311        0.0014269523 
   5628000   0.061726987   -1.2424457      0.1249708     -1.0248964      0.0051621176 
   5629000   0.0624428     -1.2502796      0.12407926    -1.0325482     -0.014112795  
   5630000   0.062013193   -1.2401513      0.12019262    -1.0269509      0.0097118255 
   5631000   0.062139029   -1.2482277      0.12307665    -1.0319545      0.00090883818
   5632000   0.06100406    -1.2396592      0.12293253    -1.0252324     -0.0031036418 
   5633000   0.061045703   -1.242606       0.12419851    -1.0268508      0.01971112   
   5634000   0.062360768   -1.2488475      0.12488593    -1.0304325      0.0049174258 
   5635000   0.060525893   -1.2561585      0.12382515    -1.0415562      0.0064064244 
   5636000   0.060525617   -1.2388136      0.12540334    -1.0226335     -0.0055428732 
   5637000   0.061405131   -1.2433231      0.12374885    -1.0274785      0.014092497  
   5638000   0.062364902   -1.2425943      0.12493563    -1.0241234      0.013758928  
   5639000   0.061658489   -1.2566222      0.1241245     -1.0400219      0.012695452  
   5640000   0.061339243   -1.248213       0.12277557    -1.0334404      0.0034901058 
   5641000   0.06198374    -1.2530675      0.12509672    -1.0350072     -0.0012484455 
   5642000   0.062330244   -1.2447745      0.12169665    -1.0295946      0.020524286  
   5643000   0.062376753   -1.2403586      0.12667196    -1.0201335      0.011865731  
   5644000   0.061919768   -1.261365       0.12602029    -1.042477      -0.0049953565 
   5645000   0.062156949   -1.2560457      0.12693677    -1.0358855     -0.034119059  
   5646000   0.061782214   -1.2368805      0.12438965    -1.0198294     -0.018196102  
   5647000   0.061137609   -1.2527843      0.12431865    -1.036771      -0.0016167279 
   5648000   0.062230447   -1.245685       0.12454164    -1.0278097      0.0013854462 
   5649000   0.061812709   -1.2555215      0.12413594    -1.0386785     -0.010673371  
   5650000   0.061111762   -1.2483675      0.12238943    -1.0343222     -0.0066408199 
   5651000   0.061929477   -1.2501471      0.12320581    -1.0340591     -0.018589749  
   5652000   0.061302481   -1.2395981      0.12376598    -1.0238902      0.0099347474 
   5653000   0.06218708    -1.2520537      0.12353299    -1.0352522     -0.0096101777 
   5654000   0.062424519   -1.2567769      0.12224962    -1.0409026      0.0077813894 
   5655000   0.062082849   -1.2616554      0.12119767    -1.0473455     -0.025310804  
   5656000   0.062737897   -1.2495984      0.11931189    -1.0361918      0.010046599  
   5657000   0.061961807   -1.258037       0.12128701    -1.0438192      0.02657043   
   5658000   0.061680746   -1.2556046      0.12037249    -1.0427229     -0.0055696978 
   5659000   0.061746543   -1.2516193      0.12076877    -1.0382427      0.010403341  
   5660000   0.062328582   -1.2429872      0.11918697    -1.0303194     -0.0061338897 
   5661000   0.06199029    -1.2561798      0.12062687    -1.0425795      0.0020641982 
   5662000   0.062688837   -1.246559       0.11962554    -1.0329123     -0.0075980581 
   5663000   0.062216874   -1.2574131      0.11944852    -1.0446513      8.4144216e-05
   5664000   0.061669985   -1.244347       0.12037135    -1.0314826      0.0032107376 
   5665000   0.060615284   -1.2502921      0.11943244    -1.0399485     -0.00060510196
   5666000   0.061284902   -1.2429913      0.119023      -1.0320528     -0.0058054384 
   5667000   0.06130444    -1.2517555      0.11922055    -1.0405901     -0.0011627995 
   5668000   0.062170011   -1.2523888      0.11889514    -1.0402507      0.0018500075 
   5669000   0.061373799   -1.2442019      0.12082712    -1.0313259      0.013815296  
   5670000   0.062228873   -1.2352806      0.12114178    -1.0208075     -0.0016154543 
   5671000   0.061654948   -1.253231       0.11936899    -1.0413915      0.0071574892 
   5672000   0.061117717   -1.2348721      0.12073722    -1.0224701      0.007760976  
   5673000   0.061067228   -1.2394378      0.12030801    -1.0275407      0.0025590659 
   5674000   0.061320961   -1.2575485      0.11867273    -1.0469062     -0.0085371137 
   5675000   0.061554011   -1.2491747      0.11845687    -1.0383987      0.0015206541 
   5676000   0.061780442   -1.251117       0.11985132    -1.038607       0.010455899  
   5677000   0.061500228   -1.2480781      0.12087746    -1.0349622      0.021529806  
   5678000   0.061629076   -1.2444884      0.11900312    -1.0330536     -0.0058929156 
   5679000   0.06190332    -1.2443906      0.11894672    -1.0326009      0.0064961421 
   5680000   0.062564623   -1.2580107      0.11833057    -1.0458453     -0.034430907  
   5681000   0.062464116   -1.2604251      0.12097861    -1.0457624     -0.0054201926 
   5682000   0.063126515   -1.2472068      0.12059614    -1.0319331     -0.0018838475 
   5683000   0.06117786    -1.243313       0.12146409    -1.030094       0.0010635099 
   5684000   0.061407566   -1.2454561      0.12044439    -1.0329122     -0.014806387  
   5685000   0.061040977   -1.2565782      0.11943883    -1.0455897     -0.011982905  
   5686000   0.061074305   -1.2451195      0.12020391    -1.033316      -0.0040099187 
   5687000   0.061260315   -1.2470473      0.12089558    -1.0342731     -0.0066192097 
   5688000   0.062472549   -1.2434276      0.12081874    -1.0289121     -0.028706965  
   5689000   0.061920788   -1.2400437      0.12015707    -1.0270174      0.00038574911
   5690000   0.061617973   -1.2456093      0.12106803    -1.0321262      0.026874931  
   5691000   0.061771635   -1.2390524      0.12165765    -1.0247492      0.0012634061 
   5692000   0.061909862   -1.2389606      0.12168063    -1.0244271      0.01603124   
   5693000   0.062167125   -1.2468575      0.12243743    -1.0311814      0.036289166  
   5694000   0.062148887   -1.2583135      0.12121879    -1.0438835      0.0061879707 
   5695000   0.061931673   -1.2530378      0.12241361    -1.0377387      0.0067775541 
   5696000   0.062012166   -1.2569164      0.12053061    -1.0433795      0.012220305  
   5697000   0.061850399   -1.2512627      0.12274498    -1.0357541     -0.0032740024 
   5698000   0.062195397   -1.2710851      0.12107765    -1.0567264      0.017890167  
   5699000   0.062212699   -1.2579992      0.12117961    -1.0435126     -0.0065822036 
   5700000   0.061604048   -1.2386327      0.12234031    -1.0238982     -0.014508376  
   5701000   0.061535568   -1.2410019      0.12314927    -1.0255611      0.0031525946 
   5702000   0.061838357   -1.2489643      0.12358857    -1.0326301     -0.029805987  
   5703000   0.061433785   -1.249455       0.12273787    -1.0345783     -0.0078610993 
   5704000   0.061985803   -1.2618413      0.122676      -1.0461986      0.0038356835 
   5705000   0.061562397   -1.2404493      0.12189987    -1.0262178     -0.0013922446 
   5706000   0.062430002   -1.2610116      0.12389624    -1.0434825     -0.0027842022 
   5707000   0.062688445   -1.2516357      0.12097427    -1.0366409      0.0043000343 
   5708000   0.061889421   -1.2479425      0.12379829    -1.031322      -0.029267023  
   5709000   0.062486761   -1.2594556      0.12469866    -1.0410389     -0.015582223  
   5710000   0.06148755    -1.2391921      0.12034694    -1.0266257      0.0012363438 
   5711000   0.061398998   -1.2511499      0.12270153    -1.0363618     -0.00076425792
   5712000   0.061686008   -1.2382722      0.12166857    -1.0240866     -0.021743155  
   5713000   0.061001638   -1.2508796      0.12257349    -1.0368155     -0.026098834  
   5714000   0.062047222   -1.2685563      0.12427407    -1.0512234      0.0082512614 
   5715000   0.062688562   -1.244294       0.12188328    -1.02839        0.0021914225 
   5716000   0.061258829   -1.2428928      0.12329652    -1.0277199     -0.017008062  
   5717000   0.061452502   -1.2579576      0.12303661    -1.0427541     -0.0036030415 
   5718000   0.061742814   -1.2561315      0.12239622    -1.041133       0.0094340009 
   5719000   0.062832352   -1.2555524      0.12192569    -1.0393903     -0.029047866  
   5720000   0.062140727   -1.2627716      0.12203392    -1.0475386      0.01405569   
   5721000   0.061199072   -1.2520694      0.12310174    -1.0371809      0.0060852047 
   5722000   0.061100684   -1.2432927      0.12284686    -1.0288067      0.014587682  
   5723000   0.062809866   -1.2517364      0.12242737    -1.0351064      0.0011396141 
   5724000   0.061491616   -1.2633092      0.12174313    -1.0493405     -0.022703965  
   5725000   0.062442318   -1.2631497      0.12242784    -1.0470705     -0.026015437  
   5726000   0.062442478   -1.2509283      0.12239877    -1.0348779      0.0017632722 
   5727000   0.061762727   -1.2493028      0.12124445    -1.0354262     -0.0045521919 
   5728000   0.060951341   -1.2401616      0.12062713    -1.0281193     -0.017516218  
   5729000   0.061461161   -1.2371188      0.12225493    -1.022684      -0.021153684  
   5730000   0.062279332   -1.2402771      0.12266209    -1.024208       0.0034680665 
   5731000   0.062978594   -1.254088       0.12160376    -1.0380285      0.011680246  
   5732000   0.062283627   -1.2518887      0.12268408    -1.0357912     -0.023894774  
   5733000   0.06153665    -1.2470893      0.12252724    -1.032269      -0.014429259  
   5734000   0.062511176   -1.2621675      0.12020482    -1.048208      -0.00018457393
   5735000   0.062264126   -1.2542566      0.12247939    -1.0383931     -0.0051679801 
   5736000   0.061273845   -1.2490998      0.12258453    -1.0346164     -0.0061104642 
   5737000   0.062863154   -1.250003       0.1206586     -1.0350618     -0.00045707639
   5738000   0.062136133   -1.2583362      0.11837251    -1.0467715     -0.0028572578 
   5739000   0.061044012   -1.2565646      0.11921429    -1.0457961      0.001581127  
   5740000   0.061513829   -1.2466972      0.12022337    -1.034215      -0.0033415976 
   5741000   0.060452391   -1.2531475      0.12025593    -1.0422247      0.0015016381 
   5742000   0.061697628   -1.2458333      0.12030181    -1.0329969     -0.010567163  
   5743000   0.061377542   -1.2489207      0.12100827    -1.035858      -0.023694007  
   5744000   0.061603837   -1.2500012      0.12045035    -1.037157      -0.019110713  
   5745000   0.062474787   -1.2565077      0.12061222    -1.0421954     -0.00021631966
   5746000   0.062279711   -1.2554805      0.1186666     -1.0434064      0.0084219588 
   5747000   0.062117895   -1.245221       0.12018517    -1.031871       0.012241431  
   5748000   0.062276241   -1.2551133      0.12170195    -1.040009      -0.0062321549 
   5749000   0.060641222   -1.260861       0.12150719    -1.0484037     -0.0093963605 
   5750000   0.061608555   -1.2551999      0.12091985    -1.0418791     -0.012585594  
   5751000   0.062040565   -1.2606717      0.1209507     -1.0466722     -0.011011622  
   5752000   0.061195327   -1.2402575      0.1210493     -1.027427       0.022149198  
   5753000   0.061676123   -1.2412011      0.11931195    -1.0293869     -0.017743626  
   5754000   0.062499084   -1.2381138      0.11815163    -1.0262257      0.011064716  
   5755000   0.061992727   -1.2461214      0.1182362     -1.0349081      0.017027417  
   5756000   0.0621836     -1.2435097      0.11949625    -1.0307501      0.024212518  
   5757000   0.06276956    -1.2510013      0.1176306     -1.0392285      0.011047323  
   5758000   0.061799676   -1.2475279      0.11942536    -1.035415       0.0022627946 
   5759000   0.061182012   -1.2500329      0.1184594     -1.0398124      0.017451192  
   5760000   0.061050936   -1.2458438      0.12066683    -1.0336124      0.0018202894 
   5761000   0.061590221   -1.2501034      0.11874397    -1.038986       0.0058179381 
   5762000   0.06250764    -1.2554481      0.11892105    -1.0427777     -0.0017663902 
   5763000   0.061751924   -1.2537851      0.12187528    -1.0392939     -0.0054930258 
   5764000   0.061581457   -1.2466299      0.11897103    -1.0352986      0.0085532932 
   5765000   0.061019291   -1.2477703      0.11882807    -1.0374251     -0.013662367  
   5766000   0.060961303   -1.2368464      0.1192215     -1.0261947     -0.002016368  
   5767000   0.060896139   -1.2486504      0.11795595    -1.039362       0.020048011  
   5768000   0.062373478   -1.2674502      0.11920492    -1.0546972      0.0018410804 
   5769000   0.063033377   -1.2480348      0.12005361    -1.0334433     -0.006861348  
   5770000   0.060694636   -1.2523728      0.11915474    -1.0421878      0.0027373097 
   5771000   0.061261262   -1.2552325      0.11918109    -1.0441714      0.0025653322 
   5772000   0.061107161   -1.2524062      0.11947755    -1.0412797     -0.00017717633
   5773000   0.061632653   -1.2484039      0.11921836    -1.0367485     -0.018459804  
   5774000   0.060700496   -1.2444624      0.11939423    -1.0340292      0.00063092146
   5775000   0.061382272   -1.2561099      0.11858431    -1.0454641      0.0025642245 
   5776000   0.06190219    -1.2506055      0.12003248    -1.0377317     -0.017734903  
   5777000   0.061605887   -1.252492       0.12137856    -1.0387165     -0.021284996  
   5778000   0.061601911   -1.2414056      0.12018041    -1.0288342      0.01447125   
   5779000   0.062334463   -1.2529005      0.12216978    -1.0372411     -0.0071169849 
   5780000   0.061995353   -1.2322302      0.12184797    -1.0174012     -0.0028857299 
   5781000   0.061157164   -1.2433228      0.11905094    -1.0325479      0.0020594026 
   5782000   0.061576939   -1.2501135      0.11946505    -1.0382949     -0.0020123854 
   5783000   0.061839318   -1.2547909      0.12083776    -1.0412061     -0.0052247172 
   5784000   0.061861054   -1.2472126      0.12003823    -1.0343947     -0.010899857  
   5785000   0.061742936   -1.2298967      0.12147003    -1.0158242      0.0019564564 
   5786000   0.061784145   -1.2506097      0.12044309    -1.0375023      0.0059813173 
   5787000   0.061363936   -1.254129       0.1202112     -1.0418838     -0.0055856427 
   5788000   0.062231543   -1.2434808      0.12139563    -1.0287499     -0.006700149  
   5789000   0.06286622    -1.2402217      0.12063647    -1.0252981     -0.017745651  
   5790000   0.061942907   -1.252336       0.12057071    -1.038863      -0.0065609794 
   5791000   0.061817282   -1.2484564      0.12209938    -1.0336431     -0.008008321  
   5792000   0.062348873   -1.2419613      0.12156001    -1.0268901     -0.017456663  
   5793000   0.062326638   -1.2617213      0.12285654    -1.0453869     -0.014220743  
   5794000   0.061813355   -1.2606091      0.12116453    -1.0467365     -0.024709181  
   5795000   0.060228905   -1.2566828      0.12257082    -1.0437802      0.0079211639 
   5796000   0.061920172   -1.2549905      0.12130394    -1.0408183      0.0037053352 
   5797000   0.062433889   -1.2566537      0.12055871    -1.0424563      0.00062488287
   5798000   0.060858567   -1.2512482      0.12238789    -1.0375843     -0.0059946989 
   5799000   0.061671887   -1.2599485      0.12004157    -1.047411      -0.018564519  
   5800000   0.061155647   -1.2582796      0.11877157    -1.0477864      0.0014350606 
   5801000   0.061068137   -1.2634433      0.1204656     -1.0513873     -0.00057815947
   5802000   0.062741344   -1.2518553      0.12182671    -1.0359287     -0.0075364458 
   5803000   0.062416729   -1.2480313      0.12153368    -1.0328846      0.025391424  
   5804000   0.062772025   -1.2598656      0.12264809    -1.0430716      0.0032506898 
   5805000   0.062388316   -1.2494604      0.12198061    -1.0339094     -0.01073507   
   5806000   0.062030554   -1.2501044      0.12334672    -1.0337239      0.0049619751 
   5807000   0.061646488   -1.2385556      0.11920537    -1.0268924     -0.0087648085 
   5808000   0.060863989   -1.2361848      0.12263421    -1.0222664     -0.002164304  
   5809000   0.061194274   -1.2534578      0.12314184    -1.0385364     -0.011116903  
   5810000   0.061269199   -1.2463688      0.12391694    -1.0305599     -0.023447541  
   5811000   0.062361734   -1.2424796      0.12233522    -1.0266138      0.0062444434 
   5812000   0.0610938     -1.25523        0.1236846     -1.0399165     -0.027839618  
   5813000   0.06187174    -1.2374886      0.12368733    -1.0210056     -0.010355975  
   5814000   0.06203014    -1.2514187      0.12395389    -1.0344316     -0.019642775  
   5815000   0.061488408   -1.2603667      0.11938667    -1.0487593     -0.012084725  
   5816000   0.062101565   -1.2590717      0.12275253    -1.0431789     -0.0016485549 
   5817000   0.062715199   -1.2548079      0.1214215     -1.0393257     -0.020200079  
   5818000   0.062364749   -1.243491       0.12168037    -1.0282756     -0.0094893347 
   5819000   0.061065821   -1.2560945      0.12127181    -1.0432358      0.00040980468
   5820000   0.062098399   -1.2542995      0.1221831     -1.0389808     -0.009869205  
   5821000   0.06200801    -1.244653       0.12307595    -1.028577      -0.021693252  
   5822000   0.061719802   -1.2534576      0.12158787    -1.039302       0.011480252  
   5823000   0.062543665   -1.2447869      0.12339144    -1.0275921     -0.0075833268 
   5824000   0.061294768   -1.250585       0.12342968    -1.0352251     -0.0075486166 
   5825000   0.061686418   -1.262045       0.12384163    -1.0456857      0.0086574276 
   5826000   0.061981921   -1.2495216      0.12201626    -1.0345444     -0.012377212  
   5827000   0.062159466   -1.2491059      0.12300017    -1.0328785     -0.0014517442 
   5828000   0.062377596   -1.2282665      0.12328533    -1.0114269     -0.0091295608 
   5829000   0.063079353   -1.2511734      0.12321929    -1.0333472     -0.009923352  
   5830000   0.062194158   -1.2579879      0.12271804    -1.0419907     -0.0050699464 
   5831000   0.063102555   -1.2511418      0.12298537    -1.0335148     -0.032927333  
   5832000   0.062528512   -1.2456429      0.12168188    -1.0301804     -0.014205938  
   5833000   0.0614527     -1.2479379      0.12173817    -1.0340325     -0.025159907  
   5834000   0.061932499   -1.2491382      0.12223556    -1.0340159     -0.0237993    
   5835000   0.061616968   -1.2616515      0.12378774    -1.0454502     -0.011801059  
   5836000   0.062850583   -1.2593195      0.12364238    -1.0414134     -0.011893882  
   5837000   0.062252691   -1.2410315      0.12433102    -1.0233335     -0.0037768098 
   5838000   0.06135397    -1.2478663      0.12296649    -1.0328807     -0.01694493   
   5839000   0.061905427   -1.2530824      0.12354582    -1.0366904     -0.016253116  
   5840000   0.061677456   -1.2531631      0.12409894    -1.0365599     -0.003243848  
   5841000   0.061869471   -1.2443073      0.12167121    -1.0298438     -0.0012216539 
   5842000   0.0629497     -1.2407695      0.12286566    -1.0234915     -0.00618432   
   5843000   0.062440451   -1.2617201      0.1255078     -1.0425638     -0.020007978  
   5844000   0.062626116   -1.2553426      0.12436189    -1.0370537     -0.012238113  
   5845000   0.063078755   -1.2415076      0.12387157    -1.0230301     -0.0096726434 
   5846000   0.06193794    -1.242611       0.12358383    -1.0261322     -0.0092176406 
   5847000   0.062156528   -1.2387763      0.1228483     -1.0227052     -0.02019688   
   5848000   0.061671886   -1.2405417      0.12283752    -1.0252083      0.0024004754 
   5849000   0.061807154   -1.2550112      0.12652502    -1.0357874     -0.018109911  
   5850000   0.062900552   -1.2435754      0.12476157    -1.0244752     -0.033197793  
   5851000   0.061729575   -1.2500545      0.12383135    -1.0336407     -0.035592182  
   5852000   0.063310905   -1.2470227      0.12397889    -1.0280897     -0.016271853  
   5853000   0.062568144   -1.2522613      0.12497233    -1.0334489     -0.0016486019 
   5854000   0.062269133   -1.2549342      0.12361454    -1.037928      -0.0085808328 
   5855000   0.061976378   -1.2456105      0.12566662    -1.0269913     -0.02327928   
   5856000   0.062538553   -1.2573241      0.12649209    -1.0370363     -0.013909097  
   5857000   0.062512963   -1.2485592      0.1261866     -1.0286152     -0.017156443  
   5858000   0.062923557   -1.2472337      0.12522288    -1.0276376     -0.0059755237 
   5859000   0.062944531   -1.2609337      0.12634728    -1.0401818     -0.0073739709 
   5860000   0.062372537   -1.2522996      0.12768294    -1.03107       -0.014277692  
   5861000   0.062815883   -1.2535857      0.12525774    -1.0341163     -0.0047841145 
   5862000   0.061982796   -1.2567173      0.12408944    -1.0396656     -0.018813347  
   5863000   0.062082369   -1.2530635      0.12472244    -1.0352295     -0.028335785  
   5864000   0.061908975   -1.2521911      0.12566291    -1.0336767     -0.031517602  
   5865000   0.062576165   -1.2583206      0.12517974    -1.0392888     -0.013200049  
   5866000   0.062847712   -1.2394873      0.12440292    -1.020825      -0.023336838  
   5867000   0.062429646   -1.2421956      0.12479662    -1.0237666      0.0046678214 
   5868000   0.06228723    -1.245801       0.12380595    -1.0285762     -0.010264766  
   5869000   0.062046316   -1.2505978      0.12441718    -1.0331231     -0.027150771  
   5870000   0.062088146   -1.2426354      0.12323391    -1.0262813     -0.019049643  
   5871000   0.061995148   -1.2505967      0.12469993    -1.0329161     -0.020922104  
   5872000   0.063036213   -1.2523424      0.12533054    -1.0324698     -0.019381773  
   5873000   0.061840972   -1.2532244      0.1243783     -1.0360966     -0.037976002  
   5874000   0.062874201   -1.2444334      0.12566668    -1.0244675     -0.013407675  
   5875000   0.061810076   -1.2453235      0.1256607     -1.0269596     -0.025705881  
   5876000   0.06272802    -1.2501111      0.12332018    -1.032711       0.00381643   
   5877000   0.061848579   -1.2432895      0.12238856    -1.02814       -0.0031803673 
   5878000   0.061295427   -1.2418679      0.12150249    -1.0284341      0.012042263  
   5879000   0.06257911    -1.2519182      0.12049222    -1.0375695     -0.0081841439 
   5880000   0.061108894   -1.2745141      0.12206687    -1.0607957      0.00021697951
   5881000   0.063128312   -1.2540969      0.12049116    -1.0389255     -0.002519948  
   5882000   0.06121544    -1.2551952      0.1213954     -1.0419885     -0.013034451  
   5883000   0.0627628     -1.2532382      0.12001226    -1.0390939     -0.0049714452 
   5884000   0.062485948   -1.2530989      0.12105955    -1.0383226      0.00065162546
   5885000   0.061928992   -1.2437563      0.12132792    -1.0295469      0.001720964  
   5886000   0.062565036   -1.2411056      0.12053867    -1.0267315     -0.015852617  
   5887000   0.06279982    -1.2528012      0.12173713    -1.0368765     -0.006972465  
   5888000   0.062360346   -1.2337459      0.11970667    -1.0205108     -0.0046924459 
   5889000   0.062115185   -1.2592103      0.1218386     -1.0442109     -0.010131807  
   5890000   0.061003109   -1.2491198      0.12029877    -1.0373282      0.0043344602 
   5891000   0.062035367   -1.2565046      0.12104982    -1.0424138     -0.030614657  
   5892000   0.061192745   -1.2512816      0.12051705    -1.0389873     -0.0075924509 
   5893000   0.062379276   -1.2544446      0.12055176    -1.040336       0.00010325775
   5894000   0.062034009   -1.2551185      0.12220646    -1.039873      -0.023875018  
   5895000   0.06168474    -1.2604345      0.12202345    -1.0458958     -0.013478319  
   5896000   0.062471921   -1.2509556      0.12256247    -1.0346973      0.0032279463 
   5897000   0.062122468   -1.2476254      0.1210009     -1.0334528      0.0076371669 
   5898000   0.062544903   -1.2507476      0.12318788    -1.0337544     -0.017949797  
   5899000   0.061812706   -1.2470021      0.1232884     -1.0310066     -0.014861438  
   5900000   0.063012321   -1.2480041      0.12284802    -1.0306498     -0.0095465859 
   5901000   0.063751995   -1.2347087      0.12095596    -1.0181371      0.0097847559 
   5902000   0.063579697   -1.248654       0.12066936    -1.0326274     -0.0041128754 
   5903000   0.063721549   -1.2538353      0.12163061    -1.0366347      0.0086928437 
   5904000   0.063001195   -1.2486472      0.12041596    -1.0337416      0.0057241627 
   5905000   0.062553301   -1.2552326      0.12128905    -1.0401257      0.0054269811 
   5906000   0.063534263   -1.2480072      0.12092847    -1.0317896      0.023255661  
   5907000   0.063561055   -1.2353099      0.11886552    -1.0211151      0.014232239  
   5908000   0.06330286    -1.2495361      0.12116292    -1.0334311     -0.016024243  
   5909000   0.062549394   -1.2346565      0.11982897    -1.0210156      0.023296892  
   5910000   0.062787609   -1.255216       0.1193497     -1.0416971      0.0097301536 
   5911000   0.063129686   -1.2457704      0.11900808    -1.03208        0.017984366  
   5912000   0.063926573   -1.2625664      0.11982016    -1.0468688      0.0042746171 
   5913000   0.063188165   -1.2512747      0.11899478    -1.0375099      0.017840064  
   5914000   0.063763459   -1.2505159      0.11904232    -1.0358407     -0.0045779867 
   5915000   0.062428707   -1.2487155      0.11927996    -1.0358045      0.0035041168 
   5916000   0.062441187   -1.2448789      0.12026559    -1.0309636      0.016867761  
   5917000   0.062103968   -1.2505016      0.11759269    -1.039765       0.0044378118 
   5918000   0.06227575    -1.2484088      0.11890537    -1.0361019      0.014454074  
   5919000   0.060450792   -1.2581591      0.11968981    -1.0478048      0.0055742007 
   5920000   0.063608145   -1.2564381      0.12039163    -1.0406466      0.034417935  
   5921000   0.062099511   -1.2423332      0.11927289    -1.029923       0.028290219  
   5922000   0.062929903   -1.2518673      0.1180288     -1.0394558      0.015990949  
   5923000   0.062003249   -1.2455417      0.11906328    -1.0334855      0.029004018  
   5924000   0.061209574   -1.2362733      0.11884299    -1.0256278      0.002439757  
   5925000   0.062181326   -1.2501559      0.1182912     -1.0386048      0.002042366  
   5926000   0.062968134   -1.2470035      0.11984068    -1.0327228      0.012815336  
   5927000   0.063568395   -1.2472011      0.11840412    -1.0334567      0.010234656  
   5928000   0.062498731   -1.2505812      0.11988599    -1.0369592      0.0066964107 
   5929000   0.061710649   -1.2572892      0.11911999    -1.0456152      0.010030237  
   5930000   0.062767826   -1.2495798      0.12068393    -1.0347563      0.0051677883 
   5931000   0.062265805   -1.2459479      0.1192842     -1.033277      -0.014169992  
   5932000   0.063060153   -1.2512363      0.12095929    -1.035699      -0.00050958708
   5933000   0.062050814   -1.2531984      0.11950735    -1.0406268      0.026603618  
   5934000   0.062047918   -1.2559318      0.12122292    -1.041649       0.011609984  
   5935000   0.062556083   -1.2494757      0.11940939    -1.0362442      0.025230401  
   5936000   0.061662553   -1.2470546      0.12037869    -1.0341941     -0.0099535279 
   5937000   0.062231882   -1.2530843      0.12202071    -1.0377278      0.002856054  
   5938000   0.062611962   -1.2640059      0.11959665    -1.0505035     -0.0032597689 
   5939000   0.062077847   -1.2516122      0.12059157    -1.0379159     -0.010649459  
   5940000   0.062639633   -1.250068       0.12349209    -1.0326285     -0.0024497311 
   5941000   0.063505833   -1.2443783      0.11983203    -1.0292998     -0.003996482  
   5942000   0.063499651   -1.2464665      0.12063587    -1.0305935      0.0047052743 
   5943000   0.06226464    -1.2540636      0.12095391    -1.0397247     -0.0020206322 
   5944000   0.062269823   -1.2368139      0.12238685    -1.0210344     -0.0225331    
   5945000   0.062931089   -1.2505514      0.12109312    -1.0350738     -0.020530972  
   5946000   0.062264007   -1.2550651      0.11948815    -1.042193      -0.014017244  
   5947000   0.063189947   -1.2687048      0.12034895    -1.0535832      0.015946292  
   5948000   0.062505558   -1.2493534      0.12306008    -1.0325471      0.014158712  
   5949000   0.062824072   -1.2578061      0.1206496     -1.0429326      0.010910396  
   5950000   0.062709089   -1.2561536      0.12349291    -1.0386092      0.013426759  
   5951000   0.062008432   -1.2425309      0.12191236    -1.0276179      0.010540413  
   5952000   0.06196263    -1.255996       0.12229873    -1.0407654      0.011139722  
   5953000   0.061914475   -1.2357863      0.12027124    -1.0226553     -0.0034039864 
   5954000   0.061395619   -1.2516884      0.11980457    -1.0398023     -0.0041252641 
   5955000   0.062355361   -1.2567462      0.11890476    -1.0443205     -0.011701     
   5956000   0.062457837   -1.2514984      0.12296095    -1.0348627      0.0052917284 
   5957000   0.062395532   -1.2437448      0.11970416    -1.0304594      0.018136571  
   5958000   0.062008118   -1.2390954      0.12178511    -1.0243102     -0.0030529014 
   5959000   0.062663705   -1.2451601      0.12026177    -1.0309149      0.01471234   
   5960000   0.061240504   -1.2532519      0.12126576    -1.0401372      0.023197235  
   5961000   0.062695563   -1.2538231      0.1208227     -1.0389692     -0.0058497709 
   5962000   0.063414814   -1.2607856      0.12064676    -1.0450289      0.021276075  
   5963000   0.062530547   -1.2527888      0.11989939    -1.0391057      0.015421633  
   5964000   0.063084854   -1.2388718      0.12238914    -1.0218676      0.018764517  
   5965000   0.063202527   -1.2530691      0.12159923    -1.0366784      0.017041711  
   5966000   0.061870592   -1.2424099      0.12143313    -1.0281828     -0.0066057124 
   5967000   0.063025762   -1.2547264      0.1212258     -1.0389742      0.026006079  
   5968000   0.06243306    -1.2487937      0.11948618    -1.03567        0.016691173  
   5969000   0.062544934   -1.252779       0.12275781    -1.0362159      0.010019976  
   5970000   0.062301494   -1.2553147      0.12033199    -1.0415425      0.0093456844 
   5971000   0.062136953   -1.2430398      0.1210583     -1.0287881      0.0019225992 
   5972000   0.063373709   -1.2591029      0.12251512    -1.0415395      0.016075226  
   5973000   0.062101643   -1.2532137      0.12163629    -1.038437       0.0078775204 
   5974000   0.062852918   -1.245828       0.12204797    -1.0295129      0.0087102679 
   5975000   0.062480156   -1.2399119      0.12050485    -1.0256989     -0.00095419125
   5976000   0.062447323   -1.2540587      0.12125272    -1.0391471     -0.0017683911 
   5977000   0.061852579   -1.2538284      0.12049235    -1.0405692      0.016325776  
   5978000   0.062919076   -1.2558871      0.12302476    -1.0384959      0.0067877376 
   5979000   0.062411733   -1.242777       0.12239027    -1.0267812     -0.007417908  
   5980000   0.062916142   -1.249174       0.12185911    -1.0329529      0.012254444  
   5981000   0.062481795   -1.2608342      0.12356481    -1.0435588      0.027503531  
   5982000   0.062792011   -1.245923       0.12240294    -1.0293442     -0.0016176656 
   5983000   0.062371866   -1.258088       0.12199341    -1.0425489      0.0099655424 
   5984000   0.061986773   -1.2490848      0.12233802    -1.0337787      0.0056906454 
   5985000   0.062718217   -1.2497515      0.12137101    -1.0343153     -0.0030150388 
   5986000   0.063124074   -1.2476685      0.12251073    -1.0304838      0.0073180906 
   5987000   0.06307911    -1.2433414      0.12271223    -1.0260227      0.018532838  
   5988000   0.062377697   -1.262734       0.12292618    -1.0462533     -0.021536856  
   5989000   0.062778535   -1.2416253      0.1222382     -1.0252315     -0.0078130571 
   5990000   0.062439877   -1.2586462      0.12313936    -1.0418591     -0.0011475903 
   5991000   0.062527186   -1.2484314      0.12224991    -1.0324028      0.021115094  
   5992000   0.061564661   -1.2512263      0.12208614    -1.0368051     -0.0014134336 
   5993000   0.06238524    -1.2597353      0.12372192    -1.0424476      0.018892315  
   5994000   0.062428946   -1.2480003      0.12194904    -1.03242        0.0031741562 
   5995000   0.061438807   -1.250848       0.12607249    -1.0326292      0.022091557  
   5996000   0.062967644   -1.2538889      0.12392153    -1.0355281      0.0015599427 
   5997000   0.062953245   -1.2465807      0.12335404    -1.0288089      0.010740676  
   5998000   0.062849657   -1.2454423      0.12530206    -1.0258779      0.013466171  
   5999000   0.062892148   -1.2503751      0.12271699    -1.0333321      0.016437321  
   6000000   0.063471085   -1.2365822      0.12573993    -1.0156479      0.0030584379 
   6001000   0.063512809   -1.2465644      0.12508692    -1.0262206      0.015535116  
   6002000   0.063430481   -1.2494639      0.12585369    -1.0284767      0.018696522  
   6003000   0.063172687   -1.2473151      0.12359523    -1.0289731      0.025057337  
   6004000   0.063765828   -1.2352425      0.12591665    -1.0136894      0.01450641   
   6005000   0.063265719   -1.2476674      0.12483671    -1.0279444      0.018178662  
   6006000   0.063649859   -1.2563738      0.12442202    -1.0364893      0.02051259   
   6007000   0.062479733   -1.2418884      0.1240289     -1.024152       0.013729136  
   6008000   0.063095563   -1.249967       0.12400416    -1.0313317      0.019836612  
   6009000   0.063175438   -1.2574683      0.12591177    -1.0368056      0.024001335  
   6010000   0.063881549   -1.2528178      0.12465258    -1.0323552      0.005453276  
   6011000   0.064462947   -1.2539564      0.12578161    -1.0314929      0.023732335  
   6012000   0.063038014   -1.2599901      0.12451656    -1.0409287      0.019249807  
   6013000   0.062590783   -1.2468844      0.1247525     -1.0282578      0.028534349  
   6014000   0.062936057   -1.242644       0.12258258    -1.0256695      0.011505306  
   6015000   0.062720152   -1.2543873      0.12634636    -1.0339728      0.021841216  
   6016000   0.06289614    -1.2428973      0.12544697    -1.0231183      0.019567752  
   6017000   0.063731492   -1.2542756      0.12524129    -1.0334494      0.015158547  
   6018000   0.064484319   -1.2514622      0.12626758    -1.0284806      0.0070778172 
   6019000   0.063777398   -1.2567187      0.12487925    -1.0361857      0.018902564  
   6020000   0.064335675   -1.2499392      0.12611675    -1.0273314      0.016587584  
   6021000   0.065174958   -1.2546561      0.1281332     -1.028773       0.0032883004 
   6022000   0.063647914   -1.2481065      0.12583438    -1.0268126      0.027201723  
   6023000   0.063229798   -1.2508957      0.12536369    -1.0306996      0.012552042  
   6024000   0.063708229   -1.2438992      0.12398192    -1.0243673      0.034789044  
   6025000   0.063190908   -1.2437487      0.12473837    -1.0242362      0.013867133  
   6026000   0.06150321    -1.2503049      0.12634599    -1.031716      -0.005511834  
   6027000   0.063187734   -1.2412687      0.12357067    -1.0229286      0.0017923863 
   6028000   0.063329496   -1.2435212      0.12546312    -1.0230761      0.020003261  
   6029000   0.063614143   -1.2587734      0.12718386    -1.0361806      0.021419467  
   6030000   0.06377983    -1.2504791      0.12579807    -1.0290236      0.0016331698 
   6031000   0.06351244    -1.2501137      0.12522458    -1.0296327      0.016457534  
   6032000   0.063843782   -1.2449151      0.12452124    -1.0246405      0.0091395027 
   6033000   0.063835682   -1.2409458      0.12305394    -1.0221507      0.01748047   
   6034000   0.06384658    -1.2484166      0.12520698    -1.0274521     -0.0035922352 
   6035000   0.063709223   -1.2439932      0.12583659    -1.0226051      0.0032301878 
   6036000   0.063442565   -1.2430035      0.12700805    -1.0208439     -0.0059167471 
   6037000   0.063070346   -1.2338883      0.12479913    -1.0144958      0.019567546  
   6038000   0.063696313   -1.256544       0.12506713    -1.0359447     -0.0014161757 
   6039000   0.063626188   -1.2613472      0.12747195    -1.0384483      0.0054374315 
   6040000   0.063759125   -1.2544616      0.12773232    -1.0311029      0.0037055804 
   6041000   0.062885494   -1.2607415      0.12622363    -1.0402018      0.00035886335
   6042000   0.06323714    -1.2486251      0.12622766    -1.027554       0.0094933491 
   6043000   0.062928282   -1.2540709      0.12712803    -1.0325626      0.0025143963 
   6044000   0.06317837    -1.2476506      0.12602553    -1.0268698      0.0044421807 
   6045000   0.063251983   -1.2614041      0.1258503     -1.0406881     -0.015598692  
   6046000   0.062879209   -1.261693       0.12659088    -1.0407955     -0.0082619428 
   6047000   0.064729271   -1.2589646      0.12364767    -1.0382356      0.0083853646 
   6048000   0.063195145   -1.2500325      0.12764355    -1.0276084      0.034176414  
   6049000   0.062359374   -1.2389189      0.12776856    -1.0176234      0.0036295445 
   6050000   0.062525053   -1.2516547      0.12672821    -1.031151       0.012266736  
   6051000   0.063501551   -1.268526       0.12646749    -1.0468185      0.0067162974 
   6052000   0.063699081   -1.2543425      0.12650898    -1.0322973     -0.001006449  
   6053000   0.063538495   -1.2489742      0.12579316    -1.0278856      0.015655416  
   6054000   0.06408703    -1.2516568      0.12556821    -1.0299704      0.017274199  
   6055000   0.064049077   -1.247897       0.12713418    -1.0247016      0.00067361374
   6056000   0.064601466   -1.2343126      0.12587434    -1.0115486     -0.017527543  
   6057000   0.063729759   -1.2470757      0.12764714    -1.0238463     -0.0025316152 
   6058000   0.063829205   -1.2498811      0.12529874    -1.0288509     -0.0026584565 
   6059000   0.063009872   -1.249666       0.12495064    -1.0302127      0.00728508   
   6060000   0.064416328   -1.2547354      0.12480007    -1.0333234     -0.0006861351 
   6061000   0.063612945   -1.2603346      0.12748917    -1.0374383      0.0072855764 
   6062000   0.063734181   -1.2337789      0.12628601    -1.011904      -0.0051346649 
   6063000   0.064335724   -1.2450781      0.12832424    -1.0202628     -0.0014856577 
   6064000   0.06328158    -1.2502983      0.12670947    -1.0286787      0.00348664   
   6065000   0.06313436    -1.2417244      0.12539389    -1.0216412     -0.0072060376 
   6066000   0.063010489   -1.257983       0.12627822    -1.0372012      0.015988666  
   6067000   0.063495704   -1.2495477      0.12469437    -1.0296221      0.015396785  
   6068000   0.062654365   -1.2587456      0.12563024    -1.039146       0.00056238328
   6069000   0.06244447    -1.2498493      0.12709434    -1.0291004      0.0026277982 
   6070000   0.062394022   -1.2487979      0.12607082    -1.0291481      0.021820077  
   6071000   0.063587115   -1.2553617      0.12746924    -1.0325241      0.013233295  
   6072000   0.063531983   -1.2530975      0.12579795    -1.0320139      0.0089941811 
   6073000   0.062021791   -1.248378       0.12651777    -1.0288395     -0.0035973893 
   6074000   0.062615535   -1.2593416      0.12673447    -1.0386959      0.013616706  
   6075000   0.062752686   -1.25085        0.12790546    -1.0288276      0.007394048  
   6076000   0.063571335   -1.2517541      0.12709391    -1.0293155      0.010652722  
   6077000   0.064378079   -1.2476693      0.12809132    -1.0230233     -0.016348157  
   6078000   0.063819654   -1.2489751      0.12727067    -1.0259873     -0.011089323  
   6079000   0.063911656   -1.2494265      0.12744862    -1.0261227     -0.0010937626 
   6080000   0.063687237   -1.2536599      0.12855144    -1.0295899      0.0069205725 
   6081000   0.062685281   -1.2397289      0.12822992    -1.0174832     -0.020353738  
   6082000   0.063073069   -1.2426071      0.1253138     -1.0226959     -0.012252287  
   6083000   0.063295723   -1.264294       0.1258034     -1.0435592     -0.0050990284 
   6084000   0.062128663   -1.2495082      0.12688041    -1.0294468     -0.011555099  
   6085000   0.063193284   -1.2557292      0.12825226    -1.0326993     -0.003864787  
   6086000   0.063282442   -1.2499162      0.12724817    -1.0277566      0.026332976  
   6087000   0.064762063   -1.2371574      0.12830852    -1.0117184      0.017642969  
   6088000   0.063403941   -1.2507596      0.12771166    -1.0279543     -0.00031471105
   6089000   0.063987363   -1.2393445      0.12581653    -1.0175593      0.0016254082 
   6090000   0.064081533   -1.2527357      0.12763319    -1.0289926      0.0097563623 
   6091000   0.063258768   -1.2480081      0.12844699    -1.0246852      0.0022760639 
   6092000   0.06257755    -1.2362986      0.12849317    -1.0139512     -0.0093484477 
   6093000   0.063319453   -1.2607663      0.12807766    -1.0377217      0.0044207007 
   6094000   0.062698016   -1.2388934      0.12819676    -1.0166618      0.026599628  
   6095000   0.063394679   -1.2564591      0.12648759    -1.0348917     -0.0074980059 
   6096000   0.062398542   -1.2525768      0.12866215    -1.0303289      0.015421166  
   6097000   0.063374103   -1.2466603      0.12918756    -1.0224239     -0.0090651021 
   6098000   0.063209577   -1.2522331      0.12862215    -1.0288088     -0.0042950503 
   6099000   0.06230628    -1.255749       0.12815126    -1.0341504      0.0030461006 
   6100000   0.061599426   -1.2554507      0.12771225    -1.0353512     -0.00091624111
   6101000   0.062098001   -1.2494044      0.12777967    -1.0284897     -0.0050184746 
   6102000   0.062047783   -1.2527448      0.12881491    -1.0308702      0.014699758  
   6103000   0.061620787   -1.24532        0.12796785    -1.0249329      0.029620313  
   6104000   0.062581138   -1.2677765      0.1276287     -1.0462882      0.0025647666 
   6105000   0.062864453   -1.2563436      0.12696888    -1.0350902      0.0056105683 
   6106000   0.063781082   -1.2515953      0.12757081    -1.0283652     -0.0031914992 
   6107000   0.063838248   -1.2440896      0.12780339    -1.0205412      0.0026809075 
   6108000   0.064445213   -1.2497513      0.1281371     -1.0249588     -0.0099191379 
   6109000   0.063674252   -1.2620708      0.12594258    -1.0406292      0.014453299  
   6110000   0.065008024   -1.2624435      0.12677542    -1.0381686     -0.0035193024 
   6111000   0.063304562   -1.2550207      0.13029774    -1.0297784      0.0027543387 
   6112000   0.063888035   -1.2511268      0.12927641    -1.0260307     -0.0096307301 
   6113000   0.064227663   -1.2573611      0.12791286    -1.0331192      0.0066523535 
   6114000   0.063321178   -1.268239       0.12893855    -1.0443309      0.016754147  
   6115000   0.063685152   -1.2524482      0.12808259    -1.0288502      0.012142     
   6116000   0.062771139   -1.2517473      0.13034676    -1.027256      -0.0049817065 
   6117000   0.063373654   -1.2557208      0.12869401    -1.0319786      0.011622389  
   6118000   0.063328108   -1.2538144      0.12653879    -1.0322957      0.027770953  
   6119000   0.063759498   -1.2491988      0.12517731    -1.0283946      0.037960281  
   6120000   0.063042807   -1.2529801      0.12748619    -1.0309419     -0.00674678   
   6121000   0.062145532   -1.2558058      0.12596029    -1.0366393      0.024479982  
   6122000   0.062462691   -1.247574       0.12393362    -1.0299585      0.025521241  
   6123000   0.062813548   -1.2594417      0.12680914    -1.0384244      0.014354168  
   6124000   0.064139852   -1.2515499      0.12512348    -1.030229       0.035503792  
   6125000   0.06196471    -1.2465484      0.12636602    -1.0272473     -0.0035163674 
   6126000   0.063176016   -1.2512234      0.12563909    -1.0308325      0.024009959  
   6127000   0.063607004   -1.2477193      0.12656969    -1.0257515      0.019420096  
   6128000   0.061969396   -1.2606032      0.12750895    -1.0401522      0.022360441  
   6129000   0.063999192   -1.2543602      0.12774677    -1.030627       0.02472585   
   6130000   0.064011682   -1.2470535      0.12846938    -1.022579      -0.0042056209 
   6131000   0.064165112   -1.2532921      0.12634776    -1.030709       0.0052793526 
   6132000   0.06413311    -1.2623447      0.12635165    -1.0398058      0.0002234802 
   6133000   0.064232094   -1.2549272      0.12575812    -1.0328334     -0.005758383  
   6134000   0.063052663   -1.2628228      0.12698479    -1.0412712     -0.0062180833 
   6135000   0.062655989   -1.2522826      0.12828203    -1.0300287      0.017269488  
   6136000   0.063298135   -1.2659379      0.1255996     -1.0454033     -0.014855102  
   6137000   0.06460608    -1.2512697      0.1259292     -1.0284438      0.011134327  
   6138000   0.063317046   -1.2534607      0.12560444    -1.032893       0.012836868  
   6139000   0.062971414   -1.2595598      0.12658535    -1.0385295      0.011988599  
   6140000   0.062850458   -1.2509707      0.12624382    -1.0304634      0.016323316  
   6141000   0.063996855   -1.2515479      0.12708462    -1.0284804      0.016969594  
   6142000   0.063909076   -1.256702       0.12636314    -1.0344876      0.0074683031 
   6143000   0.062023818   -1.2601147      0.12507356    -1.0420175      0.016411337  
   6144000   0.063785451   -1.2588824      0.12623477    -1.0369818      0.0069244496 
   6145000   0.063192427   -1.2630693      0.12604344    -1.0422495      0.024026474  
   6146000   0.062840892   -1.2445058      0.12536445    -1.0248922      0.0019747796 
   6147000   0.061969545   -1.2447316      0.1270746     -1.0247147     -0.017554494  
   6148000   0.062157328   -1.2519437      0.12624002    -1.0324797      0.015924827  
   6149000   0.06372241    -1.2557649      0.12357224    -1.0366214      0.015523613  
   6150000   0.063204718   -1.2407741      0.12520321    -1.0207761      0.027558908  
   6151000   0.064070181   -1.2489482      0.1269676     -1.0258877      0.0013828297 
   6152000   0.064353155   -1.2582424      0.1249493     -1.0367758      0.025864905  
   6153000   0.062344977   -1.2618625      0.12651016    -1.0418469     -0.00094411916
   6154000   0.062428381   -1.2619852      0.12550182    -1.0428529      0.018345987  
   6155000   0.063118387   -1.2484121      0.1252498     -1.0284969      0.025856081  
   6156000   0.064830831   -1.2734675      0.12615286    -1.0500809     -0.0072778747 
   6157000   0.062118626   -1.2523974      0.12622607    -1.0330054      0.012988653  
   6158000   0.063564141   -1.2491079      0.12856501    -1.0252089     -0.0035125106 
   6159000   0.062535531   -1.2523381      0.12546613    -1.0330808      0.017813062  
   6160000   0.062988193   -1.2556893      0.12646946    -1.0347497      0.01402345   
   6161000   0.063072879   -1.2465954      0.12488934    -1.027109      -0.016433569  
   6162000   0.062819158   -1.2548493      0.12618303    -1.0344497      0.0052445366 
   6163000   0.06316926    -1.2612034      0.12596683    -1.0404949      0.0054493033 
   6164000   0.063525783   -1.2574297      0.12754835    -1.034605       0.0016134926 
   6165000   0.06299423    -1.2480547      0.12630768    -1.0272679      0.0042674647 
   6166000   0.063450972   -1.2565627      0.12699114    -1.0344073     -0.0044462061 
   6167000   0.063032423   -1.2483409      0.12725596    -1.0265485     -0.0072605065 
   6168000   0.063807082   -1.2476734      0.12705961    -1.0249155      0.0076237838 
   6169000   0.061528382   -1.2578459      0.12851969    -1.0370456     -0.010813524  
   6170000   0.063895751   -1.2484556      0.12676869    -1.0258557     -0.0051769219 
   6171000   0.063888938   -1.2464667      0.12689607    -1.0237496      0.0064717459 
   6172000   0.061866158   -1.2502012      0.12562591    -1.031788       0.02612253   
   6173000   0.063247314   -1.2529986      0.12794547    -1.0301944     -0.012152734  
   6174000   0.063796839   -1.2456524      0.12805562    -1.0219138     -0.0015797238 
   6175000   0.063396727   -1.2404509      0.12671276    -1.0186553      0.0092080556 
   6176000   0.063125561   -1.2475541      0.12818785    -1.0246901      0.011322184  
   6177000   0.063158113   -1.2552389      0.12748388    -1.0330301     -0.0121024    
   6178000   0.063517695   -1.2525582      0.12832789    -1.0289661     -0.013906024  
   6179000   0.063166104   -1.2361976      0.12789708    -1.0135636      0.0047081801 
   6180000   0.064129651   -1.2505649      0.12713223    -1.0272507     -0.0017300347 
   6181000   0.062870277   -1.2643194      0.12668437    -1.0433417     -0.013425928  
   6182000   0.063070841   -1.2582256      0.12943449    -1.0341971     -0.015580393  
   6183000   0.063410231   -1.2533274      0.12674231    -1.031482       0.0072537411 
   6184000   0.062971952   -1.2544764      0.1253249     -1.0347057      0.012931192  
   6185000   0.062361643   -1.2492777      0.1259952     -1.0297521     -0.0040649184 
   6186000   0.063383512   -1.2765511      0.12836611    -1.053122       0.0089814388 
   6187000   0.063371584   -1.2593946      0.12804485    -1.0363047     -9.9835964e-05
   6188000   0.064688129   -1.2454825      0.1263561     -1.0221067      0.010835788  
   6189000   0.063221298   -1.2590389      0.12596457    -1.0382546      0.011912876  
   6190000   0.062525404   -1.255507       0.12563772    -1.0360933      0.019430137  
   6191000   0.06374314    -1.2617489      0.12795577    -1.0381908      0.0057681766 
   6192000   0.063817821   -1.2525094      0.12817466    -1.0286203     -0.0011617532 
   6193000   0.063858181   -1.2573601      0.12711435    -1.0344709     -0.0088548248 
   6194000   0.063817273   -1.2613987      0.12650437    -1.0391808      0.01321024   
   6195000   0.063100629   -1.2631333      0.12621216    -1.0422824     -0.018151397  
   6196000   0.064158161   -1.2581836      0.12522706    -1.0367317      0.011813044  
   6197000   0.063165415   -1.2527159      0.12960236    -1.0283776      0.0093685364 
   6198000   0.064180898   -1.2639162      0.12712203    -1.0405352     -0.013262936  
   6199000   0.063133442   -1.2613602      0.1272642     -1.0394081      0.0017365607 
   6200000   0.064873021   -1.2639004      0.12785705    -1.0387463      0.0057955884 
   6201000   0.0648549     -1.2471065      0.13088947    -1.0189473      0.0028012256 
   6202000   0.06395933    -1.2484935      0.12711317    -1.0254537     -0.01736157   
   6203000   0.063508289   -1.2476583      0.12669203    -1.0257162     -0.012592122  
   6204000   0.063453577   -1.2505988      0.12765003    -1.0277807      0.013239377  
   6205000   0.063312234   -1.250986       0.12751895    -1.028511       0.0119719    
   6206000   0.064070733   -1.2505741      0.12735784    -1.0271226     -0.010166215  
   6207000   0.063371296   -1.2706829      0.12931481    -1.0463234     -0.0049821315 
   6208000   0.063330095   -1.2476145      0.12751713    -1.0251145     -0.0017907361 
   6209000   0.064449784   -1.2518702      0.12831146    -1.0268966      0.009458627  
   6210000   0.062965024   -1.2550003      0.12735963    -1.0332053      0.0044038203 
   6211000   0.063479254   -1.2480106      0.12687517    -1.0259289     -0.0094169642 
   6212000   0.06346343    -1.2581597      0.1280365     -1.0349403      0.0053545633 
   6213000   0.063481932   -1.2420995      0.1265361     -1.0203527      0.010929377  
   6214000   0.062873084   -1.2434401      0.12685127    -1.0222913     -0.0057889655 
   6215000   0.062790863   -1.2447428      0.12853758    -1.0220311     -0.0089476599 
   6216000   0.063833701   -1.2539412      0.1269666     -1.0312364      0.017213085  
   6217000   0.062766223   -1.2527192      0.1276328     -1.0309492      0.0062161372 
   6218000   0.062768704   -1.2563339      0.12524963    -1.0369434     -0.015544531  
   6219000   0.064636968   -1.248192       0.12839197    -1.0228571      0.012751294  
   6220000   0.063845535   -1.2356924      0.12731975    -1.0126167      0.0068146814 
   6221000   0.063527043   -1.2512638      0.12582996    -1.0301556     -0.022342592  
   6222000   0.063845105   -1.2583229      0.12573754    -1.03683        0.031952997  
   6223000   0.063426886   -1.2564894      0.12769731    -1.033664       0.012188455  
   6224000   0.063614718   -1.2618796      0.12651586    -1.039954       0.016149182  
   6225000   0.063648162   -1.2573509      0.12664937    -1.0352416      0.0073599802 
   6226000   0.063901027   -1.2463879      0.12625301    -1.0242957      0.019351844  
   6227000   0.063678072   -1.2430791      0.12663302    -1.0209413      0.0093194661 
   6228000   0.063707332   -1.243354       0.12764979    -1.0201555      0.021496646  
   6229000   0.063997857   -1.2603093      0.12765039    -1.0366745      0.025865373  
   6230000   0.064887585   -1.2526112      0.12725619    -1.0280362      0.011415904  
   6231000   0.063175216   -1.2640424      0.12840959    -1.0408822      0.010613088  
   6232000   0.063917117   -1.2606094      0.12752409    -1.037222       0.013251829  
   6233000   0.064044398   -1.2560578      0.12582969    -1.0341739     -0.0069808779 
   6234000   0.064325463   -1.2505778      0.12611746    -1.0279846      0.014049629  
   6235000   0.062341702   -1.2477446      0.12589918    -1.0283449      0.0086872863 
   6236000   0.064790287   -1.2432273      0.12588789    -1.0201665      0.015962335  
   6237000   0.062386168   -1.2653952      0.12791056    -1.0439175      0.013184775  
   6238000   0.062617502   -1.2448937      0.12822274    -1.0227569      0.023252292  
   6239000   0.062323204   -1.2596572      0.12741597    -1.0387685      0.0026106624 
   6240000   0.062917854   -1.25412        0.12866622    -1.0310891      0.0098917921 
   6241000   0.063323665   -1.2570742      0.1283419     -1.033759       0.016112276  
   6242000   0.063674966   -1.2478378      0.12811241    -1.0242253      0.0046372804 
   6243000   0.063951989   -1.258645       0.12615277    -1.0365766      0.010481677  
   6244000   0.062840232   -1.2499233      0.12801671    -1.0276584     -0.012750521  
   6245000   0.062023987   -1.2515407      0.1282065     -1.0303102     -0.006543924  
   6246000   0.062624123   -1.2442973      0.12483153    -1.0255417     -0.0032220837 
   6247000   0.062821585   -1.2497256      0.12651744    -1.028988       0.030829495  
   6248000   0.063924993   -1.2529385      0.12747727    -1.0295861      0.0035284723 
   6249000   0.063489548   -1.2635896      0.12499319    -1.0433743      0.0028084546 
   6250000   0.063801846   -1.2516118      0.12822392    -1.0276974      0.0064407992 
   6251000   0.063710949   -1.2564381      0.12791287    -1.0329712     -0.011633149  
   6252000   0.064010545   -1.2576702      0.12728565    -1.0343811      0.0040435559 
   6253000   0.061730651   -1.2681267      0.12826017    -1.0472825     -0.0035130923 
   6254000   0.062577844   -1.2564565      0.12745123    -1.0351506      0.0007149097 
   6255000   0.064279537   -1.2561275      0.12618166    -1.0335389      0.0050286081 
   6256000   0.063438964   -1.2704563      0.12717743    -1.0481327     -0.00053614142
   6257000   0.063594237   -1.2403847      0.12792082    -1.0170848      0.023738874  
   6258000   0.063440017   -1.2681325      0.1276362     -1.0453486     -0.0027048829 
   6259000   0.064032641   -1.2353277      0.12765755    -1.0116335     -0.013857963  
   6260000   0.063570727   -1.2638049      0.12991874    -1.0385424     -0.0083730182 
   6261000   0.063016696   -1.25488        0.12850352    -1.0318637      0.015867476  
   6262000   0.063955212   -1.2620926      0.12787001    -1.0383021     -0.00025249377
   6263000   0.062493565   -1.2660306      0.12874684    -1.0435555     -0.0031113475 
   6264000   0.0632692     -1.2590515      0.12793177    -1.0362282      0.0084928896 
   6265000   0.06310212    -1.2360138      0.1282829     -1.01309        0.012975265  
   6266000   0.064423505   -1.2593121      0.12817763    -1.0345116      0.011542876  
   6267000   0.063287124   -1.2635361      0.12825905    -1.0403586      0.021809474  
   6268000   0.064088722   -1.2553701      0.1290723     -1.0301771     -0.00059441026
   6269000   0.063448236   -1.2571352      0.12843882    -1.0335363     -0.0010145863 
   6270000   0.063640141   -1.2575265      0.1292139     -1.0328647      0.0093045284 
   6271000   0.063803642   -1.2586486      0.12826496    -1.0346906      0.01390862   
   6272000   0.062518252   -1.2523073      0.12745202    -1.03109        0.011595107  
   6273000   0.063014867   -1.2527588      0.12946507    -1.0287836      0.010189421  
   6274000   0.063382378   -1.2591395      0.12842271    -1.0356555     -0.00013230288
   6275000   0.064220841   -1.2457915      0.129303      -1.0201697      0.0092891863 
   6276000   0.06351036    -1.2517663      0.12954689    -1.0269661      0.018824396  
   6277000   0.063036829   -1.2469354      0.1290272     -1.0233652      0.02200782   
   6278000   0.064114789   -1.2552719      0.12830619    -1.0308059      0.0078608612 
   6279000   0.063679958   -1.2412893      0.12692006    -1.0188616      0.0085230979 
   6280000   0.064163314   -1.2487661      0.12957886    -1.0229546      0.019440338  
   6281000   0.063919343   -1.2551287      0.12817733    -1.0310848      0.031942811  
   6282000   0.062904155   -1.2588214      0.12945624    -1.0350211      0.0043570018 
   6283000   0.063688446   -1.2589264      0.12920319    -1.0342029      0.01824713   
   6284000   0.063963874   -1.231293       0.12663543    -1.0087242      0.018124146  
   6285000   0.063617009   -1.2504123      0.12847853    -1.0265206      0.027036182  
   6286000   0.062665575   -1.2421496      0.12758491    -1.0205784      0.0042767419 
   6287000   0.063767161   -1.2528738      0.12992653    -1.0273089     -0.0080163922 
   6288000   0.064236482   -1.2608787      0.12907468    -1.0354617      0.012772188  
   6289000   0.063313838   -1.250791       0.12843288    -1.0273996      0.040098892  
   6290000   0.062698882   -1.2511885      0.12794515    -1.0292072     -0.00047270275
   6291000   0.062098131   -1.2630277      0.12854477    -1.0413477      0.035983614  
   6292000   0.062566097   -1.2485128      0.12945554    -1.0252202     -0.00043504216
   6293000   0.062345008   -1.2456061      0.12773532    -1.0243653      0.015449103  
   6294000   0.062477025   -1.2388402      0.12659256    -1.0185442      0.014892518  
   6295000   0.062428304   -1.2391147      0.12769861    -1.0177857      0.028223229  
   6296000   0.06273835    -1.2592837      0.12905259    -1.0361357      0.00014469821
   6297000   0.063994185   -1.2409687      0.12746395    -1.0175259      0.0110975    
   6298000   0.063872894   -1.2517339      0.12904619    -1.0268908      0.011913712  
   6299000   0.063914368   -1.251829       0.12879372    -1.0271761      0.0053891109 
   6300000   0.063729709   -1.2584016      0.12910116    -1.0337182      0.0037129294 
   6301000   0.0647298     -1.2676985      0.12702273    -1.0435936      0.016104219  
   6302000   0.065155152   -1.2729448      0.12980625    -1.0454184     -0.0030069258 
   6303000   0.063956586   -1.2653158      0.12860105    -1.0407922      0.0072974156 
   6304000   0.063569997   -1.2415093      0.12943752    -1.0167291      0.0067275885 
   6305000   0.063274903   -1.2379148      0.12862449    -1.0143902      0.018405056  
   6306000   0.063349058   -1.2554548      0.1287564     -1.031687       0.026036633  
   6307000   0.062951836   -1.2477182      0.12777317    -1.0255295      0.0001410153 
   6308000   0.063158014   -1.2537492      0.12948352    -1.0295409     -0.014383255  
   6309000   0.063763778   -1.2543069      0.12920502    -1.0294685      0.018850808  
   6310000   0.063876248   -1.2502345      0.13014583    -1.0242867     -0.015289522  
   6311000   0.06425668    -1.2540693      0.13018033    -1.0275164     -0.023444148  
   6312000   0.063217531   -1.2612041      0.12965622    -1.0367338     -0.0067465656 
   6313000   0.062571197   -1.2473932      0.12920998    -1.0243385     -0.0035926392 
   6314000   0.063289343   -1.260565       0.1287169     -1.0369264     -0.016988583  
   6315000   0.06213597    -1.2399793      0.12694917    -1.0198382     -0.020746547  
   6316000   0.062885807   -1.2452073      0.12967673    -1.0212141     -0.0028726768 
   6317000   0.063408769   -1.239485       0.12860451    -1.0157796     -0.02349674   
   6318000   0.062332267   -1.2499289      0.12856663    -1.0278759      0.0077356305 
   6319000   0.063656264   -1.2707807      0.12782464    -1.0474839      0.014934116  
   6320000   0.063323924   -1.2661673      0.13040198    -1.0407917     -0.011134459  
   6321000   0.062593962   -1.2499002      0.12896041    -1.027061      -0.010034789  
   6322000   0.062290557   -1.2529861      0.12984477    -1.0297175      0.014594348  
   6323000   0.063290428   -1.255181       0.12813017    -1.0321274     -0.007308522  
   6324000   0.062675556   -1.2500156      0.12817205    -1.0278423     -0.0041976784 
   6325000   0.063040154   -1.2516458      0.12800142    -1.0290964     -0.0083299717 
   6326000   0.063680785   -1.2429961      0.12884566    -1.0186416     -0.0069430202 
   6327000   0.063395841   -1.2537491      0.13049263    -1.028175      -0.012665078  
   6328000   0.064138147   -1.2498552      0.12891045    -1.0247499     -0.018502382  
   6329000   0.064395461   -1.2513953      0.12979805    -1.0250165     -0.024813321  
   6330000   0.063416011   -1.2594774      0.12976596    -1.0345997     -0.0053834143 
   6331000   0.063434469   -1.2516102      0.12942889    -1.0270419     -0.021510037  
   6332000   0.062576989   -1.2605153      0.13024848    -1.0364134     -0.033041078  
   6333000   0.063590278   -1.2635409      0.1305855     -1.0375823      0.014459791  
   6334000   0.064040717   -1.2422948      0.12867584    -1.0175703     -0.0074384215 
   6335000   0.063294032   -1.250161       0.12920969    -1.0260226      0.0027507027 
   6336000   0.063364821   -1.2517408      0.1296838     -1.0270221      0.00039746483
   6337000   0.064291168   -1.2557721      0.129987      -1.0293608     -0.010300323  
   6338000   0.062903393   -1.2452746      0.12934272    -1.021589      -0.012425133  
   6339000   0.063292643   -1.2500806      0.12958399    -1.0255699     -0.0070753812 
   6340000   0.063916392   -1.261323       0.13106141    -1.0343994     -0.025646218  
   6341000   0.063384038   -1.2636141      0.12857544    -1.0399748     -0.021759144  
   6342000   0.063274381   -1.2580783      0.12838851    -1.0347904     -0.012313145  
   6343000   0.062854061   -1.2498951      0.13028041    -1.0253457     -0.020410463  
   6344000   0.062724232   -1.251742       0.12956701    -1.0281008     -0.0023222367 
   6345000   0.062816569   -1.2579878      0.12943612    -1.034339      -0.016454527  
   6346000   0.063752556   -1.2457229      0.12966555    -1.0204409      0.020976425  
   6347000   0.063360298   -1.2616076      0.12844783    -1.0381316      0.024192225  
   6348000   0.063969227   -1.2565313      0.1301668     -1.030423       3.1993112e-06
   6349000   0.06370163    -1.2640686      0.12927785    -1.0392507      0.00060181193
   6350000   0.063689106   -1.2594284      0.12921598    -1.0346911     -0.0081228372 
   6351000   0.063432236   -1.2523655      0.12888417    -1.0283453     -0.0014381298 
   6352000   0.063149445   -1.2465652      0.12970793    -1.0221453     -0.017456219  
   6353000   0.064150901   -1.2588034      0.13019591    -1.0323935     -0.01595212   
   6354000   0.063502006   -1.2522728      0.1290727     -1.0279593     -0.0075534202 
   6355000   0.06340171    -1.2411664      0.12711624    -1.0189599      0.0094547022 
   6356000   0.063344036   -1.253369       0.12995732    -1.0284079     -0.0062278818 
   6357000   0.0638389     -1.2466848      0.12792333    -1.0230155      0.034654135  
   6358000   0.063589025   -1.2626643      0.13128905    -1.036004      -0.016119735  
   6359000   0.063936434   -1.2709672      0.13039198    -1.0446829     -0.0085063281 
   6360000   0.064090985   -1.2525213      0.13042694    -1.0259703     -0.0055667696 
   6361000   0.063734104   -1.246541       0.12952818    -1.021424      -0.012043017  
   6362000   0.063111917   -1.2501043      0.13174336    -1.0237053     -0.0049053893 
   6363000   0.063261071   -1.2459315      0.12870888    -1.0223432      0.0097363144 
   6364000   0.063309114   -1.2530471      0.13098053    -1.0271152      0.0039093552 
   6365000   0.064340201   -1.2560838      0.13213569    -1.0274503     -0.002238737  
   6366000   0.063833561   -1.2600599      0.13009525    -1.0342267     -0.00082163938
   6367000   0.064280844   -1.2575259      0.13147479    -1.0296423      0.0067261386 
   6368000   0.064517697   -1.2573498      0.13018636    -1.0303994     -0.013857599  
   6369000   0.063322309   -1.2575807      0.13109874    -1.0315108     -0.0058316356 
   6370000   0.062911677   -1.2579889      0.13229172    -1.0313418     -0.0093858841 
   6371000   0.063649403   -1.2607504      0.13031289    -1.0349757     -0.0022859019 
   6372000   0.063572378   -1.2598666      0.13003814    -1.0344822     -0.018147228  
   6373000   0.062462684   -1.2528995      0.13104693    -1.0281707     -0.021376719  
   6374000   0.06365476    -1.2575069      0.12915918    -1.0328779      0.0071455665 
   6375000   0.063574386   -1.2582785      0.12896664    -1.0339626     -0.0050465677 
   6376000   0.063110353   -1.2551419      0.13068464    -1.029804      -0.0010834074 
   6377000   0.064096911   -1.2624594      0.1305054     -1.035821       0.0017118563 
   6378000   0.063300823   -1.2600332      0.13085535    -1.0342389      0.011437199  
   6379000   0.064348129   -1.2563803      0.13152868    -1.0283419     -0.0034838122 
   6380000   0.063756957   -1.2467399      0.13069522    -1.0204216     -0.011353058  
   6381000   0.063091737   -1.2380016      0.12933659    -1.0140396      0.0071073798 
   6382000   0.064544592   -1.2656466      0.13020199    -1.0386402      0.0041160058 
   6383000   0.064070494   -1.2570479      0.12975733    -1.0311972      0.0043813014 
   6384000   0.06383585    -1.2649549      0.12904418    -1.0401693      0.0020820724 
   6385000   0.064289461   -1.2658597      0.13018663    -1.0392513      0.0078534589 
   6386000   0.062967562   -1.2615702      0.13091146    -1.0362196      0.0063470467 
   6387000   0.064352199   -1.2528718      0.13002549    -1.0263305     -0.0070913522 
   6388000   0.063813311   -1.2553597      0.1289869     -1.0306652     -0.013372526  
   6389000   0.064157682   -1.2620471      0.12974649    -1.0360765     -0.010261661  
   6390000   0.062626642   -1.2608927      0.12977101    -1.0371938     -0.010381245  
   6391000   0.062726715   -1.2339769      0.12991802    -1.0099809     -0.0059731805 
   6392000   0.064182027   -1.2505514      0.12996419    -1.0243266     -0.0051034287 
   6393000   0.062832775   -1.2467801      0.12956278    -1.0229803      0.017876752  
   6394000   0.063636605   -1.2527469      0.13123173    -1.0260726     -0.017617698  
   6395000   0.064271146   -1.255916       0.13254236    -1.0269794      0.018193074  
   6396000   0.062870654   -1.2432272      0.13148405    -1.0174493      0.018726298  
   6397000   0.063580413   -1.2645137      0.13106123    -1.0380942      0.0016069773 
   6398000   0.063604918   -1.2611052      0.13048963    -1.0352205      0.019507881  
   6399000   0.06355715    -1.2507389      0.13130731    -1.0241082     -0.012216179  
   6400000   0.06390067    -1.2594222      0.13215603    -1.0314275      0.014279286  
   6401000   0.063518985   -1.2439183      0.13184841    -1.0168037     -0.0048009497 
   6402000   0.063786371   -1.2518592      0.13223358    -1.0239584     -0.0078922583 
   6403000   0.063977089   -1.2616427      0.13311536    -1.0325741      0.0071961398 
   6404000   0.063781967   -1.2469834      0.13232078    -1.019002       0.0074671675 
   6405000   0.063743549   -1.2441667      0.13037822    -1.0181855     -0.022508507  
   6406000   0.062299474   -1.2388845      0.13095821    -1.0144892      0.01744782   
   6407000   0.063924522   -1.2466759      0.13172929    -1.0190722     -0.010466076  
   6408000   0.06297181    -1.2593878      0.13117934    -1.0337629      0.0034601057 
   6409000   0.064436866   -1.2628214      0.13014665    -1.0360319      0.0018573284 
   6410000   0.063277112   -1.2450267      0.13226125    -1.017862       0.0085616505 
   6411000   0.064427024   -1.255712       0.13241075    -1.0266732     -0.01048455   
   6412000   0.063787208   -1.2555805      0.13234606    -1.027566      -0.012696384  
   6413000   0.063462111   -1.2567685      0.1346337     -1.0269539      0.0090892987 
   6414000   0.065261073   -1.2480994      0.13190022    -1.0183202     -0.0057798576 
   6415000   0.063655357   -1.2463602      0.13407613    -1.0168134      0.004469545  
   6416000   0.0631026     -1.2504049      0.13371078    -1.0220524     -0.002328203  
   6417000   0.063920302   -1.2541607      0.13392786    -1.0243648      0.0066755038 
   6418000   0.062309173   -1.2459583      0.13200316    -1.0205034     -0.0046626234 
   6419000   0.064104522   -1.2565878      0.13175719    -1.0286862     -0.012923133  
   6420000   0.063374769   -1.2495503      0.13198041    -1.02252        0.0093065475 
   6421000   0.064506883   -1.2616544      0.13037013    -1.0345364     -0.0014086638 
   6422000   0.064019177   -1.262033       0.13241749    -1.0335992     -0.010750062  
   6423000   0.065039416   -1.2560658      0.13055194    -1.0279673     -0.01442088   
   6424000   0.064127651   -1.2497204      0.13256978    -1.0209716      0.0019094817 
   6425000   0.063794155   -1.2587328      0.13443433    -1.0286196      0.0073629926 
   6426000   0.064011697   -1.2478085      0.13212497    -1.0196784      0.0064228828 
   6427000   0.063303558   -1.252765       0.13190462    -1.0259173      0.0019956665 
   6428000   0.064286079   -1.2614646      0.13289611    -1.0321518     -0.0072278047 
   6429000   0.064023995   -1.2526661      0.13229481    -1.0243477      0.00069193007
   6430000   0.064313359   -1.2617403      0.13101458    -1.0342681     -0.0036472572 
   6431000   0.063764798   -1.2482246      0.13094822    -1.0216415     -0.0070213542 
   6432000   0.064679527   -1.2651291      0.13284069    -1.0352816     -0.012782987  
   6433000   0.063922601   -1.2467609      0.13135402    -1.0195354      0.0036858941 
   6434000   0.063031917   -1.2572263      0.13133617    -1.0313545     -0.0089609125 
   6435000   0.064537682   -1.2512468      0.13134524    -1.0231075      0.0205404    
   6436000   0.062761911   -1.26171        0.13290921    -1.0346701      0.0086249287 
   6437000   0.063737112   -1.2574092      0.13173565    -1.0300802     -0.017992798  
   6438000   0.062795266   -1.2476548      0.13263007    -1.020844       0.010360829  
   6439000   0.063381987   -1.2524462      0.13154856    -1.025837       0.023015148  
   6440000   0.063775432   -1.2589746      0.13346736    -1.0298564     -0.0063726012 
   6441000   0.063277488   -1.2493374      0.13125534    -1.0231781     -0.010531581  
   6442000   0.064210081   -1.2461114      0.13379123    -1.0160175      0.014333926  
   6443000   0.063263339   -1.2536622      0.13341438    -1.025365       0.0066719735 
   6444000   0.062843823   -1.2444328      0.13159445    -1.0185847      0.022792156  
   6445000   0.063583502   -1.252839       0.13255633    -1.0249197      0.018919808  
   6446000   0.064734638   -1.2471946      0.13213918    -1.0179659      0.0072328807 
   6447000   0.064129236   -1.2552323      0.13128536    -1.0277655     -0.0057094633 
   6448000   0.063776042   -1.2589793      0.1302446     -1.033083       0.0074872816 
   6449000   0.063535695   -1.2534577      0.13109894    -1.0270675      0.014589027  
   6450000   0.064545935   -1.2581979      0.12973467    -1.0316568      0.006267429  
   6451000   0.065139081   -1.2747349      0.13233241    -1.0447065      0.0049288349 
   6452000   0.064260843   -1.2577299      0.13054281    -1.0308083     -0.0016596827 
   6453000   0.064421316   -1.2664819      0.13201705    -1.0378453     -0.0078417091 
   6454000   0.062812653   -1.2658488      0.13198248    -1.0396595     -0.0044837136 
   6455000   0.062955967   -1.257783       0.13071427    -1.032647       0.0055949194 
   6456000   0.063277311   -1.2590856      0.13039663    -1.0337853      0.017396824  
   6457000   0.064036623   -1.2693414      0.13096015    -1.0423388      0.012789706  
   6458000   0.062957353   -1.2743         0.12991413    -1.0499621     -0.012033546  
   6459000   0.062966166   -1.2481022      0.12987933    -1.0237858      0.010121137  
   6460000   0.063904453   -1.2509986      0.1315795     -1.0235748     -0.013923301  
   6461000   0.064188122   -1.2489434      0.13082488    -1.0218487     -0.0022522647 
   6462000   0.063982287   -1.2592831      0.13150922    -1.0318129     -0.0040008659 
   6463000   0.063701943   -1.2563572      0.13053141    -1.0302852      0.015658023  
   6464000   0.064081528   -1.2507482      0.13130092    -1.0233374     -0.0063934235 
   6465000   0.063780165   -1.2383785      0.12993372    -1.0127869     -0.022024153  
   6466000   0.063415733   -1.2467786      0.13326276    -1.0184045     -0.010590716  
   6467000   0.063995905   -1.2531583      0.12995013    -1.0272267      0.015621848  
   6468000   0.06339613    -1.2645864      0.13273087    -1.0367736      0.0037955791 
   6469000   0.063805887   -1.2615227      0.12974612    -1.0360801      0.0050005539 
   6470000   0.064024489   -1.2423898      0.13054743    -1.0158181     -0.0067242266 
   6471000   0.063004024   -1.2570278      0.13035901    -1.032175       0.01854066   
   6472000   0.063806826   -1.2515198      0.12961974    -1.0262021      0.025001153  
   6473000   0.06374705    -1.2493285      0.1320701     -1.0216502     -0.014459138  
   6474000   0.063648636   -1.2384027      0.13087533    -1.0120667      0.02147092   
   6475000   0.064711484   -1.2431749      0.13050605    -1.0156142     -0.012243013  
   6476000   0.063426338   -1.2561175      0.1299532     -1.031037      -0.0044686588 
   6477000   0.063576033   -1.2559893      0.12937123    -1.0312663      0.00014246342
   6478000   0.06394169    -1.2567061      0.13009743    -1.0307085      0.00011413983
   6479000   0.063519261   -1.2511854      0.13043115    -1.0254876     -0.0028758835 
   6480000   0.063720248   -1.2524384      0.13128984    -1.0255806      0.00056142551
   6481000   0.063401094   -1.2538439      0.13140533    -1.0273492      0.017916739  
   6482000   0.062838265   -1.2703898      0.13031461    -1.0458299      0.0040702435 
   6483000   0.062960876   -1.2422741      0.13094318    -1.0169018     -0.014793201  
   6484000   0.063962091   -1.2608512      0.13189663    -1.0330238     -0.0045373602 
   6485000   0.06422254    -1.2436471      0.12904284    -1.0182829     -0.015582842  
   6486000   0.062879138   -1.2551095      0.13137379    -1.0294291     -0.012788486  
   6487000   0.063328379   -1.2453349      0.12933921    -1.0210154     -0.0024994552 
   6488000   0.064567219   -1.2543021      0.13196083    -1.0255029      0.020116638  
   6489000   0.064479732   -1.2664577      0.13258849    -1.0371621     -0.0079254509 
   6490000   0.063862032   -1.2598683      0.13155357    -1.0325341     -0.0010482305 
   6491000   0.063741313   -1.2437572      0.13240597    -1.0157516      0.010346772  
   6492000   0.062233149   -1.2539613      0.13278039    -1.0278432     -0.0032043978 
   6493000   0.063597087   -1.2419977      0.12985071    -1.0167636     -0.0081459572 
   6494000   0.063204751   -1.2498701      0.13205545    -1.0230198      0.0020868007 
   6495000   0.06429967    -1.2693281      0.13263294    -1.0402581      0.0025385136 
   6496000   0.062851957   -1.2566751      0.13210292    -1.0303064      0.0074321995 
   6497000   0.063777411   -1.2564131      0.13259809    -1.0281612      0.0027768717 
   6498000   0.064351158   -1.2608521      0.13161191    -1.0327259      0.004869613  
   6499000   0.063672341   -1.253173       0.13264434    -1.0250324      0.011042167  
   6500000   0.063673213   -1.2696356      0.13107861    -1.0430595      0.0017475816 
   6501000   0.06419852    -1.2514916      0.12984228    -1.025364       0.011353054  
   6502000   0.062957051   -1.2514102      0.13153016    -1.0254567     -0.014311509  
   6503000   0.064250346   -1.2526634      0.13141908    -1.0248813     -0.017675996  
   6504000   0.06411175    -1.2523117      0.13288331    -1.0232732     -0.0063359577 
   6505000   0.064477445   -1.2683273      0.13232514    -1.0392985      0.013334389  
   6506000   0.064752454   -1.2619329      0.13242285    -1.0323939     -0.0058217032 
   6507000   0.064299915   -1.2531186      0.13182917    -1.024852       0.0095895838 
   6508000   0.062952993   -1.2595293      0.13144015    -1.0336718      0.011153126  
   6509000   0.062939417   -1.2535397      0.13385821    -1.0252845      0.001991537  
   6510000   0.063086583   -1.2648581      0.13020192    -1.0400385     -0.0044446354 
   6511000   0.062847608   -1.255519       0.13029711    -1.0309626     -0.01821537   
   6512000   0.064934095   -1.2500438      0.1314169     -1.0212383      0.010984534  
   6513000   0.064379961   -1.2417779      0.13015366    -1.0150668      0.007616774  
   6514000   0.063595484   -1.2626438      0.13079425    -1.0364687      0.0029203244 
   6515000   0.064506855   -1.257933       0.13030023    -1.0308849      0.010439353  
   6516000   0.062690909   -1.258999       0.13116303    -1.0338117      0.001168421  
   6517000   0.063374624   -1.2559149      0.13022947    -1.0306358      0.033014656  
   6518000   0.064172326   -1.2533312      0.13174876    -1.0253363      0.019174712  
   6519000   0.06460546    -1.2586012      0.13212381    -1.0295817      0.0059313649 
   6520000   0.06363904    -1.2638631      0.13040352    -1.0380134      0.0038631183 
   6521000   0.062729095   -1.2562983      0.13034693    -1.0318699     -0.0061826355 
   6522000   0.063926339   -1.2492271      0.13114388    -1.0222061      0.010779506  
   6523000   0.063086555   -1.257156       0.12981103    -1.0327273     -0.016403113  
   6524000   0.063421386   -1.2675379      0.13184634    -1.0405718      0.02569244   
   6525000   0.063516606   -1.2597764      0.1298208     -1.034693      -0.020310893  
   6526000   0.063929413   -1.2520379      0.12972414    -1.026432       0.0073514999 
   6527000   0.063100171   -1.25127        0.13109872    -1.0255332     -0.0045542753 
   6528000   0.062813892   -1.2640243      0.13298611    -1.0368296     -0.001409119  
   6529000   0.06394646    -1.2422042      0.13090642    -1.0153904      0.0011235886 
   6530000   0.063312302   -1.249691       0.1302086     -1.0245262      0.0056667023 
   6531000   0.064214624   -1.2665673      0.13198214    -1.0382757     -0.022120539  
   6532000   0.063990234   -1.249745       0.13230327    -1.0214688     -0.017790388  
   6533000   0.064076627   -1.2570283      0.13255579    -1.02837        0.0073500886 
   6534000   0.063257815   -1.2492912      0.13029591    -1.0241209      0.0056239481 
   6535000   0.062359072   -1.2680385      0.1312009     -1.0433111      0.022693053  
   6536000   0.063554202   -1.2413158      0.12993002    -1.0160667     -0.0033907002 
   6537000   0.063494386   -1.2528011      0.13004972    -1.027522       0.0035790651 
   6538000   0.064951759   -1.2494037      0.1310889     -1.0208997      0.0022914127 
   6539000   0.064899692   -1.2530962      0.13122348    -1.0245357     -0.0041342797 
   6540000   0.063875149   -1.2577313      0.13132173    -1.0306092      0.015473665  
   6541000   0.063210849   -1.2684402      0.13004979    -1.0435864      0.0035391501 
   6542000   0.063805731   -1.2504931      0.12925104    -1.0255458      0.0075512117 
   6543000   0.063687347   -1.2590669      0.13155635    -1.0319919      0.0039269083 
   6544000   0.063469209   -1.2502416      0.12997708    -1.025073       0.0038929009 
   6545000   0.062398792   -1.2492433      0.13100347    -1.0246537      0.023182746  
   6546000   0.062572916   -1.253195       0.13183272    -1.027515       0.0020798771 
   6547000   0.061841375   -1.2726638      0.13172366    -1.0481901      0.00051534461
   6548000   0.063072938   -1.2720163      0.13137903    -1.04604       -0.0028757019 
   6549000   0.062800743   -1.2612873      0.13233586    -1.0347625      0.00085886428
   6550000   0.063554148   -1.2490342      0.12978429    -1.023931      -0.018158964  
   6551000   0.063833349   -1.2583782      0.12990436    -1.0327362      0.013136111  
   6552000   0.062424618   -1.2558218      0.13040944    -1.0317875     -0.0098569975 
   6553000   0.063903074   -1.257246       0.12964134    -1.0317625      0.01484004   
   6554000   0.063546917   -1.2475232      0.13179191    -1.0204232     -0.00556513   
   6555000   0.062845317   -1.2632465      0.13033205    -1.0386586      0.015245527  
   6556000   0.063447202   -1.2659153      0.12886181    -1.0418949     -0.0010286053 
   6557000   0.062863528   -1.2544261      0.12837105    -1.0317719     -0.0031966448 
   6558000   0.062686524   -1.2530113      0.12874824    -1.0302454      0.0063625992 
   6559000   0.063141426   -1.254398       0.12952542    -1.0301727     -0.013225438  
   6560000   0.063191216   -1.2672617      0.12982859    -1.0426586     -0.0060037375 
   6561000   0.064142296   -1.2612496      0.12928844    -1.0357601      0.015153699  
   6562000   0.063349397   -1.244199       0.13355984    -1.0156273      0.038869453  
   6563000   0.062351874   -1.2647864      0.13192361    -1.039347       0.017182329  
   6564000   0.064546892   -1.2403794      0.12981977    -1.0137518     -0.0083464828 
   6565000   0.062522527   -1.2697686      0.12931665    -1.0466803     -4.3746301e-05
   6566000   0.063905373   -1.2692585      0.12861915    -1.0447937     -0.011922057  
   6567000   0.06266782    -1.2633637      0.12851857    -1.0408555      0.0078160762 
   6568000   0.063768259   -1.2465773      0.12900629    -1.0219309     -0.018452402  
   6569000   0.062384563   -1.2593463      0.1295373     -1.0362443     -0.0079674976 
   6570000   0.063388408   -1.2657988      0.13087084    -1.0398576      0.0096104377 
   6571000   0.06294166    -1.2422068      0.12841536    -1.0193911     -0.014698445  
   6572000   0.063078397   -1.2769259      0.12978848    -1.0525321      0.0024108323 
   6573000   0.064057667   -1.2577132      0.1289474     -1.0326917      0.011608354  
   6574000   0.063176481   -1.2769055      0.1284867     -1.0536663      0.01998547   
   6575000   0.063375094   -1.2505257      0.13195168    -1.0235236     -7.0261648e-05
   6576000   0.062151112   -1.2502237      0.13031649    -1.0266926      0.019666372  
   6577000   0.063745136   -1.2379338      0.13083195    -1.0114965      0.0097138565 
   6578000   0.063872635   -1.2581356      0.12914981    -1.0331892      0.0035207868 
   6579000   0.064049158   -1.2518051      0.12899591    -1.0267478      0.030061546  
   6580000   0.06415867    -1.2553118      0.13035354    -1.0287326      0.015215122  
   6581000   0.063231977   -1.2419384      0.13059698    -1.0165057      0.00029594066
   6582000   0.064829038   -1.2583537      0.13022162    -1.030901       0.023625077  
   6583000   0.06510987    -1.2508336      0.13123415    -1.0219472      0.00018181161
   6584000   0.063904973   -1.2452466      0.13114963    -1.0182519     -0.003719426  
   6585000   0.064841014   -1.2601618      0.13143192    -1.0314809     -0.0056101059 
   6586000   0.063189276   -1.2709554      0.13079046    -1.0453932      0.0077270088 
   6587000   0.063907818   -1.2645769      0.13213767    -1.0365899     -0.0024860691 
   6588000   0.062759921   -1.2453275      0.13187721    -1.0193225      0.0077271092 
   6589000   0.064286882   -1.2378672      0.13306771    -1.0083816      0.011074353  
   6590000   0.063497702   -1.2453842      0.13049272    -1.0196572      0.0066999669 
   6591000   0.064295571   -1.2580866      0.13043669    -1.031219       0.025633108  
   6592000   0.063494483   -1.2544448      0.13170147    -1.0275139      0.010472069  
   6593000   0.063036051   -1.2544766      0.13129996    -1.0286347      0.020719108  
   6594000   0.063624598   -1.263853       0.13012506    -1.0383033      0.035686715  
   6595000   0.063430223   -1.2513161      0.13295282    -1.0232303      0.0060433253 
   6596000   0.062679109   -1.2539595      0.12980315    -1.0301498      0.0011695116 
   6597000   0.064089763   -1.2547291      0.13116736    -1.0274395     -0.0011010598 
   6598000   0.064011782   -1.2426891      0.13050537    -1.0161784      0.018099695  
   6599000   0.063270959   -1.2492473      0.13157346    -1.0227796      0.015488072  
   6600000   0.063900879   -1.2453938      0.13063064    -1.0189242      0.012905051  
   6601000   0.063251774   -1.2500836      0.13329502    -1.0219231     -0.0040243089 
   6602000   0.064141545   -1.25892        0.13153001    -1.0311901      0.0096101697 
   6603000   0.063595938   -1.2470648      0.13203582    -1.0196474     -0.0019928622 
   6604000   0.063525992   -1.2606868      0.13175403    -1.0336561      0.0031297671 
   6605000   0.063363103   -1.2559508      0.12952252    -1.0313959      0.016680002  
   6606000   0.062866308   -1.2553143      0.12926494    -1.0317621      0.0098593155 
   6607000   0.063010719   -1.2573145      0.13071434    -1.0320963      0.028199841  
   6608000   0.062637879   -1.2458638      0.13141205    -1.020507       0.0039424262 
   6609000   0.063027424   -1.2619115      0.12984919    -1.0375334      0.029260216  
   6610000   0.062915381   -1.2631251      0.13195085    -1.0368134      0.0034294243 
   6611000   0.064919403   -1.2548548      0.12805105    -1.0294372      0.028216005  
   6612000   0.064026302   -1.2289365      0.13149154    -1.0014179      0.0042897531 
   6613000   0.063237742   -1.2458939      0.13060807    -1.0204414      0.0064980216 
   6614000   0.063805131   -1.267572       0.13153554    -1.0403411      0.017113864  
   6615000   0.064135827   -1.2405812      0.12924364    -1.0151462      0.010794606  
   6616000   0.063819525   -1.2535286      0.12989273    -1.027919      -0.0031946794 
   6617000   0.064280965   -1.2680352      0.13017459    -1.0414516      0.0026186781 
   6618000   0.063808786   -1.2492291      0.1308712     -1.022657      -0.0038286123 
   6619000   0.064290133   -1.2671112      0.13254188    -1.0381466      0.00091915262
   6620000   0.064595691   -1.2531167      0.13111969    -1.025116       0.0023316002 
   6621000   0.06311737    -1.2471384      0.13151205    -1.0209625      0.0020260344 
   6622000   0.064193612   -1.2618232      0.13143843    -1.0341068      0.0052734787 
   6623000   0.063200199   -1.2577566      0.13191304    -1.0310555      0.019433573  
   6624000   0.063827393   -1.2445551      0.1314082     -1.0174182      0.021052373  
   6625000   0.063441923   -1.275438       0.13008778    -1.0501997      0.0050660913 
   6626000   0.063384591   -1.2526556      0.13253134    -1.0250596     -0.0081505509 
   6627000   0.063880189   -1.2595289      0.13116981    -1.0325512      0.012694414  
   6628000   0.063759063   -1.2660893      0.13114737    -1.0393157      0.015247161  
   6629000   0.064040068   -1.263229       0.13172494    -1.0354564     -0.015964185  
   6630000   0.063913264   -1.2610338      0.13031059    -1.0348657      0.020155337  
   6631000   0.063349697   -1.2560384      0.13284711    -1.028179       0.0039059707 
   6632000   0.064500017   -1.2653041      0.13160011    -1.0369665     -0.0018119148 
   6633000   0.063478241   -1.2454097      0.13034093    -1.0198637      0.0066397326 
   6634000   0.064327559   -1.2710691      0.13232203    -1.0422682      0.027813846  
   6635000   0.064032875   -1.2613486      0.13150368    -1.033808       0.0060279502 
   6636000   0.063681084   -1.2560612      0.13314735    -1.0274046      0.015408723  
   6637000   0.06364273    -1.2582077      0.1318754     -1.0308805      0.020033785  
   6638000   0.063913737   -1.2556598      0.13124952    -1.028552       0.029993718  
   6639000   0.063971116   -1.2710602      0.1316903     -1.0434256      0.016733133  
   6640000   0.062400068   -1.2551563      0.13252259    -1.0290457     -0.00136112   
   6641000   0.062543284   -1.2567169      0.1302373     -1.0326768      0.019366098  
   6642000   0.062981906   -1.2557961      0.13026605    -1.0310694      0.0060901752 
   6643000   0.063525282   -1.2643337      0.1308748     -1.0381833      0.011691614  
   6644000   0.063521994   -1.2618179      0.13117265    -1.0353745      0.00093225752
   6645000   0.063804464   -1.2705744      0.13079592    -1.0440842      0.0047474233 
   6646000   0.063930216   -1.2538084      0.12975112    -1.0281743      0.0078918303 
   6647000   0.063133264   -1.2500097      0.131589      -1.023733       0.025071502  
   6648000   0.063153203   -1.2538183      0.12969862    -1.0294021     -0.011109322  
   6649000   0.063834767   -1.2612933      0.13061108    -1.0349425      0.018533612  
   6650000   0.064362384   -1.2570562      0.1307558     -1.0297693     -0.0081854771 
   6651000   0.064979673   -1.2525115      0.13139081    -1.0236637      0.026327734  
   6652000   0.064547047   -1.2578826      0.1313302     -1.0297443     -0.011601802  
   6653000   0.063242306   -1.2452218      0.13010148    -1.0202691     -0.0035528929 
   6654000   0.063323555   -1.271024       0.13189172    -1.0441592      0.0031652333 
   6655000   0.06314338    -1.2552432      0.12951943    -1.031021       0.0077499688 
   6656000   0.06317427    -1.2530501      0.13062754    -1.0276733      0.026751228  
   6657000   0.062911078   -1.262806       0.12976519    -1.0386864     -0.0056317277 
   6658000   0.062639624   -1.2547894      0.13170137    -1.0291407      0.0089607013 
   6659000   0.064770282   -1.2608461      0.13129044    -1.0324127      0.012328444  
   6660000   0.06328805    -1.2398439      0.13027268    -1.0146514      0.010474751  
   6661000   0.063574247   -1.2575614      0.12946218    -1.0327502     -0.0028649903 
   6662000   0.063435248   -1.2697156      0.12907688    -1.0454981      0.010707401  
   6663000   0.063490789   -1.2525156      0.128947      -1.0283447      0.010395094  
   6664000   0.063217067   -1.2649702      0.12966029    -1.0404965      0.0099137849 
   6665000   0.062715063   -1.2674471      0.13106275    -1.0423239     -0.010456733  
   6666000   0.063265941   -1.2656022      0.13159732    -1.0391183      0.011513123  
   6667000   0.062830542   -1.2598201      0.12982722    -1.0357593     -0.0050707174 
   6668000   0.063499378   -1.2650367      0.13089883    -1.0389011     -0.0039996348 
   6669000   0.064490422   -1.2612562      0.13000219    -1.0345309     -0.014254192  
   6670000   0.064243588   -1.2500875      0.13023714    -1.0234974      0.013398108  
   6671000   0.064392535   -1.2634893      0.13088573    -1.0360272     -0.0072250066 
   6672000   0.063701432   -1.2719425      0.13206578    -1.0443369      0.0071643748 
   6673000   0.063556776   -1.2528909      0.1318965     -1.0256716      0.022958607  
   6674000   0.063117791   -1.252921       0.13011853    -1.028138       0.017979882  
   6675000   0.063717489   -1.2594116      0.13112426    -1.0327235      0.023473281  
   6676000   0.063343788   -1.2630074      0.1307884     -1.0372156     -0.0058971818 
   6677000   0.063407076   -1.2454613      0.13006732    -1.0202956      0.025671627  
   6678000   0.063364397   -1.2590344      0.12916138    -1.0348387     -0.0074995989 
   6679000   0.064152342   -1.2449183      0.129925      -1.0187772      0.0065156053 
   6680000   0.064230353   -1.2476733      0.1307363     -1.0206039      0.0029789777 
   6681000   0.063159793   -1.2674421      0.13095678    -1.0417578      0.01674051   
   6682000   0.063958188   -1.2599574      0.13211278    -1.0319198     -0.012220838  
   6683000   0.063415278   -1.2628845      0.12956872    -1.0382052     -0.003501849  
   6684000   0.062909856   -1.2614767      0.13074409    -1.03638        0.0047264366 
   6685000   0.064414275   -1.2636019      0.1291558     -1.0378371     -0.0027876269 
   6686000   0.063571765   -1.2428742      0.12958603    -1.0179428      0.013448889  
   6687000   0.063793153   -1.258134       0.12968387    -1.0327728     -0.012565498  
   6688000   0.063773634   -1.2388126      0.12996332    -1.0132012      0.01128821   
   6689000   0.063325411   -1.2632797      0.12956715    -1.0387367     -0.0028383103 
   6690000   0.063298742   -1.2445769      0.12862047    -1.0210206     -0.0058049101 
   6691000   0.063224369   -1.2594265      0.12906927    -1.0355329     -0.0086447806 
   6692000   0.0638679     -1.267401       0.1294394     -1.0421721      0.019767019  
   6693000   0.063462829   -1.2610374      0.13077476    -1.0350806     -0.0033759321 
   6694000   0.062845433   -1.2594817      0.12870323    -1.0365225      0.019223226  
   6695000   0.063908592   -1.2582846      0.12851998    -1.0339141      0.013371452  
   6696000   0.063317496   -1.2572477      0.12870491    -1.0335788     -0.0073456496 
   6697000   0.063731089   -1.2600231      0.12939767    -1.0350411      0.0066115382 
   6698000   0.064717717   -1.2571131      0.13033915    -1.0297099     -0.0077219166 
   6699000   0.063509499   -1.2516176      0.12972962    -1.0266361      0.0039349437 
   6700000   0.063863015   -1.2486606      0.12932918    -1.0235493     -0.0014658383 
   6701000   0.063880111   -1.2641021      0.13078843    -1.0375058      0.014096007  
   6702000   0.063906093   -1.256501       0.12609401    -1.0345603      0.010480857  
   6703000   0.063896265   -1.2615016      0.12970881    -1.0359607     -0.00938155   
   6704000   0.063566976   -1.256043       0.13030614    -1.0303987      0.018163375  
   6705000   0.063728129   -1.2563202      0.13071437    -1.030026       0.005309515  
   6706000   0.064956315   -1.2439918      0.13021848    -1.0163514      0.00025862272
   6707000   0.064298425   -1.2680571      0.13182679    -1.0397951      0.0073607753 
   6708000   0.065090618   -1.2616344      0.13221406    -1.0317971      0.0028652012 
   6709000   0.064147673   -1.2504467      0.13159124    -1.0226464      0.0010555883 
   6710000   0.064030535   -1.2527426      0.13172596    -1.0249833      0.024611925  
   6711000   0.063882875   -1.2493914      0.13254763    -1.0210318      0.0065668541 
   6712000   0.063741271   -1.2489569      0.13200651    -1.0213508      0.007148133  
   6713000   0.06342108    -1.2568471      0.13034953    -1.0313783      0.013071063  
   6714000   0.063308905   -1.2739233      0.13081661    -1.0481556     -0.01198698   
   6715000   0.062655987   -1.2435874      0.13113686    -1.0184787     -0.009597607  
   6716000   0.062871888   -1.2652896      0.1316862     -1.0393078      0.012254702  
   6717000   0.063581919   -1.2583439      0.13177103    -1.0312122      0.0035834802 
   6718000   0.06401639    -1.2608832      0.12900361    -1.0358673     -0.010926888  
   6719000   0.063372982   -1.2496672      0.13208664    -1.0225334      0.015003998  
   6720000   0.064513511   -1.2642548      0.13091699    -1.03658       -0.0046456186 
   6721000   0.063771867   -1.2593398      0.13202887    -1.0316655      0.0051776213 
   6722000   0.064346571   -1.2500547      0.13156447    -1.0219828     -0.0010231681 
   6723000   0.064267734   -1.2673541      0.13167213    -1.0392928      0.0037288725 
   6724000   0.063702337   -1.2604071      0.13136861    -1.0334973     -0.0040566143 
   6725000   0.063061226   -1.2553607      0.1319128     -1.0288683     -0.0063646558 
   6726000   0.063557641   -1.2407762      0.13204664    -1.0134054      0.00068694828
   6727000   0.063165989   -1.2620504      0.13276273    -1.0345509     -0.001110991  
   6728000   0.063936347   -1.2478718      0.13200901    -1.0199706     -0.0060343284 
   6729000   0.062915644   -1.2499436      0.13200563    -1.0235767      0.0046255665 
   6730000   0.064152599   -1.2544485      0.13328601    -1.024946      -0.0069395718 
   6731000   0.064305331   -1.2554994      0.1315958     -1.0274581     -0.014746828  
   6732000   0.063518215   -1.2656049      0.13159244    -1.0387474      0.011086366  
   6733000   0.063213874   -1.2623353      0.13216756    -1.0353591     -0.010203226  
   6734000   0.0639186     -1.260118       0.1318625     -1.03239       -0.0061246229 
   6735000   0.064067011   -1.2584187      0.13113222    -1.0311984      0.0010568087 
   6736000   0.0631568     -1.2639199      0.13193677    -1.0372601      0.0039671015 
   6737000   0.063277368   -1.2452059      0.13069558    -1.0196066     -0.0085002946 
   6738000   0.062889717   -1.2500405      0.13121318    -1.0245049     -0.0081625926 
   6739000   0.064572067   -1.2632519      0.1318491     -1.0345572     -0.0022238725 
   6740000   0.063990479   -1.2620157      0.13205675    -1.0339857      0.0082997276 
   6741000   0.064173192   -1.2632376      0.13024362    -1.0367467      0.014306286  
   6742000   0.063300028   -1.251559       0.13036734    -1.0262539      0.0088411849 
   6743000   0.06361385    -1.2566777      0.12952514    -1.0317441     -0.0038176149 
   6744000   0.06345939    -1.2552483      0.13101141    -1.0290601     -0.016578346  
   6745000   0.064245784   -1.267839       0.13171098    -1.0397718     -0.0041734647 
   6746000   0.064273383   -1.2617951      0.13335391    -1.0320436     -0.0026745001 
   6747000   0.064635255   -1.2597248      0.13170686    -1.0310776      0.0086235771 
   6748000   0.063905203   -1.2475725      0.13186439    -1.0198627      0.014481968  
   6749000   0.063807263   -1.2639604      0.12951205    -1.0387498     -0.0026500725 
   6750000   0.063762009   -1.2614237      0.13225733    -1.0335357     -0.0083342008 
   6751000   0.062892943   -1.2635803      0.13108633    -1.0381667      0.0011040321 
   6752000   0.063672778   -1.2580732      0.13262273    -1.0299536     -0.012380863  
   6753000   0.064004766   -1.2674679      0.12955464    -1.0419185      0.012397883  
   6754000   0.063228579   -1.2651535      0.13027814    -1.0400448     -0.019132874  
   6755000   0.064059923   -1.2770022      0.13233403    -1.0485906      0.016668789  
   6756000   0.063562248   -1.2543076      0.12908196    -1.0298945      0.021570814  
   6757000   0.064573367   -1.2601709      0.12940122    -1.0339222      0.0074342544 
   6758000   0.064413344   -1.2640529      0.12966444    -1.037781      -0.005533298  
   6759000   0.063324496   -1.2638927      0.13074146    -1.0381768      0.001330239  
   6760000   0.063286798   -1.2463616      0.12904143    -1.0224022      0.020449197  
   6761000   0.063525615   -1.255765       0.13076882    -1.0297201      0.024865421  
   6762000   0.063738519   -1.252361       0.13067561    -1.0260899     -0.0012388007 
   6763000   0.063248072   -1.2637293      0.12906327    -1.0398062      0.0054303382 
   6764000   0.063854367   -1.2557615      0.12985294    -1.0301393     -0.024888853  
   6765000   0.063897631   -1.2667244      0.13007007    -1.0408202      0.015745721  
   6766000   0.063350481   -1.2517969      0.12735516    -1.0294283     -0.0025046899 
   6767000   0.063720267   -1.242772       0.12899046    -1.0182135     -0.0065759426 
   6768000   0.063474725   -1.2463843      0.12875572    -1.0224287     -0.0052551498 
   6769000   0.063273585   -1.2650232      0.12889176    -1.0412333     -0.0065403498 
   6770000   0.063223331   -1.2516962      0.12944512    -1.0274283     -0.011137763  
   6771000   0.062736521   -1.2567782      0.12965735    -1.0330282      0.0060128129 
   6772000   0.063507957   -1.2609434      0.12988417    -1.0358096      0.012043467  
   6773000   0.062338961   -1.2566073      0.13022441    -1.0328865     -0.00093606018
   6774000   0.062903232   -1.2530351      0.12844943    -1.030243      -0.0025280242 
   6775000   0.063402551   -1.2647041      0.12877236    -1.0408402      0.022899463  
   6776000   0.063596882   -1.2651017      0.12712106    -1.0425977      0.0046547024 
   6777000   0.063441503   -1.2542128      0.12903569    -1.0300271     -0.00093131491
   6778000   0.062686817   -1.2456412      0.12866851    -1.0229546      0.013818942  
   6779000   0.063283808   -1.2657272      0.13017877    -1.040635       0.00084407117
   6780000   0.06353856    -1.2435813      0.13020494    -1.0180808      0.021248198  
   6781000   0.062587331   -1.2573425      0.12790622    -1.0355674      0.001434969  
   6782000   0.063196115   -1.2427148      0.12740356    -1.0205293      0.015717965  
   6783000   0.064491801   -1.2568342      0.1278792     -1.0322298      0.0071018707 
   6784000   0.063442372   -1.2552388      0.12956657    -1.0305209     -0.012748787  
   6785000   0.063155447   -1.2671102      0.1304232     -1.041966       0.0010202625 
   6786000   0.063221103   -1.2580193      0.12762091    -1.035579       0.01013617   
   6787000   0.063833458   -1.2710333      0.12794046    -1.047355      -0.012655709  
   6788000   0.062860065   -1.2614585      0.12859651    -1.0385841      0.012461851  
   6789000   0.063017426   -1.2469487      0.12722962    -1.0252052      0.0043773295 
   6790000   0.064108852   -1.2729703      0.12844451    -1.0483749      0.01042794   
   6791000   0.06323837    -1.2586921      0.12917382    -1.034673      -0.0058324799 
   6792000   0.06383719    -1.2575562      0.12867968    -1.0331331     -0.0096540321 
   6793000   0.063011427   -1.2569807      0.12742529    -1.0350504      0.011193105  
   6794000   0.064582938   -1.2485299      0.12730491    -1.0243631      0.00019706305
   6795000   0.063641474   -1.25037        0.12901821    -1.0259019      0.0014558325 
   6796000   0.063854587   -1.2549602      0.12944315    -1.0297475      0.0006024055 
   6797000   0.062502813   -1.2616768      0.12900195    -1.0389327     -0.0010907323 
   6798000   0.063692775   -1.2515611      0.1288244     -1.0272099     -0.0070105922 
   6799000   0.064080302   -1.2630864      0.12984063    -1.0371378     -0.011200991  
   6800000   0.063575984   -1.2658611      0.13006248    -1.040447      -0.032811468  
   6801000   0.063179638   -1.2516013      0.12832025    -1.0285238     -0.022249069  
   6802000   0.062598753   -1.2663838      0.1282017     -1.0442961     -0.025574738  
   6803000   0.06375444    -1.2636462      0.1288004     -1.0392265     -0.0086388411 
   6804000   0.063796511   -1.2558681      0.12706777    -1.0331179     -0.010132533  
   6805000   0.06329543    -1.2597031      0.12887511    -1.0358971     -0.009371086  
   6806000   0.063597727   -1.2689082      0.12912586    -1.0443981     -0.0025330273 
   6807000   0.063488345   -1.2482108      0.12975882    -1.0232318      0.0014219685 
   6808000   0.063197815   -1.2490969      0.12647744    -1.027835      -0.0053474997 
   6809000   0.06427832    -1.255736       0.12765332    -1.0316776     -0.012820406  
   6810000   0.063611856   -1.2614637      0.12766235    -1.0383958      0.014476976  
   6811000   0.063547998   -1.2662091      0.12794427    -1.0429552      0.027769081  
   6812000   0.063619177   -1.2655978      0.1291881     -1.0409933     -0.010750593  
   6813000   0.06487108    -1.2576825      0.1277989     -1.0325896      0.005632218  
   6814000   0.061734659   -1.2532107      0.12771544    -1.0329052     -0.003949512  
   6815000   0.062550096   -1.2582339      0.13039263    -1.0340283     -0.0027026675 
   6816000   0.06338164    -1.2617461      0.12942844    -1.0372575     -0.022028591  
   6817000   0.064476694   -1.2592523      0.12787617    -1.0346735     -0.01061496   
   6818000   0.064009472   -1.2576801      0.12777067    -1.0339076      0.039758016  
   6819000   0.063849285   -1.2560197      0.12709573    -1.0331624      0.0010172702 
   6820000   0.063285998   -1.2688891      0.12920406    -1.0447683      0.005163453  
   6821000   0.063274388   -1.2656372      0.12903567    -1.0417022     -0.0099739226 
   6822000   0.0633546     -1.2526225      0.12867021    -1.0289327      0.0070940979 
   6823000   0.063487907   -1.2558398      0.12786669    -1.0327535      0.00060033077
   6824000   0.064066201   -1.2600895      0.12938041    -1.0346222      0.027743906  
   6825000   0.064117958   -1.247563       0.12829769    -1.0231008     -0.0063549753 
   6826000   0.064020013   -1.2593476      0.12890523    -1.0344247      0.025335815  
   6827000   0.063878765   -1.2647988      0.12967276    -1.0393202     -0.0058133585 
   6828000   0.063503166   -1.2704357      0.12852573    -1.0466675     -0.0039538532 
   6829000   0.063940108   -1.273192       0.12697572    -1.0503185     -0.005052828  
   6830000   0.065057051   -1.2620511      0.12765649    -1.0368216     -0.00024708448
   6831000   0.063779837   -1.2518243      0.1278754     -1.0282915     -0.025231629  
   6832000   0.063476052   -1.2444782      0.12551131    -1.0237651      0.023547709  
   6833000   0.062912609   -1.2448125      0.12897702    -1.0214788      0.0029820831 
   6834000   0.063734594   -1.2524639      0.12916672    -1.0277077      0.026475344  
   6835000   0.06354953    -1.2792066      0.12874949    -1.0551451      0.031193306  
   6836000   0.063377182   -1.2715781      0.1255801     -1.0509445      0.00042190075
   6837000   0.062211489   -1.2554539      0.12700963    -1.035139       0.016746127  
   6838000   0.063344721   -1.2682259      0.12731391    -1.0459071      0.014390718  
   6839000   0.06310969    -1.254237       0.12741449    -1.0321702     -0.0011046184 
   6840000   0.063173203   -1.2522524      0.12653998    -1.0309648      0.011268871  
   6841000   0.063584336   -1.2553027      0.12926873    -1.0306698      0.007639208  
   6842000   0.063535339   -1.2512251      0.12710756    -1.0288268     -0.013201713  
   6843000   0.063461887   -1.2447203      0.12725128    -1.0222885     -0.0036543531 
   6844000   0.063074775   -1.262869       0.12724755    -1.0410215      0.0091639995 
   6845000   0.063675513   -1.2700389      0.12767342    -1.0468646     -0.011105759  
   6846000   0.063649157   -1.2714319      0.12658585    -1.0493846     -0.0031605941 
   6847000   0.06391215    -1.2452766      0.12620338    -1.0232174      0.009948526  
   6848000   0.063414469   -1.2608344      0.12696923    -1.0387557      0.012569922  
   6849000   0.063127918   -1.2668969      0.12924814    -1.0429691     -0.00090297183
   6850000   0.064066759   -1.2646835      0.12783628    -1.0407595      0.020012588  
   6851000   0.062348717   -1.2629534      0.12819716    -1.0412452      0.0065884531 
   6852000   0.063573352   -1.2589121      0.12566315    -1.0379012      0.0048675846 
   6853000   0.063260664   -1.2529354      0.12789127    -1.0301654     -0.0092508151 
   6854000   0.063917181   -1.2577259      0.12680821    -1.0350543      0.017405411  
   6855000   0.064541017   -1.2553121      0.12562759    -1.0328855      0.012320368  
   6856000   0.064343818   -1.2665994      0.12805631    -1.0420398     -0.0076151644 
   6857000   0.063629203   -1.2585322      0.12813335    -1.0349674     -0.020401391  
   6858000   0.063647701   -1.2617263      0.12694362    -1.0393235      0.010881872  
   6859000   0.063968419   -1.2412958      0.12884365    -1.0165119      0.00029858529
   6860000   0.06324344    -1.2572864      0.1285576     -1.0338759     -0.004473343  
   6861000   0.062809651   -1.2593437      0.12795783    -1.0371836     -0.025419138  
   6862000   0.062965997   -1.2654208      0.12824865    -1.0427354      0.0024163296 
   6863000   0.063738891   -1.2715629      0.12952834    -1.0464386     -0.0028283026 
   6864000   0.06433658    -1.2586082      0.12914457    -1.0329712     -0.00075416455
   6865000   0.063179476   -1.2538742      0.12606734    -1.0330498     -0.0035191002 
   6866000   0.064765103   -1.2615479      0.1271938     -1.037219      -0.009451842  
   6867000   0.064117165   -1.2586596      0.12670548    -1.0357908     -0.005471566  
   6868000   0.062962502   -1.2544166      0.12667934    -1.0333057      0.0049587721 
   6869000   0.062758323   -1.2684394      0.12584643    -1.0484676     -0.0078462621 
   6870000   0.062647455   -1.2623792      0.12592605    -1.0424941     -0.00040910233
   6871000   0.062956413   -1.2625416      0.1265355     -1.0415837      0.0018124154 
   6872000   0.063244613   -1.2619702      0.12780114    -1.0393144      0.0094314952 
   6873000   0.062909334   -1.2642273      0.12879977    -1.0410757     -0.025466428  
   6874000   0.064376684   -1.2601516      0.12614025    -1.0374587     -0.0025359661 
   6875000   0.06363975    -1.2452877      0.12836058    -1.0214798      0.016000362  
   6876000   0.063619166   -1.2555571      0.12714437    -1.0329963      0.021312029  
   6877000   0.064240452   -1.2599359      0.1287072     -1.0348805     -0.021612829  
   6878000   0.063999203   -1.2502919      0.12829092    -1.0260145     -0.0054544373 
   6879000   0.063569779   -1.2646685      0.12721955    -1.0421066      0.01601265   
   6880000   0.063918797   -1.2600421      0.12648496    -1.0376913     -0.0058433268 
   6881000   0.064530826   -1.2501062      0.12785096    -1.0254715     -0.0069280433 
   6882000   0.064616607   -1.2510987      0.12755161    -1.0266347     -0.0068983368 
   6883000   0.063585475   -1.2565423      0.12551704    -1.0356594      0.014956802  
   6884000   0.063801742   -1.2444098      0.12813624    -1.0205833      0.0081987743 
   6885000   0.063719341   -1.2619033      0.12984487    -1.0364917      0.0041769898 
   6886000   0.063154229   -1.2630551      0.12636711    -1.0419689     -0.0092891278 
   6887000   0.064091783   -1.2631517      0.12562228    -1.0414041     -0.01081435   
   6888000   0.062419391   -1.2667248      0.1259229     -1.0471849     -0.0010375227 
   6889000   0.064828754   -1.2544718      0.12871922    -1.028522      -0.018178976  
   6890000   0.062945524   -1.2548632      0.12629553    -1.0341615      0.011205086  
   6891000   0.063250822   -1.2529043      0.12872175    -1.0293185     -0.0032814762 
   6892000   0.06331316    -1.2589263      0.12503535    -1.0389334      0.0094583927 
   6893000   0.063474867   -1.242103       0.12639475    -1.0205082     -0.0038404223 
   6894000   0.063558358   -1.250688       0.12659974    -1.028763       0.012544205  
   6895000   0.063945328   -1.2626368      0.12565045    -1.0410808     -0.013128321  
   6896000   0.062953591   -1.2586131      0.12623404    -1.0379608     -0.0010855523 
   6897000   0.062904072   -1.2581126      0.12680981    -1.0369588      0.017484342  
   6898000   0.062545868   -1.2558482      0.1265414     -1.0355001      0.0056389505 
   6899000   0.062650226   -1.2602163      0.12613092    -1.0401221      0.00032130563
   6900000   0.063188777   -1.2615707      0.12803035    -1.0387694     -0.012450482  
   6901000   0.061618884   -1.2426994      0.12512186    -1.0251611     -0.010427285  
   6902000   0.062295393   -1.2609036      0.12686768    -1.0406049     -0.0078963293 
   6903000   0.063060732   -1.2544901      0.12771415    -1.032197      -0.0044767812 
   6904000   0.062729646   -1.2550017      0.12622337    -1.034696      -0.0096445472 
   6905000   0.063218551   -1.2674854      0.12848308    -1.0441867     -0.010059178  
   6906000   0.063034853   -1.2621045      0.12617426    -1.0413902     -0.026513633  
   6907000   0.063155375   -1.2590303      0.12731953    -1.03699        0.019937131  
   6908000   0.064253881   -1.2684762      0.12807829    -1.0440295     -0.0038427375 
   6909000   0.063046555   -1.2595656      0.12933639    -1.0356716     -0.025946777  
   6910000   0.063432836   -1.2519391      0.12931511    -1.027487      -0.008639372  
   6911000   0.064216608   -1.2560981      0.1297746     -1.030011      -0.007237094  
   6912000   0.063297354   -1.2497177      0.12950868    -1.0252752     -0.0099572222 
   6913000   0.064402958   -1.2573592      0.12888845    -1.0318787      9.8996992e-05
   6914000   0.06358178    -1.2523678      0.12766592    -1.0293415     -0.035405462  
   6915000   0.063270932   -1.2572596      0.12688282    -1.0354827     -0.013742058  
   6916000   0.06332791    -1.2684273      0.12922198    -1.0442257     -0.0045602702 
   6917000   0.063266594   -1.2513107      0.12689591    -1.0295271     -0.02403961   
   6918000   0.063292741   -1.2502672      0.12994935    -1.025391      -0.021121107  
   6919000   0.063125208   -1.2678373      0.13005481    -1.0431069      0.0018284923 
   6920000   0.06402723    -1.261626       0.12821406    -1.0373834     -0.0025223656 
   6921000   0.063342032   -1.2590149      0.12930753    -1.0347066     -0.016259052  
   6922000   0.062589114   -1.2687766      0.13006215    -1.0448429     -0.0037201364 
   6923000   0.062375619   -1.2668182      0.12911717    -1.0441497     -0.012397104  
   6924000   0.063500057   -1.2610512      0.1284011     -1.0374123     -0.0026163364 
   6925000   0.063833995   -1.2546704      0.1285551     -1.0303766     -0.023529159  
   6926000   0.064574391   -1.2627881      0.12863805    -1.037301      -0.0074677413 
   6927000   0.063482935   -1.2645612      0.12857126    -1.0407778     -0.007376876  
   6928000   0.063080772   -1.2523903      0.12728248    -1.0304989      0.004055843  
   6929000   0.063229598   -1.2624261      0.12627059    -1.0413234     -0.0039982851 
   6930000   0.063252066   -1.2533362      0.12813687    -1.0303334      0.0018190963 
   6931000   0.063522384   -1.264217       0.1279834     -1.0409623      0.0042288948 
   6932000   0.064667831   -1.245626       0.12767273    -1.020964       0.00034328436
   6933000   0.063496938   -1.2662702      0.12569494    -1.0453421      0.012578185  
   6934000   0.064494475   -1.2619497      0.12702743    -1.038193      -0.012950054  
   6935000   0.063867387   -1.2526159      0.12676676    -1.0300604     -0.0068390632 
   6936000   0.064543296   -1.2618562      0.12784321    -1.0372105      0.0047808661 
   6937000   0.063776277   -1.2500527      0.12707555    -1.0273251      0.0091965884 
   6938000   0.063589189   -1.2579759      0.12617621    -1.0364282     -0.026622242  
   6939000   0.063417834   -1.254918       0.12976015    -1.0300434     -0.0011492355 
   6940000   0.0627428     -1.256935       0.12835101    -1.0344819      0.014623674  
   6941000   0.063157266   -1.2683839      0.12892172    -1.0447385     -0.0012070511 
   6942000   0.064120095   -1.2533182      0.12743095    -1.0297195      0.015403166  
   6943000   0.063707876   -1.2556939      0.12758548    -1.032559      -0.0077262867 
   6944000   0.064066409   -1.2569113      0.1284767     -1.0323474      0.014692189  
   6945000   0.064386199   -1.2534896      0.12875908    -1.0281637     -0.0085176671 
   6946000   0.064372949   -1.2495995      0.12721938    -1.0258331     -0.0090426555 
   6947000   0.063556492   -1.2609047      0.12725703    -1.0383253     -0.0080553132 
   6948000   0.063033301   -1.256176       0.12892735    -1.0327109     -0.014404459  
   6949000   0.06471519    -1.261524       0.12735138    -1.0371124     -0.0073777032 
   6950000   0.064264114   -1.2545217      0.12816164    -1.0299763     -0.0040593542 
   6951000   0.063515907   -1.2592792      0.1277426     -1.036275      -0.00465519   
   6952000   0.064037626   -1.2501448      0.12920923    -1.0248915      0.0064852271 
   6953000   0.063658254   -1.2577707      0.12758989    -1.0347058      0.0043549054 
   6954000   0.062906604   -1.2614847      0.12825867    -1.0388783      0.0052101342 
   6955000   0.062995959   -1.2636928      0.12756325    -1.0416478     -0.0041675552 
   6956000   0.063073793   -1.2600644      0.13029257    -1.0351734     -0.0013211097 
   6957000   0.06338703    -1.2633098      0.12700889    -1.0412326     -0.0011531535 
   6958000   0.064949712   -1.2663506      0.13068125    -1.0382573     -0.0095143091 
   6959000   0.064228997   -1.2667262      0.12909453    -1.0413006     -0.0082167813 
   6960000   0.06332996    -1.259399       0.13108757    -1.0333287     -0.005333936  
   6961000   0.063913816   -1.2566871      0.12979914    -1.0310296     -0.028575044  
   6962000   0.063731263   -1.2519848      0.12989767    -1.0265025     -0.0071630914 
   6963000   0.063616157   -1.2518511      0.12937766    -1.0270615      0.000648463  
   6964000   0.063501886   -1.2508311      0.12910703    -1.0264835     -0.025568157  
   6965000   0.062972644   -1.2649095      0.13146303    -1.0389997      0.012647453  
   6966000   0.06397012    -1.2635321      0.12944921    -1.0381401     -0.016556322  
   6967000   0.063736997   -1.2502917      0.13151522    -1.0231833     -0.019976086  
   6968000   0.064135508   -1.2547088      0.12848517    -1.0300327      0.0053030646 
   6969000   0.064178357   -1.2659999      0.12958633    -1.0401585      0.0048707017 
   6970000   0.064419004   -1.2675897      0.12869673    -1.0422769     -0.01240187   
   6971000   0.064311831   -1.2621298      0.12716411    -1.0385104     -0.0066609435 
   6972000   0.062870549   -1.2652032      0.12682588    -1.0440837     -0.023595638  
   6973000   0.064538101   -1.2625213      0.12743808    -1.0382885     -0.00082623169
   6974000   0.063951361   -1.2684271      0.12713956    -1.0453729     -0.0010199125 
   6975000   0.063717288   -1.2535778      0.12809868    -1.0299155     -0.011230637  
   6976000   0.064898988   -1.2652086      0.12609859    -1.0417741     -0.0072777293 
   6977000   0.064744035   -1.2725611      0.12715762    -1.0482999     -0.0058137979 
   6978000   0.063738302   -1.2600923      0.12777681    -1.0367204      0.017679754  
   6979000   0.063712658   -1.2507088      0.12938081    -1.0257714     -0.0058872176 
   6980000   0.064303541   -1.2642802      0.12813268    -1.0397046      0.021740438  
   6981000   0.064352295   -1.2586889      0.1285945     -1.0335784      0.011866255  
   6982000   0.063008203   -1.261078       0.12796288    -1.038615       0.0068355291 
   6983000   0.063465925   -1.2504165      0.12896016    -1.0262697      0.0095425541 
   6984000   0.062758784   -1.2587409      0.12802859    -1.0365863     -0.011700335  
   6985000   0.06353453    -1.2560497      0.12745251    -1.0333077     -0.015749879  
   6986000   0.063831737   -1.2433187      0.12860467    -1.0189788      0.006432105  
   6987000   0.062815028   -1.2608567      0.12705566    -1.0395907     -0.0040680083 
   6988000   0.063918689   -1.2569676      0.12586883    -1.0352331      0.0058429732 
   6989000   0.063987329   -1.2643069      0.12754336    -1.0407949      0.001895946  
   6990000   0.062721306   -1.2634325      0.12786333    -1.0414994      0.0016255677 
   6991000   0.062899511   -1.262837       0.12715262    -1.0413473     -0.0074658909 
   6992000   0.063303147   -1.2460226      0.12816596    -1.0229142      0.019000942  
   6993000   0.063213206   -1.2542728      0.12802725    -1.0314379     -0.021219135  
   6994000   0.063233366   -1.2564624      0.1277351     -1.0338895     -0.015777573  
   6995000   0.063820032   -1.2413799      0.12795695    -1.0177052     -0.01819841   
   6996000   0.06422422    -1.258754       0.1301835     -1.0322466     -0.015947166  
   6997000   0.064296714   -1.2665457      0.12865675    -1.0414564     -0.018494513  
   6998000   0.063847208   -1.2599176      0.12855699    -1.0356021     -0.0083239803 
   6999000   0.063426923   -1.2575785      0.12855056    -1.0338999     -0.013478194  
   7000000   0.063493916   -1.27107        0.12874858    -1.0470929     -0.024117264  
   7001000   0.063692067   -1.2584302      0.12887799    -1.0340264      0.0057994981 
   7002000   0.063698089   -1.2668091      0.12924948    -1.0420248      0.016554651  
   7003000   0.06357941    -1.2524324      0.12872514    -1.0283505      0.0035907336 
   7004000   0.064310767   -1.260255       0.12716844    -1.0366328     -0.0029894029 
   7005000   0.062879824   -1.2593603      0.12903728    -1.0360155     -0.014740721  
   7006000   0.063284328   -1.269073       0.12985779    -1.0443009     -0.018217578  
   7007000   0.064182142   -1.2536583      0.13042194    -1.0269756      0.010727169  
   7008000   0.064002489   -1.2664259      0.12925159    -1.041183      -0.016388395  
   7009000   0.063923166   -1.2556128      0.1294428     -1.0302976      0.0080660692 
   7010000   0.065193345   -1.2558455      0.1300817     -1.0279863      0.018884122  
   7011000   0.063205464   -1.2659385      0.13154408    -1.0395985     -0.0052102859 
   7012000   0.064245426   -1.260061       0.12864994    -1.0350553      0.012584768  
   7013000   0.065105362   -1.2557671      0.12910345    -1.0290182      0.0088436966 
   7014000   0.063798251   -1.2707816      0.12905669    -1.0460399     -0.007126234  
   7015000   0.062948884   -1.2594937      0.12812291    -1.0369597     -0.0095697358 
   7016000   0.06443811    -1.2555775      0.12879624    -1.0301365      0.019406797  
   7017000   0.064497731   -1.2588779      0.13085434    -1.0312894      0.0010400349 
   7018000   0.064400478   -1.2667784      0.13052502    -1.0396651      0.0085710733 
   7019000   0.063010818   -1.2669735      0.13127364    -1.0411958     -0.0011507985 
   7020000   0.063368571   -1.2648119      0.12906324    -1.040708       0.0012982305 
   7021000   0.064174692   -1.2584584      0.12940309    -1.0328057      0.03830701   
   7022000   0.064323292   -1.2678166      0.13194065    -1.0394034      0.0026215941 
   7023000   0.063180467   -1.2655005      0.13103965    -1.0397023      0.017551658  
   7024000   0.062142086   -1.2639857      0.13008047    -1.0407042     -0.022222732  
   7025000   0.063903707   -1.2732103      0.13207447    -1.0452927     -0.0033150472 
   7026000   0.064422511   -1.2524761      0.13067223    -1.0251826     -0.014469162  
   7027000   0.064716255   -1.2666102      0.12959345    -1.0399549      0.024886523  
   7028000   0.064812434   -1.2624743      0.13169395    -1.0335742     -0.0030223401 
   7029000   0.063408872   -1.2483502      0.13262165    -1.0206276      0.010194945  
   7030000   0.063757633   -1.2530688      0.13099313    -1.0264515      0.018143895  
   7031000   0.064623866   -1.2527497      0.12956875    -1.0262577     -0.0055996299 
   7032000   0.064162968   -1.2485375      0.13102111    -1.0212843     -0.0092571055 
   7033000   0.063886624   -1.2638703      0.1290367     -1.0390161      0.0058948401 
   7034000   0.0639719     -1.2596211      0.13382057    -1.029855      -0.011000817  
   7035000   0.063954064   -1.2486151      0.13074971    -1.0219466      0.0027858197 
   7036000   0.063626808   -1.2460257      0.13158288    -1.0190149     -0.00087811353
   7037000   0.063887098   -1.2541996      0.13306902    -1.0253123      0.0080711036 
   7038000   0.063273533   -1.2515129      0.13251024    -1.0241046      0.0075908968 
   7039000   0.064385605   -1.2469862      0.13120083    -1.0192194     -0.017177425  
   7040000   0.062673803   -1.2615845      0.1325525     -1.0350334     -0.03473165   
   7041000   0.064162167   -1.258803       0.13139503    -1.0311772      0.0081043665 
   7042000   0.063488198   -1.2517223      0.13155083    -1.0249515     -0.00093395628
   7043000   0.064385658   -1.2732222      0.1350771     -1.0415791     -0.029261962  
   7044000   0.064533482   -1.2446653      0.13214058    -1.0157369     -0.022817105  
   7045000   0.063748335   -1.2492894      0.13259955    -1.0210797      0.00731933   
   7046000   0.064076911   -1.2584432      0.1308368     -1.0315035     -0.01118594   
   7047000   0.0639672     -1.249233       0.13277452    -1.0205201     -0.0020394814 
   7048000   0.063692157   -1.2637586      0.129742      -1.0384907      0.0091058407 
   7049000   0.063899287   -1.2633538      0.13186932    -1.0356479     -0.0059791048 
   7050000   0.06390868    -1.2496805      0.13162195    -1.0222079     -0.010117585  
   7051000   0.064146776   -1.2510321      0.13335084    -1.0214735     -0.0090253317 
   7052000   0.06435094    -1.2606037      0.13256089    -1.0315289     -0.013800454  
   7053000   0.063995593   -1.2615187      0.13251317    -1.0330245     -0.027026805  
   7054000   0.062419742   -1.2715682      0.13258693    -1.0453638      0.0018413395 
   7055000   0.063863391   -1.2578625      0.13445923    -1.0276205     -0.00347212   
   7056000   0.064296918   -1.2606281      0.13356746    -1.0306277     -0.0069671747 
   7057000   0.064413721   -1.2556617      0.13499377    -1.0240598     -0.020523689  
   7058000   0.063189416   -1.2353587      0.13442618    -1.0061607      0.0030771041 
   7059000   0.063638811   -1.2625802      0.13438962    -1.0327447     -0.0033378092 
   7060000   0.062999557   -1.2655687      0.13409012    -1.0369914     -0.0049062304 
   7061000   0.063607878   -1.2522857      0.13227711    -1.0246091     -0.0057134343 
   7062000   0.06388677    -1.2549827      0.13238772    -1.0267772     -0.017433037  
   7063000   0.063414242   -1.2653514      0.13277793    -1.0374643     -0.0028464289 
   7064000   0.064637872   -1.2384503      0.13416752    -1.0073385      0.0073081083 
   7065000   0.063866681   -1.2578611      0.13428138    -1.0277921      0.010708564  
   7066000   0.06371609    -1.245997       0.13572756    -1.0147076      0.0073028993 
   7067000   0.063610042   -1.2543136      0.13140681    -1.027504       0.011695395  
   7068000   0.064073133   -1.2573459      0.13050361    -1.030745      -0.00096357264
   7069000   0.064442351   -1.2687261      0.13091429    -1.0411607     -0.00097757301
   7070000   0.063576166   -1.2462905      0.12897285    -1.0219657      0.00040810069
   7071000   0.062776515   -1.2505778      0.12944548    -1.0269797     -0.010788559  
   7072000   0.063133555   -1.2528002      0.13047881    -1.0276333     -0.0010652103 
   7073000   0.064016518   -1.2587504      0.13013676    -1.0326013      0.013765403  
   7074000   0.06413025    -1.2662306      0.12715137    -1.0428963     -0.0038385331 
   7075000   0.063116077   -1.2466467      0.12753532    -1.0244495     -0.020787863  
   7076000   0.063550911   -1.2440324      0.12614005    -1.0225783      0.0074480304 
   7077000   0.063709437   -1.2598814      0.12600769    -1.0383219      0.024281317  
   7078000   0.064523758   -1.2569584      0.12540065    -1.0347846      0.02141014   
   7079000   0.063770188   -1.258484       0.12685813    -1.0359829      0.002746594  
   7080000   0.063818753   -1.2501275      0.12738862    -1.0270231      0.012289223  
   7081000   0.064052782   -1.2621342      0.12740831    -1.0386591     -0.0073553767 
   7082000   0.063501817   -1.2650699      0.12580225    -1.0440272     -0.00011933802
   7083000   0.062632871   -1.2570415      0.12857439    -1.0345299      0.0077466713 
   7084000   0.063413641   -1.2539005      0.12863915    -1.0301532     -0.0037509178 
   7085000   0.063879842   -1.252024       0.12642675    -1.0297899      0.019282295  
   7086000   0.063911962   -1.2474446      0.12413112    -1.027458       0.01148066   
   7087000   0.063239332   -1.2630119      0.12562157    -1.0425436      0.032909498  
   7088000   0.063501682   -1.259023       0.12636102    -1.0374217     -0.0079754426 
   7089000   0.063245982   -1.2595715      0.12783859    -1.0368762     -8.5636358e-05
   7090000   0.063391845   -1.2670593      0.1261362     -1.0458476      0.01520363   
   7091000   0.064487122   -1.2654189      0.12741495    -1.0412857      0.0017474037 
   7092000   0.063712344   -1.2621973      0.1280091     -1.038632       0.00054813786
   7093000   0.063671553   -1.2683335      0.12622952    -1.046609      -0.012127229  
   7094000   0.062548786   -1.2605693      0.12677459    -1.0399837      0.0014096323 
   7095000   0.063904539   -1.2563409      0.1279734     -1.0325231     -0.0045920175 
   7096000   0.063087633   -1.2636455      0.12692144    -1.0421048      0.0070864187 
   7097000   0.063525096   -1.2570335      0.12960862    -1.0321496      0.010687075  
   7098000   0.06365177    -1.2721999      0.12799828    -1.0487363     -0.00056099889
   7099000   0.063996837   -1.2499563      0.12822158    -1.0257518      0.026909332  
   7100000   0.064279562   -1.2561222      0.12666986    -1.0330454     -0.014785978  
   7101000   0.064518137   -1.2492013      0.12794892    -1.0244877      0.025526054  
   7102000   0.063498142   -1.2680049      0.12861832    -1.0441517      0.0043129546 
   7103000   0.064500451   -1.2741694      0.12804717    -1.049384       0.0027243703 
   7104000   0.064772865   -1.255237       0.12813219    -1.0299581      0.024291243  
   7105000   0.063667915   -1.2577343      0.12846036    -1.0337844     -0.0079673544 
   7106000   0.06366024    -1.2481361      0.12923209    -1.023426       0.013042688  
   7107000   0.063976302   -1.2545078      0.12910075    -1.029455      -0.0081622467 
   7108000   0.063861703   -1.2706593      0.13044977    -1.0444294      0.020124233  
   7109000   0.065362162   -1.2619536      0.12942913    -1.0344939      0.02787195   
   7110000   0.063878487   -1.258527       0.12903147    -1.0336901      0.001279234  
   7111000   0.064366646   -1.2598826      0.12961274    -1.0337324      0.029493197  
   7112000   0.062443601   -1.2734134      0.12870183    -1.0510582     -0.0048250863 
   7113000   0.062382331   -1.2643134      0.12968119    -1.0410707      0.019887634  
   7114000   0.063673882   -1.2414913      0.13098872    -1.015004       0.016256769  
   7115000   0.064121454   -1.2582263      0.12977001    -1.0322865     -0.012176818  
   7116000   0.063161048   -1.2381898      0.13010254    -1.0133579      0.0073446371 
   7117000   0.064752872   -1.2683177      0.13336061    -1.0378403      0.037460498  
   7118000   0.064110091   -1.2622017      0.13141453    -1.0346345     -0.014616337  
   7119000   0.065218363   -1.2473116      0.13056486    -1.0189319      0.036393289  
   7120000   0.064055841   -1.2624215      0.13073822    -1.035612      -0.019455026  
   7121000   0.064316748   -1.2605077      0.12988706    -1.034158       0.01075236   
   7122000   0.065355716   -1.2464055      0.1301872     -1.0181973     -0.024425945  
   7123000   0.064930484   -1.2602836      0.12956391    -1.0333365      0.022787492  
   7124000   0.063947136   -1.2495246      0.13143473    -1.0221815     -0.015390409  
   7125000   0.064228112   -1.2411763      0.13102167    -1.0138249      0.0043010918 
   7126000   0.064751533   -1.2703927      0.13235495    -1.0409229     -0.016598635  
   7127000   0.064249388   -1.2630626      0.13016368    -1.0365373      0.022600474  
   7128000   0.064811382   -1.2578064      0.13198258    -1.0286193      0.0048859631 
   7129000   0.063861186   -1.2715634      0.13088689    -1.0448971     -0.01788439   
   7130000   0.063417612   -1.2613667      0.13151148    -1.034741      -0.0057918492 
   7131000   0.064482779   -1.2621223      0.12989748    -1.0355131     -0.0037387977 
   7132000   0.062690306   -1.267648       0.13268025    -1.0409444     -0.00097554954
   7133000   0.063650116   -1.2575016      0.13212759    -1.0299112     -0.0015485986 
   7134000   0.063676552   -1.2454884      0.13104264    -1.0189433      0.027830221  
   7135000   0.064126383   -1.2658069      0.1338986     -1.0357311      0.007142912  
   7136000   0.06380582    -1.2501185      0.13216885    -1.0222532      0.0017508122 
   7137000   0.064496585   -1.2552981      0.13234014    -1.0262256      0.0087987625 
   7138000   0.064714618   -1.2605404      0.13349884    -1.0299821      0.0003339794 
   7139000   0.064156024   -1.2731726      0.13245921    -1.0444918     -0.0095157937 
   7140000   0.064515507   -1.2577108      0.13338261    -1.0275675     -0.0079560569 
   7141000   0.064312999   -1.2569758      0.13385601    -1.0266627      0.0045565601 
   7142000   0.064891054   -1.2546232      0.13211053    -1.0251886     -0.0011392645 
   7143000   0.064043661   -1.2599425      0.13390183    -1.0299876     -0.014979224  
   7144000   0.063782483   -1.2575316      0.13239186    -1.0294784      0.0073388385 
   7145000   0.064757644   -1.2462884      0.13390676    -1.0152577     -0.01684066   
   7146000   0.063848368   -1.2565291      0.13394742    -1.0268215      0.0027384316 
   7147000   0.063093341   -1.2621178      0.13537945    -1.0321105      0.011713967  
   7148000   0.064166836   -1.2606212      0.13417027    -1.0302131     -0.0074629145 
   7149000   0.063293529   -1.2538406      0.13432757    -1.024585       0.012049976  
   7150000   0.063457549   -1.2436611      0.13420122    -1.0142858     -0.0018858941 
   7151000   0.063861249   -1.2661289      0.13742016    -1.0329292      0.00023993052
   7152000   0.064122149   -1.2507394      0.13504286    -1.0195257      0.0058994903 
   7153000   0.063103535   -1.25791        0.13457117    -1.0286957     -0.020272131  
   7154000   0.063295909   -1.2501804      0.13478216    -1.0204667     -0.00079392677
   7155000   0.06450592    -1.2594747      0.13354485    -1.0291834     -0.00010122001
   7156000   0.064347731   -1.2522179      0.13563974    -1.020069      -0.013318468  
   7157000   0.064851264   -1.2543459      0.13398109    -1.0231005      0.0028261638 
   7158000   0.063630098   -1.2640559      0.13694099    -1.0316821     -0.0077989841 
   7159000   0.064582291   -1.2506533      0.1353591     -1.0184333     -0.00094734491
   7160000   0.064557695   -1.258555       0.13452124    -1.0272097     -0.021761657  
   7161000   0.063693833   -1.2607454      0.1347163     -1.0305007      0.017809424  
   7162000   0.063227684   -1.2619286      0.1349065     -1.0321928      0.0012432291 
   7163000   0.063566145   -1.25344        0.13533491    -1.0227682     -0.0097807708 
   7164000   0.063464868   -1.2667406      0.13692135    -1.0346342     -0.020220788  
   7165000   0.062556641   -1.2454818      0.13454437    -1.0171146     -0.029558896  
   7166000   0.063057121   -1.256515       0.13559894    -1.0263426     -0.006945266  
   7167000   0.063481076   -1.2591668      0.13672259    -1.0272349     -0.0024719432 
   7168000   0.065553052   -1.2593683      0.13724382    -1.0238076      0.0086342288 
   7169000   0.065196106   -1.2577618      0.13688102    -1.0230992     -0.006309411  
   7170000   0.064268119   -1.2525264      0.13952777    -1.0166089     -0.026650688  
   7171000   0.063505683   -1.2674032      0.13887504    -1.0332819     -0.0086782341 
   7172000   0.063433537   -1.2625456      0.13831809    -1.0290895     -0.020363413  
   7173000   0.063300985   -1.2601007      0.13766085    -1.0275006     -0.0086440074 
   7174000   0.06394707    -1.253332       0.13710085    -1.0203229      0.010257448  
   7175000   0.063171998   -1.2711766      0.13590312    -1.0405277      0.0050699911 
   7176000   0.063343673   -1.2520919      0.13738951    -1.0196992      0.00035476838
   7177000   0.064058485   -1.2569096      0.13610315    -1.0247312     -0.0090010802 
   7178000   0.064322687   -1.268546       0.13754496    -1.0345295     -0.0071115922 
   7179000   0.063478771   -1.2502602      0.13505802    -1.0199963      0.0006156553 
   7180000   0.064038032   -1.2517344      0.13666053    -1.0190292     -0.017042551  
   7181000   0.064476963   -1.2560353      0.13483152    -1.0245008      0.0026709202 
   7182000   0.063441015   -1.2644615      0.1345079     -1.0348043      0.0061633696 
   7183000   0.063342373   -1.2629557      0.13601664    -1.0319378      0.01596521   
   7184000   0.064126572   -1.2581284      0.13641665    -1.0255343     -0.023002468  
   7185000   0.064047229   -1.2659998      0.13581626    -1.0341251     -0.028361016  
   7186000   0.064383628   -1.2626753      0.13604278    -1.0300696      0.022313906  
   7187000   0.063610596   -1.2527736      0.13643978    -1.0209303     -0.027358445  
   7188000   0.065462892   -1.2466861      0.13645869    -1.0120457      0.023320589  
   7189000   0.064186315   -1.2530308      0.13737173    -1.0193921     -0.0067657988 
   7190000   0.063068705   -1.2537898      0.13807902    -1.0211199     -0.011216324  
   7191000   0.064446836   -1.2644204      0.13756384    -1.0301988      0.0066989206 
   7192000   0.063989131   -1.2479556      0.13839625    -1.0135881      0.0083334828 
   7193000   0.064154383   -1.2466463      0.13623207    -1.0141951     -0.012441154  
   7194000   0.064574322   -1.2538723      0.13833484    -1.0186884      0.012558785  
   7195000   0.065322611   -1.256779       0.13613712    -1.0226706      0.015828931  
   7196000   0.063620439   -1.2619822      0.13865409    -1.0279097     -0.016567731  
   7197000   0.064558967   -1.2594632      0.13886795    -1.0237693     -0.021355966  
   7198000   0.064287484   -1.2569859      0.13966837    -1.0208988      0.012297744  
   7199000   0.064551491   -1.2586779      0.13983208    -1.0220311      0.0039366624 
   7200000   0.063823823   -1.251445       0.13688824    -1.0188334      0.0086598884 
   7201000   0.063861336   -1.2622274      0.13884439    -1.0276034      0.0099491667 
   7202000   0.064442347   -1.2541865      0.13716305    -1.0203724     -0.0024680102 
   7203000   0.0640074     -1.2560632      0.13743565    -1.0226288      0.012402024  
   7204000   0.064872211   -1.2676402      0.13628979    -1.0340547      0.011542975  
   7205000   0.063621263   -1.2657949      0.1380103     -1.032365      -0.010449808  
   7206000   0.064606787   -1.2606418      0.13773112    -1.026013      -0.0098328886 
   7207000   0.064247692   -1.2582366      0.13634786    -1.0255297     -0.02839283   
   7208000   0.064050021   -1.2568007      0.13568377    -1.0250543      0.00107572   
   7209000   0.064448085   -1.2727818      0.13761602    -1.0385061      0.0031251809 
   7210000   0.064752503   -1.2479283      0.1355833     -1.0152287     -0.0042596699 
   7211000   0.064517661   -1.2603233      0.13790146    -1.0256578     -0.0012862447 
   7212000   0.064053478   -1.2653854      0.13710265    -1.0322149     -0.001343558  
   7213000   0.064495744   -1.2607218      0.13989949    -1.0240911      0.0026734624 
   7214000   0.065133371   -1.2623281      0.1409499     -1.0236907      0.020086305  
   7215000   0.064155984   -1.2742942      0.13694738    -1.0411252      0.033686654  
   7216000   0.064036616   -1.2640807      0.13585975    -1.0321784      0.00095215806
   7217000   0.064273896   -1.2581915      0.13560462    -1.0261884     -0.0060900561 
   7218000   0.064516025   -1.2556517      0.13512219    -1.023768      -0.029081856  
   7219000   0.06506324    -1.2512822      0.13395904    -1.0197409     -0.0086919419 
   7220000   0.064610375   -1.251614       0.13362695    -1.021084      -0.017067334  
   7221000   0.064121043   -1.2707434      0.13413867    -1.0404356     -0.0036446493 
   7222000   0.063549472   -1.2606007      0.13467532    -1.0306135      0.0035272292 
   7223000   0.063722837   -1.2636298      0.13435374    -1.0337042      0.017515959  
   7224000   0.063591104   -1.2483971      0.13523189    -1.0177908     -0.014463845  
   7225000   0.06433436    -1.2561213      0.13464247    -1.0249897      0.0013804658 
   7226000   0.063907597   -1.2506416      0.13505514    -1.0197374     -0.010340935  
   7227000   0.064335229   -1.2555413      0.13747859    -1.0215723     -0.012093723  
   7228000   0.063836007   -1.2671465      0.1349613     -1.0364435      0.0032690258 
   7229000   0.065122697   -1.2567236      0.13615865    -1.0228936      0.016363601  
   7230000   0.064205954   -1.2569919      0.13585759    -1.0248378      0.018080617  
   7231000   0.064224756   -1.2503581      0.13501053    -1.0190228     -0.0024638492 
   7232000   0.063513996   -1.2575563      0.13600182    -1.0262958      0.0014993509 
   7233000   0.063755536   -1.2638932      0.1364063     -1.031866       0.00456588   
   7234000   0.063058206   -1.2533046      0.13565122    -1.0230783     -0.0014003367 
   7235000   0.063147687   -1.2581086      0.13555854    -1.0278407     -0.012214597  
   7236000   0.063534965   -1.2573378      0.13665781    -1.0253898      0.0029464299 
   7237000   0.064181369   -1.2412813      0.13525213    -1.0097695      0.0086669515 
   7238000   0.064045757   -1.2577516      0.13628382    -1.0254116     -0.023205486  
   7239000   0.064743807   -1.2490895      0.13671051    -1.0152758      0.0010989237 
   7240000   0.064040104   -1.2620923      0.1365313     -1.0295132     -0.0012855383 
   7241000   0.063494101   -1.2582945      0.13696895    -1.0260967      0.031428001  
   7242000   0.064910913   -1.2613922      0.13704361    -1.0269947     -0.0063832825 
   7243000   0.065200484   -1.2670441      0.13777279    -1.0314832     -0.012193122  
   7244000   0.063265909   -1.2571455      0.13790549    -1.0243534     -0.018296042  
   7245000   0.064011739   -1.2499956      0.13876701    -1.0152234     -0.02003465   
   7246000   0.06475559    -1.2710519      0.13783906    -1.0360919     -0.01768893   
   7247000   0.065091028   -1.2426105      0.13808057    -1.006906      -0.010426317  
   7248000   0.06403805    -1.2558053      0.13830894    -1.0214517      0.0016321364 
   7249000   0.063927998   -1.2648759      0.13850629    -1.03049       -0.0083250455 
   7250000   0.064359906   -1.2539146      0.13825744    -1.0191297     -0.014574207  
   7251000   0.064185814   -1.2566275      0.13471022    -1.025651      -0.034664191  
   7252000   0.063329104   -1.2641452      0.13798985    -1.0311739      0.0077759167 
   7253000   0.064553445   -1.239474       0.13878747    -1.0038689     -0.022004379  
   7254000   0.063907184   -1.2540656      0.13878932    -1.0194278     -0.00096686355
   7255000   0.064256578   -1.2665083      0.13623102    -1.0339049     -0.034552268  
   7256000   0.063329837   -1.2623662      0.13652855    -1.0308552     -0.014032811  
   7257000   0.06413067    -1.2483925      0.13755967    -1.0146492     -0.02564346   
   7258000   0.063689703   -1.2550713      0.1393651     -1.020184      -0.022087576  
   7259000   0.063616076   -1.2559656      0.13987077    -1.020683      -0.022081148  
   7260000   0.064380211   -1.2628281      0.13929337    -1.0269769     -0.0078846171 
   7261000   0.063156447   -1.2648353      0.13879439    -1.0313185     -0.015023685  
   7262000   0.063481886   -1.2546768      0.1383165     -1.0211498     -0.035831174  
   7263000   0.064720345   -1.2736934      0.14053158    -1.0360938     -0.028181727  
   7264000   0.064950557   -1.2465582      0.14031511    -1.0088299     -0.014405165  
   7265000   0.065008015   -1.2484493      0.14008809    -1.0108618     -0.011604832  
   7266000   0.064625627   -1.2669482      0.14045926    -1.029563      -0.0082208526 
   7267000   0.063570537   -1.2503636      0.13827857    -1.0167415     -0.027564596  
   7268000   0.065086702   -1.2523999      0.14031244    -1.01447        0.010791789  
   7269000   0.064806057   -1.2639308      0.13587296    -1.0308613     -0.011654717  
   7270000   0.063683551   -1.2697253      0.13726858    -1.0369437     -0.0065037556 
   7271000   0.065541044   -1.2445369      0.13468136    -1.0115566     -0.0076466101 
   7272000   0.064415667   -1.2588345      0.13395227    -1.0282712     -0.0033866654 
   7273000   0.065090686   -1.2572483      0.13370725    -1.0259176     -0.032433642  
   7274000   0.064742072   -1.2327568      0.13191226    -1.003744       0.0045758579 
   7275000   0.064056537   -1.2502146      0.13444085    -1.0197013      0.020356545  
   7276000   0.063485172   -1.2635991      0.13412462    -1.034259      -0.0076391316 
   7277000   0.063530547   -1.2460505      0.13290184    -1.0178651      0.037602533  
   7278000   0.063040825   -1.2718625      0.13372428    -1.0435892      0.0057910411 
   7279000   0.064095365   -1.2552558      0.1343679     -1.0247572      0.003640999  
   7280000   0.064345645   -1.2739625      0.13390743    -1.0435491      0.012054061  
   7281000   0.064104009   -1.253139       0.13721835    -1.019777      -0.0040861322 
   7282000   0.062982662   -1.2656121      0.1363903     -1.03476       -0.003557543  
   7283000   0.063976639   -1.262612       0.1333234     -1.033336       0.0075372882 
   7284000   0.063499631   -1.2488454      0.1355421     -1.0180661      0.0031825042 
   7285000   0.064144782   -1.2662511      0.13655477    -1.0334916     -0.0084185984 
   7286000   0.06487869    -1.249329       0.13555885    -1.0164647     -0.013722513  
   7287000   0.062609854   -1.2574032      0.1366648     -1.0268357      0.021549349  
   7288000   0.065132946   -1.2657035      0.13536629    -1.0326504     -0.012985767  
   7289000   0.065295531   -1.2665444      0.13460834    -1.0340054      0.01451068   
   7290000   0.064264784   -1.2475822      0.13647664    -1.0147208      0.0085644792 
   7291000   0.065007232   -1.2724629      0.13663415    -1.0383304      0.00051536529
   7292000   0.064299319   -1.2629115      0.13668071    -1.0297943      0.010404048  
   7293000   0.063460156   -1.2583249      0.13525755    -1.0278893     -0.00050917345
   7294000   0.063373269   -1.2619179      0.13691067    -1.0299596      0.003784371  
   7295000   0.06444297    -1.2613704      0.13426051    -1.0304579      0.013601223  
   7296000   0.064448009   -1.2520539      0.13338488    -1.0220095     -0.0020029774 
   7297000   0.065106368   -1.2514496      0.1338512     -1.0199515     -0.0079802295 
   7298000   0.065092066   -1.2714065      0.13231705    -1.0414639      0.012160062  
   7299000   0.06411137    -1.2555208      0.13471887    -1.0246473     -0.0031299433 
   7300000   0.063607814   -1.2531296      0.1350765     -1.0226537      0.0010237033 
   7301000   0.064619442   -1.266883       0.13292382    -1.0370425      0.0029307089 
   7302000   0.064179512   -1.270428       0.13377977    -1.0403913     -0.0023529169 
   7303000   0.064754634   -1.2616037      0.13318443    -1.0312999     -0.0004801757 
   7304000   0.066014978   -1.2544594      0.13222165    -1.0232281      0.018342191  
   7305000   0.065767939   -1.2587954      0.13520243    -1.0249538     -0.010290565  
   7306000   0.065640297   -1.267451       0.13581292    -1.0331904      0.032783803  
   7307000   0.064867719   -1.2575253      0.13612137    -1.0241149     -0.0020338945 
   7308000   0.064170516   -1.2509186      0.13387095    -1.0208043      0.022495128  
   7309000   0.063101184   -1.253212       0.13599438    -1.0225781     -0.009304425  
   7310000   0.064515616   -1.2599076      0.13534918    -1.0277975      0.0036562999 
   7311000   0.063616732   -1.2637322      0.13339171    -1.0349277     -0.010440665  
   7312000   0.06394073    -1.2715593      0.13816893    -1.0374916     -0.018522986  
   7313000   0.064448135   -1.2530075      0.13664189    -1.0197059      0.010468339  
   7314000   0.064318019   -1.2539333      0.13558395    -1.0218848     -0.0027011472 
   7315000   0.063723196   -1.2465288      0.13639474    -1.0145616      0.012918435  
   7316000   0.063626597   -1.2587253      0.13679277    -1.026505       0.011805969  
   7317000   0.063505186   -1.267545       0.1349804     -1.0373191      0.017701352  
   7318000   0.065286058   -1.261158       0.13415989    -1.0290816     -0.014429093  
   7319000   0.064584271   -1.2542894      0.13584211    -1.0215834      0.01212102   
   7320000   0.064409676   -1.2678826      0.13472969    -1.0365509      0.0077491614 
   7321000   0.063897387   -1.2576546      0.13722408    -1.0245968      0.025138899  
   7322000   0.064619772   -1.252264       0.13491494    -1.0204319     -0.0095255762 
   7323000   0.063687442   -1.2566164      0.13491995    -1.0261776     -0.02142737   
   7324000   0.066042116   -1.264641       0.13268721    -1.0329034      0.019484827  
   7325000   0.065537265   -1.2568246      0.13150971    -1.0270217      0.0057880193 
   7326000   0.063943287   -1.2653583      0.12968238    -1.0397733      0.016566384  
   7327000   0.064448926   -1.2598479      0.12774697    -1.03544        0.015246903  
   7328000   0.064196826   -1.2635418      0.12895873    -1.0383002      0.0011610483 
   7329000   0.065456148   -1.2585259      0.12876834    -1.031586       0.0049360748 
   7330000   0.063214663   -1.2672726      0.13011535    -1.0423475     -0.0085836608 
   7331000   0.064254862   -1.2744925      0.13070658    -1.047416       0.010739381  
   7332000   0.065744969   -1.2556895      0.12898461    -1.0281002     -0.0015040584 
   7333000   0.065065949   -1.2634675      0.1285724     -1.0373088      0.021447095  
   7334000   0.064709646   -1.2583518      0.12925009    -1.0320498      0.0090345883 
   7335000   0.065229552   -1.2548152      0.12756071    -1.0294228      0.005841255  
   7336000   0.06403779    -1.2679076      0.12680132    -1.045062      -0.0049426767 
   7337000   0.06512575    -1.2780806      0.12914652    -1.0512581      0.0081178067 
   7338000   0.065453966   -1.2644857      0.1253815     -1.0409359      0.010790023  
   7339000   0.064828907   -1.2681873      0.12899922    -1.0419573     -0.0079562268 
   7340000   0.063933027   -1.2631636      0.13003229    -1.0372441     -0.0051204972 
   7341000   0.064065037   -1.2575453      0.12951513    -1.0319451      0.0086368413 
   7342000   0.062766226   -1.2621805      0.12870111    -1.0393422      0.016793031  
   7343000   0.063928675   -1.2694426      0.13001977    -1.0435421     -0.0056667202 
   7344000   0.063634883   -1.2523942      0.12720669    -1.0297475      0.0021543797 
   7345000   0.06429624    -1.2607238      0.12875526    -1.0355366      0.0066119032 
   7346000   0.064594764   -1.2533391      0.12988924    -1.0265702      0.0047236725 
   7347000   0.063908876   -1.2520857      0.12739306    -1.0288417      0.017427437  
   7348000   0.062626433   -1.2574582      0.12957652    -1.0339541      0.023531373  
   7349000   0.063959919   -1.2641965      0.12862114    -1.0396479      0.0065550477 
   7350000   0.065453921   -1.2619644      0.1286191     -1.0351771      0.0025215337 
   7351000   0.064213395   -1.2714237      0.12886517    -1.0462509      0.0084061725 
   7352000   0.064573641   -1.2744683      0.1289782     -1.0486421     -0.0019765324 
   7353000   0.064888294   -1.2624196      0.12920067    -1.0358991      0.010497129  
   7354000   0.064008681   -1.2411891      0.12747642    -1.0177121      0.010442477  
   7355000   0.065124202   -1.2590973      0.12602558    -1.035398       0.0059233033 
   7356000   0.064305026   -1.2645528      0.12926975    -1.038838      -0.0087081868 
   7357000   0.065132845   -1.25327        0.12872116    -1.0268622      0.01995946   
   7358000   0.065242316   -1.2477865      0.12839659    -1.0215391     -0.0040298048 
   7359000   0.064829384   -1.2698661      0.13024849    -1.0423861      0.0082073221 
   7360000   0.064165027   -1.2396542      0.12743695    -1.0159821      0.00041337534
   7361000   0.064600445   -1.256123       0.12744789    -1.0317869      0.0065756605 
   7362000   0.065856404   -1.2620961      0.12964706    -1.0336771     -0.0047003376 
   7363000   0.064552072   -1.258053       0.1310479     -1.0301895      0.0080477141 
   7364000   0.065362547   -1.2529772      0.1271143     -1.0278318     -0.0042328396 
   7365000   0.064767728   -1.2528723      0.12817788    -1.0275554     -0.019860746  
   7366000   0.064876119   -1.2559086      0.12749856    -1.0311084      0.0086147525 
   7367000   0.064335433   -1.2603748      0.12903168    -1.0348524      0.021878333  
   7368000   0.064513375   -1.2662365      0.12907422    -1.0404047      0.00014916563
   7369000   0.063401429   -1.269311       0.12692644    -1.0472947      0.029237915  
   7370000   0.065274422   -1.2770203      0.12822378    -1.0508975      0.014924765  
   7371000   0.065149193   -1.2632336      0.12783568    -1.0376867      0.018905272  
   7372000   0.063680629   -1.2607215      0.12989123    -1.0353216     -0.023606836  
   7373000   0.064966996   -1.266993       0.12883917    -1.0407159      0.021638627  
   7374000   0.06504079    -1.2545942      0.12896553    -1.02808        0.0044954043 
   7375000   0.063600499   -1.2539274      0.12861711    -1.0299218      0.0046759685 
   7376000   0.064758166   -1.2712483      0.12814684    -1.0459768      0.021203026  
   7377000   0.063956827   -1.2534688      0.12849162    -1.0290544     -0.012409784  
   7378000   0.064803932   -1.2574649      0.12835229    -1.0319193     -0.0073608094 
   7379000   0.064688012   -1.26077        0.12926948    -1.034481       0.0042822617 
   7380000   0.064247456   -1.2637586      0.12932236    -1.0380775     -0.012440055  
   7381000   0.065355968   -1.2671127      0.1287117     -1.0403797     -0.020021354  
   7382000   0.064535434   -1.2613331      0.12790061    -1.0366418     -0.022016478  
   7383000   0.064803912   -1.266512       0.12670721    -1.0426115     -0.0057005512 
   7384000   0.065300905   -1.2627798      0.12794891    -1.0368922      0.02012145   
   7385000   0.064237094   -1.2572543      0.12840925    -1.0325019      0.012892043  
   7386000   0.063924099   -1.2506943      0.12750233    -1.0273182      0.0087464773 
   7387000   0.064434192   -1.2632912      0.12722132    -1.039431      -0.00080744212
   7388000   0.065118539   -1.2681528      0.12859162    -1.041896      -0.0045349386 
   7389000   0.064737802   -1.2677778      0.12865722    -1.0420264      0.014665337  
   7390000   0.065337372   -1.2668477      0.12902859    -1.0398256     -0.0016549048 
   7391000   0.066434781   -1.2629525      0.12943358    -1.0338796      0.0013477861 
   7392000   0.064273009   -1.2740518      0.13016039    -1.0474944      0.0066528012 
   7393000   0.064275973   -1.2652681      0.12829571    -1.0405709      0.0040723737 
   7394000   0.064964874   -1.262756       0.12745075    -1.0378705      0.00058706083
   7395000   0.064075644   -1.2572659      0.12937916    -1.0317857     -0.0057206601 
   7396000   0.065455742   -1.2688238      0.12847058    -1.0421823     -0.011431793  
   7397000   0.064608945   -1.2669396      0.12809867    -1.0419401      0.010256956  
   7398000   0.064120106   -1.2643586      0.12740843    -1.0407824      0.0011508389 
   7399000   0.064234862   -1.2497187      0.12896714    -1.0244117      0.0018081737 
   7400000   0.065564862   -1.2663539      0.13147393    -1.0365453     -0.010646756  
   7401000   0.064612843   -1.2701065      0.13021998    -1.0429797      0.012847854  
   7402000   0.065295866   -1.2462303      0.12986399    -1.0184352      0.0041102537 
   7403000   0.065550254   -1.2638705      0.12886691    -1.0366909      0.011826517  
   7404000   0.064476592   -1.2768681      0.12875183    -1.0514139     -0.0015901677 
   7405000   0.064210233   -1.2611613      0.12783569    -1.0370227     -0.0059508562 
   7406000   0.064782192   -1.2634896      0.12612064    -1.0402082      0.0060273979 
   7407000   0.063252199   -1.2579208      0.12841726    -1.0346374      0.0032260711 
   7408000   0.065027196   -1.2684888      0.12772058    -1.04324       -0.0001594167 
   7409000   0.064177354   -1.2626955      0.12931119    -1.0371307      0.0083252501 
   7410000   0.064698016   -1.2728249      0.12848659    -1.0473038      0.012697568  
   7411000   0.065234826   -1.2529304      0.13014199    -1.0249488     -0.0051460193 
   7412000   0.06431588    -1.2652272      0.13032074    -1.0384451      0.0095604633 
   7413000   0.065108165   -1.2470841      0.13181623    -1.0176182     -0.013775776  
   7414000   0.064919317   -1.2670562      0.12992329    -1.0397665     -0.0064577526 
   7415000   0.064652265   -1.2652459      0.13031864    -1.0379614     -0.0013048742 
   7416000   0.063547423   -1.2644869      0.12950226    -1.0396758      0.010170129  
   7417000   0.063787369   -1.2589841      0.12982789    -1.0334875     -0.014085162  
   7418000   0.064793924   -1.2776195      0.1287567     -1.0516845     -0.0043871104 
   7419000   0.06438586    -1.2527643      0.12857864    -1.0276194      0.0041287157 
   7420000   0.064648095   -1.2695763      0.13069256    -1.0419241     -0.0040869621 
   7421000   0.065163977   -1.2634909      0.12860959    -1.0371479      0.0030940759 
   7422000   0.065100257   -1.2709606      0.12845561    -1.0448672     -0.0011928716 
   7423000   0.065073067   -1.2682523      0.1298954     -1.0407599     -0.0024397102 
   7424000   0.065025061   -1.2645599      0.129325      -1.0377099      0.020128285  
   7425000   0.064875399   -1.2602072      0.12899608    -1.0339106     -0.0095911657 
   7426000   0.063626033   -1.2545425      0.13002113    -1.0290947     -0.023100234  
   7427000   0.064489882   -1.2588648      0.12875229    -1.0333901     -0.014474234  
   7428000   0.064917245   -1.2733894      0.1287074     -1.0473187      0.0027707532 
   7429000   0.064394611   -1.2538928      0.1298089     -1.0275044     -0.010017419  
   7430000   0.064550654   -1.2679084      0.13038201    -1.0407129      0.010377917  
   7431000   0.065570005   -1.2662157      0.1283102     -1.0395631     -0.020575378  
   7432000   0.065077325   -1.2528263      0.12730891    -1.027914       0.0048122117 
   7433000   0.064309523   -1.2626176      0.13012367    -1.0360421     -0.0039408333 
   7434000   0.064353178   -1.2710647      0.12895856    -1.0455888     -0.021001948  
   7435000   0.065573167   -1.2764863      0.13272253    -1.0454167      0.0084508457 
   7436000   0.065874753   -1.2548878      0.12942824    -1.0266602     -0.018124466  
   7437000   0.064514869   -1.2583578      0.13024172    -1.0313562     -0.0033833442 
   7438000   0.064698676   -1.2844642      0.12994479    -1.0574839     -0.0086762404 
   7439000   0.064238694   -1.2557979      0.129563      -1.0298893     -0.0052526445 
   7440000   0.065050983   -1.2654887      0.1305376     -1.0373872      0.0053885041 
   7441000   0.063939397   -1.2593995      0.13174802    -1.0317548      0.0015728354 
   7442000   0.064554081   -1.2711563      0.12812342    -1.0462142     -0.0036265863 
   7443000   0.064826052   -1.2705929      0.13173452    -1.0416318     -0.0073266897 
   7444000   0.064654779   -1.2636906      0.13478975    -1.0319312     -0.00047368684
   7445000   0.064531781   -1.2662528      0.13125451    -1.0382131     -0.015123362  
   7446000   0.065115727   -1.2619396      0.13177604    -1.0325026     -0.0036029    
   7447000   0.065897978   -1.2519226      0.13182838    -1.02126       -0.025105059  
   7448000   0.064320661   -1.2651856      0.13092081    -1.0377963     -0.0052260453 
   7449000   0.065180324   -1.2647487      0.12983048    -1.0371604     -0.0071806498 
   7450000   0.064633066   -1.2554716      0.13105602    -1.0274784      0.0042663564 
   7451000   0.065115306   -1.2572232      0.12946162    -1.0301012     -0.0017259348 
   7452000   0.066331489   -1.2602914      0.1300091     -1.0307979     -0.0039477157 
   7453000   0.065101642   -1.2626098      0.13226905    -1.0327009     -0.0072651251 
   7454000   0.065262508   -1.2576642      0.13168183    -1.0281012      0.0070000891 
   7455000   0.065013834   -1.2616984      0.13146209    -1.0327282     -0.0076639976 
   7456000   0.065604098   -1.2669124      0.13197388    -1.036545      -0.01877983   
   7457000   0.065637092   -1.2657637      0.13078927    -1.0365315     -0.013052287  
   7458000   0.064434613   -1.2641689      0.13220064    -1.0353288      0.0075565685 
   7459000   0.064736063   -1.2641516      0.13012599    -1.036934       0.012186667  
   7460000   0.065992603   -1.2744255      0.13096529    -1.0444841     -0.0098407909 
   7461000   0.063759018   -1.2822186      0.13142756    -1.0551648     -0.0036354531 
   7462000   0.064375649   -1.2734204      0.13168381    -1.0451855     -0.0059534928 
   7463000   0.065346377   -1.2543475      0.13084209    -1.0254985     -0.0033546556 
   7464000   0.064969908   -1.2699327      0.13249822    -1.0399922     -0.022501172  
   7465000   0.063926879   -1.2584935      0.13270797    -1.0299076     -0.0039423425 
   7466000   0.065465388   -1.2569607      0.13178574    -1.0269895      0.0050271219 
   7467000   0.064720444   -1.2628776      0.12999668    -1.0358128     -0.001112932  
   7468000   0.065334267   -1.2535719      0.13294336    -1.0226398      0.00031285905
   7469000   0.064468345   -1.2492864      0.13102345    -1.0215729     -0.0007949621 
   7470000   0.065450091   -1.2472317      0.13089983    -1.0181694     -0.0066230816 
   7471000   0.065460444   -1.2695679      0.12869686    -1.042693      -0.0076753495 
   7472000   0.065052387   -1.268575       0.13020842    -1.0408006      0.0079717558 
   7473000   0.064527591   -1.275829       0.13168459    -1.0473655     -0.00084029652
   7474000   0.065252341   -1.254878       0.12968334    -1.0273287      0.0049814489 
   7475000   0.063656808   -1.2634408      0.13033284    -1.037635      -0.0072491571 
   7476000   0.063951246   -1.2730672      0.1297763     -1.0473764     -0.014450847  
   7477000   0.064703319   -1.2801939      0.13167737    -1.0514741     -0.0037982733 
   7478000   0.063777189   -1.2604539      0.13246637    -1.0323341      0.00063345064
   7479000   0.064353797   -1.2789575      0.12889568    -1.0535436     -0.00086137103
   7480000   0.064192884   -1.2629785      0.12850326    -1.0381983      0.012309021  
   7481000   0.065901457   -1.2628521      0.13107464    -1.0329381      0.0057941156 
   7482000   0.064017636   -1.263237       0.13289643    -1.0343265      6.1866764e-05
   7483000   0.064890256   -1.264455       0.13305243    -1.0340797     -0.0032344743 
   7484000   0.063645268   -1.2635575      0.13140642    -1.0366955     -0.012145589  
   7485000   0.065151155   -1.2729796      0.13246721    -1.0427982     -0.008531778  
   7486000   0.065274086   -1.2617387      0.13242866    -1.0314116     -0.0042083258 
   7487000   0.064184719   -1.2541368      0.13184154    -1.0260306     -0.029762804  
   7488000   0.065378446   -1.2594176      0.13233058    -1.029032      -0.009865896  
   7489000   0.06483704    -1.2619008      0.13483705    -1.0298208     -0.009263438  
   7490000   0.066076952   -1.2705221      0.13216838    -1.0392511      0.010902644  
   7491000   0.065131267   -1.2765318      0.13140871    -1.0474388     -0.0058952577 
   7492000   0.066107783   -1.2641007      0.13126634    -1.0336854     -0.014009194  
   7493000   0.064093466   -1.271865       0.13131457    -1.0444226      0.003117149  
   7494000   0.063975368   -1.2694499      0.13344451    -1.0400548     -0.016651766  
   7495000   0.06274629    -1.260264       0.13048484    -1.0356719      0.0013721057 
   7496000   0.063639444   -1.266098       0.13026223    -1.040389      -0.010838497  
   7497000   0.064312203   -1.256117       0.13048468    -1.0291765      0.0018262659 
   7498000   0.063736704   -1.264192       0.13112417    -1.0374751     -0.0098079027 
   7499000   0.065702881   -1.269861       0.1308323     -1.0404871     -0.015320463  
   7500000   0.064483743   -1.2690691      0.13234267    -1.0400133     -0.01065085   
   7501000   0.064830542   -1.2554207      0.13194142    -1.026246      -0.0031636861 
   7502000   0.064280133   -1.2645815      0.13133728    -1.0368364     -0.016725626  
   7503000   0.063961014   -1.2553804      0.12994055    -1.0295108     -0.0036590044 
   7504000   0.06437786    -1.2569111      0.13051153    -1.0298453     -0.006952407  
   7505000   0.063132169   -1.2826538      0.13184255    -1.0561252     -0.01885945   
   7506000   0.064561974   -1.2493634      0.13085472    -1.0216782     -0.00047125073
   7507000   0.0646265     -1.2715566      0.13238153    -1.0422478      0.0040248007 
   7508000   0.06428209    -1.2693869      0.13174606    -1.0412302     -0.0056910459 
   7509000   0.063998128   -1.2641837      0.13060794    -1.0375909     -0.0087890432 
   7510000   0.065409295   -1.2820972      0.13171164    -1.0522843     -0.0036075257 
   7511000   0.06530234    -1.2696895      0.13172976    -1.0400189      0.0063057594 
   7512000   0.064727349   -1.2681522      0.13037232    -1.0407014     -0.011462535  
   7513000   0.063549771   -1.250711       0.13055385    -1.0248448     -0.0091146498 
   7514000   0.064443696   -1.2709884      0.13220845    -1.0421269     -0.0038367924 
   7515000   0.0652974     -1.2583298      0.13268223    -1.0277141      0.0091685151 
   7516000   0.064855322   -1.2642211      0.13207885    -1.0348718     -0.012318095  
   7517000   0.063294887   -1.279736       0.12941125    -1.0553946     -0.0094772759 
   7518000   0.064290849   -1.2639608      0.13084975    -1.0366872     -0.01433466   
   7519000   0.064880318   -1.2644163      0.13198854    -1.0351198     -0.0025454391 
   7520000   0.064265123   -1.2718726      0.12983581    -1.0456515     -0.01587631   
   7521000   0.063246067   -1.2568932      0.13135835    -1.030678       0.011746951  
   7522000   0.063789203   -1.278157       0.12861056    -1.053875       0.0036175248 
   7523000   0.062636435   -1.2756595      0.13043609    -1.0512809      0.0040594549 
   7524000   0.062849045   -1.2585077      0.13082641    -1.0334199     -0.024389607  
   7525000   0.06448885    -1.2607311      0.12970878    -1.0343015     -0.002090743  
   7526000   0.065417815   -1.2572937      0.13129007    -1.0278896      0.0094530623 
   7527000   0.06340122    -1.2772963      0.13284296    -1.0493638     -0.013590589  
   7528000   0.063082141   -1.257975       0.13087499    -1.032489       0.0073328778 
   7529000   0.064549485   -1.2756842      0.13207631    -1.0467962      0.002067121  
   7530000   0.064729246   -1.2753757      0.13188219    -1.0464122      0.010769791  
   7531000   0.064763648   -1.2587835      0.13092184    -1.0307287      0.00088204546
   7532000   0.065066266   -1.26398        0.13011759    -1.0362756     -0.012075658  
   7533000   0.064717225   -1.2550927      0.13204961    -1.0259798     -0.0041426833 
   7534000   0.064141808   -1.2657942      0.13018083    -1.039413      -0.0097166036 
   7535000   0.065276033   -1.2564399      0.13114916    -1.0273893     -0.0054738811 
   7536000   0.064360544   -1.2706246      0.13281659    -1.0412796     -0.014842722  
   7537000   0.063335827   -1.2674911      0.13193642    -1.0405632     -0.010414546  
   7538000   0.064637832   -1.2634767      0.13184221    -1.0346903      0.0059603076 
   7539000   0.064699731   -1.2780679      0.13274657    -1.0482843     -0.012566633  
   7540000   0.064864037   -1.2687725      0.1309121     -1.0405769      0.00091516563
   7541000   0.064781486   -1.2555652      0.13259489    -1.0258106     -0.011187966  
   7542000   0.063423333   -1.2747352      0.13275384    -1.0468587      0.01612004   
   7543000   0.065365362   -1.2733624      0.13095707    -1.04437       -0.0062187126 
   7544000   0.064089201   -1.279362       0.1333223     -1.0499183     -0.012226034  
   7545000   0.063949929   -1.2617908      0.1347508     -1.0311275      0.0012682745 
   7546000   0.064072628   -1.271069       0.13204662    -1.0429258      0.003840113  
   7547000   0.06514261    -1.2610467      0.1315056     -1.0318398      0.0063173965 
   7548000   0.06483597    -1.2658634      0.13058251    -1.0380394     -0.003257245  
   7549000   0.064779658   -1.2679516      0.13351756    -1.0372771      0.0094672843 
   7550000   0.063989036   -1.2606474      0.13312229    -1.0315539     -0.010337308  
   7551000   0.064650932   -1.2648832      0.13147355    -1.0364457      0.00966337   
   7552000   0.064934079   -1.272505       0.13139148    -1.043725      -0.015971018  
   7553000   0.064510542   -1.2530608      0.13142367    -1.0248838     -0.024440618  
   7554000   0.064922389   -1.2634641      0.13002904    -1.0360641     -0.0030964338 
   7555000   0.064348458   -1.2729213      0.13236682    -1.0440443     -0.015098469  
   7556000   0.065644132   -1.2601397      0.13295847    -1.0287277     -0.0091148378 
   7557000   0.065112713   -1.2570045      0.13167233    -1.0276757     -0.0097852021 
   7558000   0.06366587    -1.2628229      0.12988989    -1.0374465     -0.011480937  
   7559000   0.064074079   -1.269687       0.13138669    -1.0422016      0.0090243803 
   7560000   0.063378975   -1.2724864      0.13103216    -1.0463981      0.012561731  
   7561000   0.06451624    -1.2666294      0.13142757    -1.0384399     -0.01324595   
   7562000   0.06478811    -1.2610835      0.13015844    -1.0337555      0.015787166  
   7563000   0.06441871    -1.269663       0.13243886    -1.0406085     -0.0062909808 
   7564000   0.065586903   -1.2589343      0.13121311    -1.0293535     -0.0057851245 
   7565000   0.065833976   -1.2793857      0.13318078    -1.0474667     -0.0020575737 
   7566000   0.063809222   -1.2644856      0.13389068    -1.0348934     -0.011621649  
   7567000   0.065443322   -1.265487       0.13188007    -1.0354546      0.011218093  
   7568000   0.064282445   -1.2667725      0.13361077    -1.0367505     -0.018930063  
   7569000   0.065338451   -1.2537901      0.1328861     -1.022909      -0.013950256  
   7570000   0.064223825   -1.2608823      0.13310955    -1.0314494     -0.0052802684 
   7571000   0.06529748    -1.2676711      0.13256565    -1.0371719     -0.0047059875 
   7572000   0.064957922   -1.2831196      0.13211911    -1.0535762     -0.00033159944
   7573000   0.065207311   -1.2815533      0.13336358    -1.0503913     -0.0060421362 
   7574000   0.0642988     -1.2711315      0.13326787    -1.0414279     -0.014508126  
   7575000   0.064976724   -1.277141       0.13282896    -1.0468595     -0.013219311  
   7576000   0.064090627   -1.265972       0.13263861    -1.0372099      0.0042614363 
   7577000   0.066226075   -1.274107       0.13224506    -1.0425357      0.00057060005
   7578000   0.064236909   -1.2715355      0.13291145    -1.0422811     -0.0020568769 
   7579000   0.063709264   -1.2651372      0.13346504    -1.0361206     -0.0025881132 
   7580000   0.063930195   -1.2669267      0.13524403    -1.0357997     -0.0040446138 
   7581000   0.065758811   -1.2695195      0.13224725    -1.0386468      0.0019868448 
   7582000   0.064167853   -1.2644731      0.13339386    -1.0348399      0.0083377184 
   7583000   0.064060808   -1.2884629      0.13401281    -1.0583712     -0.0038072399 
   7584000   0.06322436    -1.2736611      0.13378667    -1.0450501      0.0029193978 
   7585000   0.063738315   -1.2819365      0.13162989    -1.0547115      0.00043514523
   7586000   0.063088788   -1.2735106      0.13490492    -1.0439847      0.0028008416 
   7587000   0.064558652   -1.273533       0.13131653    -1.045391       0.0068968664 
   7588000   0.064473414   -1.2762375      0.13377105    -1.0457688     -0.0091694486 
   7589000   0.064628318   -1.2652922      0.13365727    -1.034705      -0.024092326  
   7590000   0.065222406   -1.277778       0.13347142    -1.0464856     -0.0050640909 
   7591000   0.064780705   -1.2513345      0.1346119     -1.019564      -0.011155996  
   7592000   0.064236437   -1.2659875      0.13540369    -1.0342416     -0.020047864  
   7593000   0.06355721    -1.2762749      0.13692289    -1.0440285     -0.0065117012 
   7594000   0.064990913   -1.2565191      0.13329734    -1.025748       0.004750495  
   7595000   0.064670611   -1.2559845      0.13246814    -1.026523       0.0028729211 
   7596000   0.065694263   -1.2629654      0.13299503    -1.0314417     -0.0046808785 
   7597000   0.064503613   -1.2638529      0.13276993    -1.03434        0.0075751884 
   7598000   0.065304631   -1.2615601      0.1351624     -1.0284534     -0.0094339413 
   7599000   0.064960077   -1.2630314      0.13632062    -1.0292833     -0.013949467  
   7600000   0.064948148   -1.2645278      0.13468253    -1.0324356     -0.0065503989 
   7601000   0.066433557   -1.2603393      0.13415927    -1.0265426     -0.019145847  
   7602000   0.065573358   -1.2697128      0.13641675    -1.0349487      0.0028039907 
   7603000   0.064747579   -1.2751952      0.13751527    -1.0405711      0.0038910272 
   7604000   0.065341736   -1.2671506      0.13544269    -1.0337079      0.0017173435 
   7605000   0.065139507   -1.2610795      0.13509406    -1.0282888      0.0069790242 
   7606000   0.064209395   -1.2748427      0.1365531     -1.0419879     -0.0082065739 
   7607000   0.064220203   -1.2442984      0.13331619    -1.0146643     -0.017301057  
   7608000   0.06493325    -1.2724081      0.13410033    -1.0409204     -0.022731136  
   7609000   0.064064888   -1.2675297      0.13457785    -1.0368669     -0.0088582075 
   7610000   0.065577775   -1.2641169      0.13475196    -1.031011       3.6138783e-06
   7611000   0.065266597   -1.2627384      0.13412057    -1.0307305     -0.01539474   
   7612000   0.064789094   -1.2715703      0.13564048    -1.0387587     -0.014701488  
   7613000   0.065566797   -1.2523077      0.13316644    -1.0208038     -0.0031504655 
   7614000   0.06477616    -1.260657       0.13633071    -1.0271746     -0.0081439882 
   7615000   0.066797271   -1.2686362      0.13471999    -1.0337333     -0.0072710751 
   7616000   0.065081038   -1.2606558      0.13642981    -1.026617      -0.014420657  
   7617000   0.064811767   -1.2519598      0.13577957    -1.0189752     -0.005597294  
   7618000   0.065480344   -1.2579747      0.13389697    -1.0258699     -0.019632545  
   7619000   0.065108036   -1.2621288      0.13396751    -1.0305118     -0.0063529052 
   7620000   0.064750693   -1.2661407      0.13452915    -1.034498      -0.012189229  
   7621000   0.064677937   -1.2815477      0.13349731    -1.051046       0.0034759267 
   7622000   0.064442294   -1.2662359      0.13306655    -1.0365184      0.017453371  
   7623000   0.064589288   -1.2565683      0.13358623    -1.0261107     -0.0034336763 
   7624000   0.064958902   -1.2725751      0.13404741    -1.0411019      0.015923784  
   7625000   0.065046238   -1.2564009      0.13399768    -1.0248464     -0.018402933  
   7626000   0.064379927   -1.2650223      0.1339811     -1.0344838      0.0024927765 
   7627000   0.06419429    -1.273095       0.13424364    -1.0425724      0.0057220183 
   7628000   0.064682486   -1.257005       0.13286599    -1.0271278     -0.0066390686 
   7629000   0.065166749   -1.2512048      0.13261512    -1.0208522     -0.023212337  
   7630000   0.06613061    -1.2665244      0.13372163    -1.0336197      0.0051758486 
   7631000   0.064589184   -1.2771409      0.13349842    -1.0467712     -0.0038130296 
   7632000   0.064895215   -1.2683216      0.13600707    -1.0349843      0.0084169162 
   7633000   0.065424597   -1.2660579      0.13554498    -1.0323887      0.0094720679 
   7634000   0.066017313   -1.2788934      0.13643474    -1.0434455      0.007627325  
   7635000   0.064988819   -1.2544888      0.13500286    -1.0220153      0.028033683  
   7636000   0.066049587   -1.2666805      0.13634803    -1.0312709      0.011188941  
   7637000   0.064888062   -1.2671649      0.13548298    -1.0343624     -0.0014979359 
   7638000   0.065719447   -1.2741924      0.13578516    -1.0398408      0.0071285116 
   7639000   0.065435735   -1.2649662      0.13510135    -1.0317239     -0.0045178455 
   7640000   0.065726223   -1.2748493      0.13492286    -1.0413499      0.018421693  
   7641000   0.065466123   -1.259544       0.13370883    -1.0276486      0.0093396609 
   7642000   0.065448037   -1.2654546      0.13268738    -1.0346078      0.016498552  
   7643000   0.064865116   -1.2663913      0.13336423    -1.035742       0.011782279  
   7644000   0.065229301   -1.2732358      0.13352629    -1.0418781      0.0082247741 
   7645000   0.064971164   -1.264325       0.13395106    -1.0329298     -0.0031974993 
   7646000   0.065030922   -1.2704367      0.13507507    -1.0378278      0.0064369346 
   7647000   0.064610351   -1.2743014      0.13253543    -1.044863      -0.00061022289
   7648000   0.065547948   -1.2717627      0.13552486    -1.0379286      0.00024919091
   7649000   0.065404281   -1.268584       0.13538533    -1.0351049      9.7933334e-05
   7650000   0.066052587   -1.2582812      0.13390488    -1.0253102      0.0062127088 
   7651000   0.064206431   -1.2645564      0.1330901     -1.0351691      0.010694028  
   7652000   0.066083353   -1.2532457      0.13324765    -1.0208858      0.011614481  
   7653000   0.064919881   -1.2744683      0.13527933    -1.0418217      0.011428797  
   7654000   0.064253217   -1.2785718      0.13509937    -1.0471051     -0.011034322  
   7655000   0.064604746   -1.2839518      0.13492772    -1.0521294     -0.012960863  
   7656000   0.06484549    -1.2640192      0.13371602    -1.0330475     -0.0090847017 
   7657000   0.064745303   -1.2710795      0.1332551     -1.040719       0.011909132  
   7658000   0.065119114   -1.2619827      0.13487291    -1.0294437      0.00010152484
   7659000   0.065674197   -1.2540628      0.13419208    -1.0213722      0.024718656  
   7660000   0.064933242   -1.2674345      0.13582297    -1.0342242     -0.0053470193 
   7661000   0.065607616   -1.2727727      0.1347434     -1.0396305     -0.00045566664
   7662000   0.064739627   -1.274835       0.13442918    -1.0433089      0.014119415  
   7663000   0.065531419   -1.2658822      0.13341497    -1.0341828      0.0088495921 
   7664000   0.064203169   -1.2693264      0.13443723    -1.0385968      0.017416561  
   7665000   0.064887936   -1.2658839      0.13289093    -1.0356736     -0.011544448  
   7666000   0.064345465   -1.267064       0.13521785    -1.0353404     -0.0093427697 
   7667000   0.066173392   -1.2685069      0.13304945    -1.0362102     -0.011871761  
   7668000   0.065710457   -1.2711436      0.13388538    -1.0387053      0.00062386019
   7669000   0.065024112   -1.2636245      0.13453849    -1.0315625      0.0078469259 
   7670000   0.065422195   -1.2593529      0.13502239    -1.0262099      0.0014066277 
   7671000   0.065257382   -1.2711619      0.13406977    -1.0392187      0.012295202  
   7672000   0.064477151   -1.2497455      0.13388789    -1.0191544      0.0074224974 
   7673000   0.064438797   -1.2608415      0.13303761    -1.0311582     -0.0039891148 
   7674000   0.065000832   -1.2668079      0.13341309    -1.0359061     -0.010473196  
   7675000   0.065663179   -1.2740958      0.13324134    -1.0423724     -0.012847146  
   7676000   0.065677505   -1.2666561      0.13420971    -1.0339428     -0.0020943087 
   7677000   0.06367982    -1.2614284      0.13501286    -1.0309081     -0.011414794  
   7678000   0.066461005   -1.2576224      0.13442119    -1.0235225     -0.00090814061
   7679000   0.067764087   -1.2713373      0.13649222    -1.033212       0.0083895408 
   7680000   0.066579283   -1.2642573      0.13579204    -1.0286092     -0.0052740499 
   7681000   0.066129897   -1.2694475      0.13379698    -1.0364685      0.00067698616
   7682000   0.064512605   -1.2635619      0.13331947    -1.033486       0.0088431444 
   7683000   0.065736502   -1.2749035      0.13384376    -1.0424677     -0.0080868275 
   7684000   0.06518443    -1.2638752      0.13480812    -1.0313031      0.0030092839 
   7685000   0.064835422   -1.2725824      0.13338461    -1.0419572      0.016442911  
   7686000   0.064306985   -1.2659301      0.13419134    -1.0352907      0.0048344903 
   7687000   0.066116384   -1.2714116      0.13363901    -1.0386108      0.0088014462 
   7688000   0.06413753    -1.2719698      0.13482908    -1.0409469      0.00021621389
   7689000   0.065844555   -1.2659509      0.13369707    -1.0334997     -3.6955508e-05
   7690000   0.06557588    -1.2727414      0.13442453    -1.0399658      0.0018899771 
   7691000   0.065254763   -1.2765531      0.13355706    -1.0451266      0.0025497642 
   7692000   0.065321059   -1.2582637      0.13333254    -1.0269622      0.0057072939 
   7693000   0.066186069   -1.2584271      0.13426278    -1.0248981      0.0011438563 
   7694000   0.064467098   -1.2541462      0.1352003     -1.0222577     -0.010146465  
   7695000   0.065170651   -1.2571296      0.13587165    -1.0235146      0.0039921022 
   7696000   0.064783748   -1.2699726      0.13594896    -1.0368606      0.012475696  
   7697000   0.065422832   -1.2704982      0.13547758    -1.036899       0.011483572  
   7698000   0.06462257    -1.2486971      0.13596984    -1.0158059     -0.0075633238 
   7699000   0.064577318   -1.265915       0.13535297    -1.0337086      0.0055565972 
   7700000   0.064074888   -1.2775657      0.13510496    -1.0463609      0.0088003183 
   7701000   0.065116105   -1.2596998      0.13448703    -1.0275512      0.0049940587 
   7702000   0.065172176   -1.2557279      0.13716614    -1.0208161      0.0026048449 
   7703000   0.065023382   -1.2539316      0.13224211    -1.024167       0.0050648814 
   7704000   0.064463399   -1.2748061      0.13519195    -1.0429315      0.018963227  
   7705000   0.06517782    -1.2760771      0.13488293    -1.04344       -0.0026827606 
   7706000   0.06429826    -1.2555938      0.13487865    -1.0242802      0.018651462  
   7707000   0.065301063   -1.2754438      0.13618541    -1.0413195      0.020462729  
   7708000   0.065006718   -1.2709733      0.13609757    -1.0373783      0.019324888  
   7709000   0.065093976   -1.2555332      0.13497589    -1.022929       0.0070901858 
   7710000   0.0650037     -1.2650386      0.13635988    -1.0311858     -0.0045373926 
   7711000   0.064402638   -1.2698552      0.13463589    -1.0386278      0.013314907  
   7712000   0.064636591   -1.2657022      0.13357542    -1.0351844      0.010694536  
   7713000   0.064813839   -1.2563742      0.1353651     -1.0238009      0.0052602214 
   7714000   0.065380949   -1.2610762      0.13413088    -1.0288865      0.0072973274 
   7715000   0.064336345   -1.2725319      0.1362682     -1.0397717      0.0034512431 
   7716000   0.0657546     -1.2622233      0.13575419    -1.02785        0.0037099159 
   7717000   0.064752123   -1.2549267      0.13637779    -1.0214332     -0.015140888  
   7718000   0.066104844   -1.2636179      0.13508002    -1.0293934      0.015837038  
   7719000   0.065201196   -1.2615212      0.13639361    -1.0273384      0.0051484846 
   7720000   0.066309845   -1.2627791      0.13621266    -1.0271145     -0.010085298  
   7721000   0.064681801   -1.2522853      0.13547643    -1.0197987      0.019819226  
   7722000   0.06490338    -1.2667085      0.1338484     -1.0355176      0.0058938163 
   7723000   0.065469152   -1.2753804      0.13520347    -1.0419859     -0.0054416695 
   7724000   0.063481603   -1.2718666      0.13525962    -1.0413969      0.026357489  
   7725000   0.065633634   -1.272095       0.13551962    -1.0381376     -0.010428608  
   7726000   0.064986661   -1.2489664      0.13544114    -1.0160579      0.0055758368 
   7727000   0.065392633   -1.2819917      0.13679104    -1.0471244      0.0011582958 
   7728000   0.064555025   -1.2599682      0.13527784    -1.0278703      0.011067463  
   7729000   0.064360911   -1.2618325      0.13519529    -1.0301083     -0.0084132443 
   7730000   0.064616252   -1.2747156      0.13380865    -1.0439951     -0.0043437473 
   7731000   0.064534818   -1.2679993      0.13680083    -1.0344087     -0.0025544683 
   7732000   0.065137035   -1.2686871      0.13515832    -1.0358358      0.0030951231 
   7733000   0.063494943   -1.2711187      0.13532249    -1.0405661      0.0062182024 
   7734000   0.064630863   -1.2547946      0.13677735    -1.0210835     -0.0067006954 
   7735000   0.065081461   -1.2613536      0.13607403    -1.02767        0.011684715  
   7736000   0.064991406   -1.25117        0.13539616    -1.0182993      0.0053000686 
   7737000   0.06570712    -1.262173       0.136077      -1.0275481      0.0049713022 
   7738000   0.065667151   -1.263506       0.13442966    -1.0305883      0.0080420836 
   7739000   0.065445321   -1.2597393      0.13679386    -1.0247901      0.0070459359 
   7740000   0.064927781   -1.2709148      0.13577822    -1.0377574      0.002732461  
   7741000   0.06413978    -1.2705304      0.13506516    -1.0392679      0.0022398861 
   7742000   0.066349693   -1.2614441      0.13673802    -1.0251944      0.02006635   
   7743000   0.065345173   -1.2631842      0.13513009    -1.030049       0.0059969644 
   7744000   0.065424622   -1.2586112      0.13515276    -1.0253341     -0.010121153  
   7745000   0.065100487   -1.2773926      0.13745691    -1.0422976     -0.0042314064 
   7746000   0.065354991   -1.2638476      0.13373654    -1.0320913      0.00097194848
   7747000   0.064317175   -1.2520653      0.13484161    -1.0207604     -0.0089007344 
   7748000   0.064768473   -1.2649746      0.13772543    -1.030109       0.027393423  
   7749000   0.065016662   -1.26458        0.1357327     -1.0313349     -0.0093580013 
   7750000   0.066082307   -1.2617358      0.13667841    -1.0259467      0.0042722549 
   7751000   0.064818939   -1.2718856      0.13671795    -1.0379518     -0.00194077   
   7752000   0.06657049    -1.2528172      0.1376327     -1.0153416     -0.0037340355 
   7753000   0.065849003   -1.2598939      0.13517152    -1.0259616     -0.01383855   
   7754000   0.06662322    -1.2610974      0.13777153    -1.0234039      0.0013190619 
   7755000   0.065102551   -1.2744307      0.13868097    -1.0381085     -0.012861646  
   7756000   0.066232995   -1.2594405      0.138233      -1.0218708      0.0042870341 
   7757000   0.065267833   -1.2632616      0.13783616    -1.0275364      0.010558606  
   7758000   0.065192541   -1.2745519      0.13621083    -1.0405649      0.003563234  
   7759000   0.065341609   -1.2579682      0.13608193    -1.0238865      0.02025286   
   7760000   0.06502731    -1.2454832      0.13654342    -1.0114114      0.0063769834 
   7761000   0.063873775   -1.2700788      0.13878722    -1.0354932     -0.0052151568 
   7762000   0.065403989   -1.2709275      0.13653099    -1.0363032      0.016202022  
   7763000   0.065654756   -1.2696071      0.13841259    -1.0327251     -0.0063427018 
   7764000   0.066054332   -1.2740936      0.13822457    -1.0368004     -0.00069450267
   7765000   0.065120217   -1.2559882      0.13704981    -1.0212707      0.019282537  
   7766000   0.065070292   -1.2636225      0.13692954    -1.0291001      0.015348384  
   7767000   0.064863923   -1.2566216      0.1343604     -1.0249778      0.01994973   
   7768000   0.06598758    -1.2452973      0.13711652    -1.0092122     -0.0021269067 
   7769000   0.06672521    -1.2698686      0.13639794    -1.0333957      0.013796397  
   7770000   0.065079472   -1.2685149      0.13540856    -1.0354997      0.0049647267 
   7771000   0.066018324   -1.2556615      0.1336433     -1.0230034      0.0090249392 
   7772000   0.065778933   -1.2675307      0.13758473    -1.0312903     -0.0027940925 
   7773000   0.0652458     -1.2693323      0.13505597    -1.0364202     -0.00052529719
   7774000   0.065001154   -1.2692134      0.13401863    -1.0377056      0.0012409063 
   7775000   0.064731684   -1.2630294      0.13472917    -1.0312152     -0.01032261   
   7776000   0.06551472    -1.2652044      0.13571197    -1.031233       0.0046804462 
   7777000   0.065813393   -1.2839256      0.13603125    -1.049187       0.0099338521 
   7778000   0.066703899   -1.2602258      0.13558711    -1.0245958     -0.0051725224 
   7779000   0.064381901   -1.259265       0.13573882    -1.0269658      0.012022772  
   7780000   0.065395226   -1.2671477      0.13518039    -1.0338872      0.0051872388 
   7781000   0.065196259   -1.2648955      0.13384028    -1.0332735      0.010559505  
   7782000   0.065138844   -1.2741544      0.13447279    -1.0419859     -0.0084048344 
   7783000   0.06616365    -1.2680168      0.13476727    -1.0340169     -0.0046968854 
   7784000   0.065607167   -1.2626561      0.1362365     -1.0280216      0.0093821248 
   7785000   0.065431162   -1.2623011      0.13613799    -1.028029       0.0018443648 
   7786000   0.065344605   -1.2539084      0.13599723    -1.019907      -0.0037728325 
   7787000   0.066096796   -1.2580597      0.13620551    -1.0227218      0.0025653083 
   7788000   0.065005327   -1.2701229      0.13575923    -1.0368682     -0.014251254  
   7789000   0.065038468   -1.2707355      0.13658561    -1.0366048      0.0063075931 
   7790000   0.064770963   -1.2620159      0.13473759    -1.0301344      0.027889925  
   7791000   0.064704185   -1.2706643      0.13548071    -1.0381398      0.010467978  
   7792000   0.064877931   -1.2658686      0.13573115    -1.0328331      0.0031582878 
   7793000   0.065661718   -1.2666913      0.13635495    -1.0318565      0.020100928  
   7794000   0.06539225    -1.2569802      0.13591675    -1.0229877      0.0067591361 
   7795000   0.066223427   -1.2493505      0.13470445    -1.0153237      0.011680491  
   7796000   0.065630775   -1.2670648      0.1371606     -1.0314707      0.0013111763 
   7797000   0.06683298    -1.2678043      0.13652739    -1.0310404      0.001574004  
   7798000   0.065696332   -1.2512589      0.13590282    -1.0168243     -0.015373806  
   7799000   0.064942279   -1.263296       0.13584058    -1.0300545      0.014745972  
   7800000   0.066484412   -1.251771       0.13741401    -1.0146432      0.00031079343
   7801000   0.065906013   -1.2722737      0.13739117    -1.0360362     -0.02081002   
   7802000   0.064903347   -1.2692635      0.13613871    -1.0357823      0.0080924891 
   7803000   0.066058811   -1.2585741      0.13608519    -1.0234135      0.0094670978 
   7804000   0.066520318   -1.2665199      0.13402269    -1.0327296      0.0032068476 
   7805000   0.064705851   -1.2588113      0.13595302    -1.025812       0.00017081115
   7806000   0.065380216   -1.2532194      0.13525864    -1.0199031      0.014238179  
   7807000   0.065399573   -1.2776451      0.13628451    -1.0432739     -0.011634744  
   7808000   0.064436648   -1.2629826      0.13480282    -1.0315373      0.025588497  
   7809000   0.065717323   -1.2709747      0.13695054    -1.0354609      0.010008596  
   7810000   0.065117111   -1.2638322      0.1365331     -1.029636      -0.0077960358 
   7811000   0.065153464   -1.2659394      0.13531872    -1.0329031      0.0004339569 
   7812000   0.066333575   -1.2631536      0.13680597    -1.0268601      0.00063243144
   7813000   0.064550181   -1.2516567      0.13675237    -1.0180915      0.0076226878 
   7814000   0.065140464   -1.2708064      0.13630691    -1.0368014     -0.005692092  
   7815000   0.065092531   -1.2569362      0.13611598    -1.023194       0.021992182  
   7816000   0.063777776   -1.2570453      0.13431903    -1.027072       0.0086760039 
   7817000   0.064511939   -1.2672316      0.13652216    -1.0339541      0.020700647  
   7818000   0.065545498   -1.2713923      0.13775435    -1.0353324      0.0041890151 
   7819000   0.065370065   -1.2599621      0.13543719    -1.0264824      0.015219639  
   7820000   0.064438039   -1.2732159      0.13482964    -1.0417417      0.016266052  
   7821000   0.066132175   -1.2614916      0.13621937    -1.0260867      0.0090924736 
   7822000   0.065972151   -1.2571976      0.13386812    -1.024384       0.035887264  
   7823000   0.065102341   -1.2846297      0.13728607    -1.0497027      0.007833014  
   7824000   0.065492712   -1.2814206      0.13644682    -1.0467474      0.019007436  
   7825000   0.065963796   -1.2733576      0.13516356    -1.0392611      0.0045206313 
   7826000   0.065655581   -1.2760567      0.13494529    -1.0426408      0.017941606  
   7827000   0.066318002   -1.2656919      0.13606014    -1.0301676      0.0182325    
   7828000   0.066149489   -1.266889       0.13704832    -1.0306292      0.018330691  
   7829000   0.066214749   -1.2603347      0.13726796    -1.0237575      0.010160425  
   7830000   0.065245687   -1.2541348      0.13722278    -1.0190562      0.0087173634 
   7831000   0.065272936   -1.2803023      0.13479857    -1.0476069      0.010668054  
   7832000   0.065826817   -1.2639678      0.13563151    -1.0296088      0.011018413  
   7833000   0.064409089   -1.2642433      0.13353328    -1.0341088      0.017529315  
   7834000   0.064990293   -1.2642269      0.13597441    -1.0307796      0.0021752717 
   7835000   0.065208566   -1.272571       0.13630657    -1.0384642      0.022713936  
   7836000   0.06507254    -1.253274       0.13781949    -1.0178583     -0.0047198299 
   7837000   0.064776114   -1.25433        0.1345496     -1.0226288      0.0068439544 
   7838000   0.064999712   -1.2720143      0.13398059    -1.0405467      0.019919953  
   7839000   0.065427881   -1.2725127      0.13160177    -1.0427817      0.020321666  
   7840000   0.064646525   -1.2736451      0.13316649    -1.0435214      0.019052347  
   7841000   0.064883728   -1.2624633      0.13413466    -1.0310156      0.022579676  
   7842000   0.064865201   -1.2717825      0.13384738    -1.0406499      0.010251979  
   7843000   0.065276442   -1.2555884      0.13524958    -1.0224368      0.022522337  
   7844000   0.065608671   -1.2668438      0.13579594    -1.0326475      0.0014401971 
   7845000   0.065671545   -1.2688879      0.13545084    -1.0349424      0.00025989773
   7846000   0.06452963    -1.2639445      0.13572773    -1.0314348      0.0045928664 
   7847000   0.064288685   -1.2788308      0.13344727    -1.048963       0.009877181  
   7848000   0.06403746    -1.2763288      0.13395693    -1.0463281      0.0011093784 
   7849000   0.06577307    -1.2610343      0.13345375    -1.0289337      0.012341397  
   7850000   0.064078876   -1.2736001      0.13565284    -1.0418414      0.0074193074 
   7851000   0.066286277   -1.2651648      0.13452713    -1.0312211      0.007148192  
   7852000   0.066009352   -1.2571605      0.13525999    -1.0228993      0.009612637  
   7853000   0.065420085   -1.2630294      0.13600044    -1.0289115     -0.0058568134 
   7854000   0.066625741   -1.2666502      0.13713129    -1.0295932      0.02512964   
   7855000   0.065711569   -1.2745757      0.13744923    -1.0385719      0.0069777733 
   7856000   0.066115977   -1.2642864      0.13348002    -1.0316452      0.014359959  
   7857000   0.065457469   -1.2569321      0.13540244    -1.0233562      0.011071539  
   7858000   0.064463443   -1.2582101      0.13543672    -1.0260907      0.020778765  
   7859000   0.066310873   -1.2748753      0.13611308    -1.0393088      0.0042829971 
   7860000   0.064052881   -1.2657666      0.13567273    -1.034027       0.026147122  
   7861000   0.06493931    -1.2612543      0.13411341    -1.0297445     -0.00022563872
   7862000   0.066238556   -1.2671104      0.13433355    -1.0334319      0.00048269847
   7863000   0.064742458   -1.2640526      0.13594023    -1.0310112      0.029705812  
   7864000   0.065003792   -1.2732047      0.13341713    -1.0422945      0.01685558   
   7865000   0.065901156   -1.2497895      0.13377476    -1.0171758      0.0085592768 
   7866000   0.065823132   -1.2728683      0.13681052    -1.0373358     -0.014959982  
   7867000   0.065491403   -1.2749248      0.13368879    -1.0430116      0.0035920402 
   7868000   0.06682654    -1.2729616      0.13374677    -1.038988       3.3829845e-05
   7869000   0.065541119   -1.2584418      0.13464767    -1.0254951     -0.016051066  
   7870000   0.065457117   -1.2638553      0.13542986    -1.0302524      0.00070497928
   7871000   0.06524545    -1.260728       0.13200152    -1.030871       0.01457806   
   7872000   0.065544148   -1.2626689      0.13172968    -1.0326357      0.0003753027 
   7873000   0.065730701   -1.2627736      0.13277934    -1.031411       0.011045533  
   7874000   0.065509129   -1.2672196      0.13414718    -1.0348214      0.012605647  
   7875000   0.064024649   -1.2625914      0.13375875    -1.0328081     -0.016987057  
   7876000   0.06399965    -1.2599781      0.13449111    -1.0294999      0.0031921262 
   7877000   0.063852283   -1.2675147      0.13376322    -1.0379854      0.0091557724 
   7878000   0.06434348    -1.2669849      0.13365342    -1.0368287      0.012667859  
   7879000   0.064551615   -1.2722867      0.13251947    -1.0429523     -0.0039449014 
   7880000   0.064866806   -1.2579022      0.13381736    -1.0267972      0.003348499  
   7881000   0.065088833   -1.270416       0.13510134    -1.037694       0.023090016  
   7882000   0.06476535    -1.270929       0.1332601     -1.0405334      0.012764749  
   7883000   0.066073845   -1.2615958      0.13410927    -1.0283886      0.0026491469 
   7884000   0.065796102   -1.2593809      0.13307885    -1.0276206     -0.0081233126 
   7885000   0.064675684   -1.2622096      0.13499692    -1.0302116      0.013388196  
   7886000   0.065263147   -1.2650157      0.1340206     -1.033113       0.0013514411 
   7887000   0.064803042   -1.2618885      0.13492652    -1.02977        0.01502265   
   7888000   0.064353427   -1.2624672      0.13325044    -1.032699      -0.00073029879
   7889000   0.065058368   -1.2672448      0.13644982    -1.03322        0.0019998993 
   7890000   0.065360697   -1.2516589      0.1342729     -1.0193576     -0.0018415114 
   7891000   0.06504269    -1.2612232      0.1365397     -1.027132       0.0053168184 
   7892000   0.065203518   -1.2851936      0.13420382    -1.0531971      0.009862981  
   7893000   0.065842161   -1.2585232      0.13467978    -1.025093       0.0084822872 
   7894000   0.064814989   -1.272904       0.13649457    -1.0391995      0.019141107  
   7895000   0.065086087   -1.2723569      0.13370583    -1.0410345     -0.010989144  
   7896000   0.065337609   -1.2665619      0.13092986    -1.0376383      0.016193413  
   7897000   0.064577797   -1.2504229      0.13282553    -1.0207432      0.0037906116 
   7898000   0.064824267   -1.2702754      0.13397199    -1.0390796      0.0073453021 
   7899000   0.065654241   -1.2950333      0.13218028    -1.0643844      0.0044660852 
   7900000   0.064163598   -1.2608692      0.13369275    -1.0309435      0.0029952915 
   7901000   0.064852421   -1.2633934      0.13233141    -1.0337959     -0.0098901659 
   7902000   0.064610859   -1.2724074      0.13380654    -1.0416971      0.01671345   
   7903000   0.06545647    -1.2709654      0.13319839    -1.039595       0.018251594  
   7904000   0.065307109   -1.2694685      0.1341021     -1.0374184      0.0053081855 
   7905000   0.065812948   -1.2667989      0.13419701    -1.0338952     -0.0045613251 
   7906000   0.064607844   -1.2688577      0.13396393    -1.0379945     -0.0026493075 
   7907000   0.064584596   -1.261833       0.13310832    -1.0318603      0.0071644906 
   7908000   0.064995145   -1.2621887      0.13392345    -1.0307851      0.025405542  
   7909000   0.064121035   -1.2724596      0.13413047    -1.0421599      0.0030640392 
   7910000   0.064823315   -1.2623258      0.13210232    -1.033001      -0.0055070649 
   7911000   0.06564533    -1.2574695      0.13343709    -1.0255771     -0.021862169  
   7912000   0.065837014   -1.2647055      0.13432071    -1.031642       0.004160002  
   7913000   0.066089808   -1.270541       0.13460912    -1.03681        0.029225348  
   7914000   0.065385678   -1.246814       0.13546864    -1.0132795      0.0010414871 
   7915000   0.066124854   -1.2646499      0.1350328     -1.0304426     -0.0028872117 
   7916000   0.065822125   -1.2850936      0.13317396    -1.0531992     -0.0091490582 
   7917000   0.065127187   -1.2612975      0.13560674    -1.0280126      0.005756039  
   7918000   0.065438875   -1.2751461      0.13435073    -1.0426497     -0.0069355646 
   7919000   0.064448509   -1.2750844      0.13283929    -1.0455848      0.0079741466 
   7920000   0.065642867   -1.2844848      0.133635      -1.0523982      0.011745518  
   7921000   0.064927716   -1.2574043      0.13311959    -1.0269058      0.0022060676 
   7922000   0.065005718   -1.2680673      0.13302319    -1.0375481      0.0016398501 
   7923000   0.065485524   -1.2574787      0.1340431     -1.02522       -0.005142245  
   7924000   0.064603814   -1.2740088      0.13564271    -1.0414729      0.0087221201 
   7925000   0.066451167   -1.2684657      0.13409336    -1.0347085     -0.0010947548 
   7926000   0.063951041   -1.2607895      0.13543027    -1.0294451      0.0093005473 
   7927000   0.063936961   -1.2737879      0.1332612     -1.0446336     -0.0078085528 
   7928000   0.063950888   -1.2687421      0.13386148    -1.0389667      0.0071586118 
   7929000   0.064370446   -1.2677593      0.1340928     -1.0371233     -0.013721834  
   7930000   0.065037091   -1.2698504      0.13344703    -1.0388603      0.0089312215 
   7931000   0.065273759   -1.2741703      0.1367803     -1.039492       0.018876904  
   7932000   0.066064181   -1.2705448      0.13766125    -1.0338001      0.0069439616 
   7933000   0.065054358   -1.2712088      0.13331109    -1.0403288     -0.0046892358 
   7934000   0.065232539   -1.2584922      0.13360818    -1.0270479      0.018677099  
   7935000   0.064500251   -1.2681389      0.13346461    -1.0379364      0.0016342729 
   7936000   0.065282597   -1.2620962      0.13551864    -1.0286663      0.0095856119 
   7937000   0.06453542    -1.2577733      0.13449664    -1.026486       0.011131669  
   7938000   0.064648167   -1.2653762      0.13386202    -1.0345545      0.0057530233 
   7939000   0.064987412   -1.2704602      0.13315976    -1.0398319      0.025456742  
   7940000   0.065088331   -1.2530149      0.13625897    -1.019136      -0.0044528434 
   7941000   0.063803221   -1.2799492      0.13338994    -1.0508668      0.01599557   
   7942000   0.064482664   -1.2569335      0.13385299    -1.026369       0.0059973073 
   7943000   0.064245027   -1.276127       0.13479088    -1.044981       0.0091109061 
   7944000   0.064460719   -1.2679696      0.13322965    -1.0380613      0.029514834  
   7945000   0.063904523   -1.2728492      0.1343465     -1.0426583     -0.0096847243 
   7946000   0.065524634   -1.2700482      0.13332547    -1.0384485      0.0042166049 
   7947000   0.065027903   -1.2517777      0.13351837    -1.02073       -0.0079028237 
   7948000   0.065540243   -1.2705068      0.1355858     -1.0366233     -0.015150282  
   7949000   0.065681109   -1.264554       0.13377398    -1.0322711      0.034309769  
   7950000   0.063777022   -1.2688685      0.13387442    -1.0393409     -0.017793242  
   7951000   0.063737575   -1.261538       0.13319316    -1.0327508      0.021637449  
   7952000   0.064709264   -1.2799681      0.13235558    -1.0505612      0.023972672  
   7953000   0.064801791   -1.2556499      0.1327758     -1.025684       0.0090841723 
   7954000   0.064654145   -1.2631357      0.13372682    -1.0324401      0.0056353459 
   7955000   0.065942952   -1.2685741      0.13283224    -1.0368402      0.016456352  
   7956000   0.064914077   -1.2568664      0.13377276    -1.0257351      0.013878853  
   7957000   0.064901024   -1.2688916      0.13198923    -1.0395634      0.020260098  
   7958000   0.06460947    -1.2650594      0.13417357    -1.0339841     -0.0024008422 
   7959000   0.064082391   -1.2553478      0.13276763    -1.0264689      0.015059166  
   7960000   0.064882517   -1.2780176      0.13337638    -1.04733        0.017099895  
   7961000   0.064254721   -1.2617556      0.13270342    -1.0326825      0.011575718  
   7962000   0.066339887   -1.2804647      0.13403716    -1.0469306      0.022251172  
   7963000   0.065338965   -1.2711404      0.13283664    -1.0403079      0.014017344  
   7964000   0.064986638   -1.2604095      0.13448233    -1.0284598      0.010984684  
   7965000   0.064421193   -1.2721277      0.13565248    -1.0398559      0.0077399839 
   7966000   0.065374726   -1.2528432      0.13392044    -1.0208734     -0.0066845054 
   7967000   0.0648207     -1.2543905      0.13668152    -1.0204905     -0.0027275945 
   7968000   0.066103997   -1.2748871      0.13670318    -1.0390407      0.031138649  
   7969000   0.066473147   -1.263371       0.13457953    -1.0290946      0.0072884442 
   7970000   0.064629985   -1.2763224      0.1345661     -1.0448238      0.0064267129 
   7971000   0.065016727   -1.253231       0.13536927    -1.0203492      0.0093522971 
   7972000   0.065854568   -1.2585914      0.1366809     -1.0231414      0.030721043  
   7973000   0.064886374   -1.2540609      0.13533898    -1.0214049      0.024183211  
   7974000   0.064045895   -1.2632359      0.13431759    -1.0328619      0.0022001694 
   7975000   0.065681076   -1.2774273      0.13582191    -1.0430965      0.010673299  
   7976000   0.064666165   -1.2680585      0.13440885    -1.0366629      0.0074227444 
   7977000   0.06406773    -1.2500887      0.13357977    -1.0204198      0.0081828816 
   7978000   0.064722235   -1.2710262      0.13457552    -1.0393799      0.0024795997 
   7979000   0.06515335    -1.2573418      0.13302556    -1.0265988      0.0082203257 
   7980000   0.065433347   -1.276159       0.13438067    -1.043641      -0.0015973322 
   7981000   0.064367006   -1.2590128      0.13394775    -1.028527       0.015224874  
   7982000   0.065713176   -1.2793399      0.13430335    -1.0464795     -0.0014215488 
   7983000   0.065618003   -1.2635477      0.13527897    -1.0298544      0.012431836  
   7984000   0.064534237   -1.2526521      0.13537598    -1.0204873     -0.00057423386
   7985000   0.064649424   -1.2696516      0.13409359    -1.0385964      0.0095906908 
   7986000   0.065143442   -1.267872       0.13448024    -1.0356892      0.022258259  
   7987000   0.064174722   -1.273191       0.13441349    -1.0425279      0.010047658  
   7988000   0.0642364     -1.267018       0.13477897    -1.0358969     -0.0029976499 
   7989000   0.063751526   -1.2713502      0.13407023    -1.041665       0.0097066468 
   7990000   0.065158815   -1.2549127      0.13426843    -1.0229187      0.015264306  
   7991000   0.065439984   -1.2593798      0.13336617    -1.0278664     -0.0149353    
   7992000   0.064819666   -1.2580282      0.13564331    -1.025168       0.00066836097
   7993000   0.065533733   -1.2616816      0.13527575    -1.0281179      0.024182258  
   7994000   0.065422723   -1.2607609      0.13376558    -1.0288739     -0.0066884804 
   7995000   0.06539988    -1.27359        0.13318996    -1.0423129      0.0048040302 
   7996000   0.064297067   -1.2720079      0.13353262    -1.0420422      0.020096563  
   7997000   0.064689885   -1.2666144      0.13329499    -1.0362971      0.010646089  
   7998000   0.064600116   -1.2606365      0.13277194    -1.0309769      0.018918581  
   7999000   0.065309349   -1.2664558      0.1343536     -1.0341508      0.02505552   
   8000000   0.065221408   -1.2766167      0.13388169    -1.0449155      0.01647654   
   8001000   0.065955377   -1.2725564      0.13227174    -1.0413644      0.0020903217 
   8002000   0.065098735   -1.2627641      0.13293029    -1.0321983      0.0020180537 
   8003000   0.064747847   -1.2718409      0.13313859    -1.0415931      0.017953125  
   8004000   0.065755502   -1.270404       0.13235313    -1.0394304      0.016485448  
   8005000   0.064936722   -1.280066       0.13399533    -1.0486782      0.016653415  
   8006000   0.066040068   -1.2746437      0.13267339    -1.0429229      0.0027979731 
   8007000   0.064838927   -1.2652309      0.13209169    -1.0358933     -0.0041110256 
   8008000   0.064840246   -1.2703504      0.1341365     -1.038966      -0.0020669138 
   8009000   0.064103819   -1.2639328      0.13289344    -1.034896      -0.017825582  
   8010000   0.064964711   -1.2782722      0.13120545    -1.0496323      0.0059686287 
   8011000   0.063917924   -1.2778508      0.13086717    -1.0511191     -0.012605304  
   8012000   0.064927863   -1.2575975      0.13346554    -1.0267527      0.011251501  
   8013000   0.064957317   -1.2785106      0.13342028    -1.047667       0.01510273   
   8014000   0.065342283   -1.2773034      0.13327583    -1.0460268      0.024684463  
   8015000   0.065627497   -1.2573155      0.13329649    -1.0255905     -0.0047635667 
   8016000   0.066003436   -1.2601042      0.13378271    -1.0273291     -0.0054573964 
   8017000   0.064265129   -1.2638643      0.13277984    -1.0346992      0.0079826921 
   8018000   0.065237071   -1.2762496      0.13370959    -1.044697      -0.003943162  
   8019000   0.065773345   -1.2750215      0.13396085    -1.0424134      0.0018293769 
   8020000   0.065209157   -1.2677256      0.13234135    -1.0375832      0.0026960421 
   8021000   0.066793046   -1.2733589      0.13527898    -1.0379033      0.0081407137 
   8022000   0.064603737   -1.2577431      0.13300352    -1.0278465     -0.00014576705
   8023000   0.065453578   -1.2603526      0.13171554    -1.0304694      0.011588212  
   8024000   0.064919085   -1.2581687      0.13228077    -1.0285219      0.010447431  
   8025000   0.064276302   -1.2876388      0.1327018     -1.0585349      0.0060815008 
   8026000   0.06453337    -1.2730901      0.13275385    -1.0435487     -0.011398123  
   8027000   0.063322407   -1.2717547      0.13516171    -1.0416216     -0.0034043423 
   8028000   0.06556285    -1.2544168      0.13306754    -1.0230176     -0.0045642703 
   8029000   0.065911004   -1.2548894      0.13341813    -1.0226176      0.0081201794 
   8030000   0.064517483   -1.2714664      0.13299752    -1.0417051      0.00085533871
   8031000   0.06463007    -1.2732985      0.13400421    -1.0423617     -0.014502374  
   8032000   0.065418976   -1.2541923      0.13379565    -1.0222809     -0.0095321776 
   8033000   0.065423311   -1.2788768      0.13202885    -1.0487256     -0.0081627805 
   8034000   0.065708123   -1.2708536      0.13299394    -1.0393102      0.0084425852 
   8035000   0.063777425   -1.2497904      0.13403979    -1.0200968      0.017534067  
   8036000   0.063672961   -1.2663196      0.13171408    -1.0391084      0.00078420864
   8037000   0.06476409    -1.2581251      0.13249757    -1.028494       0.014222491  
   8038000   0.065552617   -1.2645238      0.13375118    -1.0324564     -0.021787196  
   8039000   0.065255602   -1.2693857      0.13199207    -1.0395228     -0.005750032  
   8040000   0.064692936   -1.269907       0.13252523    -1.0403549      0.005531204  
   8041000   0.065350026   -1.269928       0.13212404    -1.0397916     -0.00665542   
   8042000   0.066000103   -1.2755669      0.13342622    -1.0431533      0.0091477141 
   8043000   0.066214818   -1.2668326      0.13255463    -1.0349685     -0.0056995888 
   8044000   0.063842971   -1.2763247      0.13376973    -1.0468029      0.015853386  
   8045000   0.065579258   -1.2683674      0.13246767    -1.0375436      0.003375813  
   8046000   0.065737669   -1.2606157      0.1327671     -1.0292548      0.015404795  
   8047000   0.064424514   -1.266341       0.13313388    -1.0365828      0.01884482   
   8048000   0.064459438   -1.2722489      0.13342242    -1.0421498     -0.017705443  
   8049000   0.064385192   -1.258523       0.13482677    -1.0271309      0.02196845   
   8050000   0.064493821   -1.2796389      0.13272856    -1.0501821      0.0050746705 
   8051000   0.064411526   -1.2708881      0.13357212    -1.0407111     -0.0062887808 
   8052000   0.065373446   -1.245198       0.13316555    -1.0139849      0.021455672  
   8053000   0.064751891   -1.2691048      0.13494492    -1.0370445      0.021581884  
   8054000   0.064726941   -1.2657246      0.13195465    -1.036692       0.0049422041 
   8055000   0.065377653   -1.2595804      0.13145856    -1.030068      -0.012298333  
   8056000   0.064647235   -1.2619187      0.13401694    -1.0309434      0.0040079455 
   8057000   0.065535245   -1.2805891      0.13333209    -1.0489668     -0.0044202951 
   8058000   0.064561213   -1.269922       0.13264639    -1.0404463     -0.0098057009 
   8059000   0.063605594   -1.2578852      0.1324721     -1.0300171      0.014035261  
   8060000   0.064622579   -1.2910326      0.13516745    -1.0589438      0.0048201218 
   8061000   0.06545037    -1.2631462      0.13300196    -1.0319813     -0.0090465194 
   8062000   0.065314959   -1.2691803      0.13220298    -1.0390175      0.016213912  
   8063000   0.065783841   -1.2520858      0.13260465    -1.0208181      0.0052573962 
   8064000   0.064504116   -1.2600756      0.13334694    -1.029985      -0.009032152  
   8065000   0.065375031   -1.2566633      0.13401338    -1.0246         0.027457518  
   8066000   0.06413456    -1.2705018      0.1357503     -1.0385621     -0.00029486293
   8067000   0.064678937   -1.2826877      0.13465638    -1.0510255     -0.00036788494
   8068000   0.066704643   -1.271763       0.13435781    -1.0373612     -0.0087226004 
   8069000   0.06646721    -1.253872       0.13248691    -1.0216972      0.0091010588 
   8070000   0.065407444   -1.2672748      0.13410378    -1.0350725      0.0090913909 
   8071000   0.065844396   -1.2715628      0.13261853    -1.0401904      0.0093500455 
   8072000   0.065826659   -1.268397       0.13288321    -1.0367866      0.012475493  
   8073000   0.064830658   -1.2685503      0.13333415    -1.0379827      0.003658556  
   8074000   0.065087087   -1.2602962      0.13315258    -1.0295256     -0.0063208771 
   8075000   0.064414443   -1.2419784      0.13029803    -1.0150712     -0.00049606945
   8076000   0.064444656   -1.2742061      0.13499986    -1.0425517      0.0025843549 
   8077000   0.064085797   -1.259873       0.13341123    -1.0303455     -0.0043067438 
   8078000   0.065021651   -1.2593063      0.13366512    -1.0281212     -0.0011350288 
   8079000   0.065269013   -1.2690595      0.13314968    -1.0380189      0.0054086734 
   8080000   0.065454735   -1.2777635      0.13516253    -1.0444315      0.0044366904 
   8081000   0.06525617    -1.2771448      0.13401839    -1.0452548     -0.0032768268 
   8082000   0.065822727   -1.2704511      0.13402788    -1.0377018     -0.0086175987 
   8083000   0.064985855   -1.2746639      0.134604      -1.0425937      0.0027939046 
   8084000   0.064694999   -1.2774052      0.13234099    -1.0480342     -0.0011918871 
   8085000   0.064659446   -1.2572946      0.13365964    -1.0266583      0.0014149998 
   8086000   0.064512204   -1.2727631      0.13442657    -1.0415807      0.012868088  
   8087000   0.064637644   -1.2613695      0.13374409    -1.0306815      0.024778521  
   8088000   0.064739738   -1.2742916      0.13277591    -1.0444186      0.0087653793 
   8089000   0.067033309   -1.2706684      0.1353659     -1.0347655     -0.0036328196 
   8090000   0.066572704   -1.2814679      0.13447922    -1.0471425     -0.0016297862 
   8091000   0.065817192   -1.2648046      0.13487303    -1.0312185     -0.0044122796 
   8092000   0.065357353   -1.2803657      0.13564399    -1.0466984      0.0091981158 
   8093000   0.065504585   -1.2546629      0.1338974     -1.0225213      0.012008539  
   8094000   0.065919416   -1.2625955      0.13524145    -1.0284877     -0.0068324424 
   8095000   0.06691845    -1.2566286      0.13371079    -1.0225531      0.0020740608 
   8096000   0.065577069   -1.268097       0.13465233    -1.0350918      0.00438878   
   8097000   0.065906889   -1.264876       0.13513268    -1.0308958      0.030953162  
   8098000   0.064833873   -1.2705632      0.13467992    -1.038645       0.017475133  
   8099000   0.064736966   -1.2675264      0.13553303    -1.0349004      0.0011849673 
   8100000   0.065305304   -1.2617814      0.13441468    -1.0294214      0.0023126657 
   8101000   0.065956346   -1.2520633      0.13639893    -1.0167426     -0.0034806917 
   8102000   0.064565723   -1.257777       0.13502931    -1.0259116      0.02711838   
   8103000   0.065084251   -1.2643401      0.13132618    -1.0354002     -0.01429813   
   8104000   0.064103053   -1.259346       0.1340513     -1.0291525     -0.020965532  
   8105000   0.065204533   -1.2668776      0.13456521    -1.0345182     -0.016620918  
   8106000   0.065451897   -1.2538951      0.13472326    -1.0210066     -0.0012572922 
   8107000   0.066114228   -1.26019        0.13520229    -1.0258291      0.015227067  
   8108000   0.066228716   -1.2617657      0.13475937    -1.0276761      0.012175328  
   8109000   0.06624835    -1.2591906      0.1353456     -1.0244853     -0.0086673367 
   8110000   0.06515413    -1.2643459      0.13464214    -1.0319852      0.024556613  
   8111000   0.06501604    -1.2786967      0.13596981    -1.0452155      0.0045626633 
   8112000   0.066260033   -1.2575829      0.13768048    -1.0205252      0.01710471   
   8113000   0.064914966   -1.2576764      0.13619787    -1.0241186      0.0016891985 
   8114000   0.065637586   -1.2539243      0.13646074    -1.0190199      0.0056888275 
   8115000   0.065039342   -1.2621422      0.1362872     -1.0283085     -0.014716057  
   8116000   0.064288291   -1.2694531      0.13464589    -1.0383872      0.0071769172 
   8117000   0.064704732   -1.2709541      0.13436337    -1.0395462     -0.0035603549 
   8118000   0.064569701   -1.2675322      0.13460356    -1.0360866      0.014911717  
   8119000   0.065725954   -1.2682625      0.13434735    -1.0353389     -0.0026887096 
   8120000   0.065145825   -1.2698731      0.13790918    -1.0342578      0.0053502514 
   8121000   0.0646759     -1.2684574      0.13730776    -1.0341483      0.012909396  
   8122000   0.065195355   -1.2689578      0.13541771    -1.0357597      0.0030766738 
   8123000   0.065855336   -1.2773977      0.13495252    -1.0436749     -0.012175869  
   8124000   0.065997001   -1.2652066      0.13420536    -1.0320186     -0.00070796731
   8125000   0.065113608   -1.2767124      0.13535794    -1.0436966      0.0034333781 
   8126000   0.065040494   -1.2589235      0.13338305    -1.0279923      0.0052988134 
   8127000   0.063843908   -1.260809       0.13578455    -1.0292709     -0.0052355029 
   8128000   0.064468944   -1.272353       0.13547233    -1.0401897     -0.012291938  
   8129000   0.064244086   -1.2676727      0.13405176    -1.0372673     -0.0063259232 
   8130000   0.065346653   -1.2619712      0.13392644    -1.0300375     -0.010048735  
   8131000   0.065119699   -1.2683667      0.13318912    -1.0375106     -0.00093861774
   8132000   0.065354307   -1.2639263      0.13476223    -1.0311453      0.004959508  
   8133000   0.064620534   -1.2864766      0.134476      -1.0550823      0.002224352  
   8134000   0.065024628   -1.2642731      0.13593485    -1.0308138      0.0082560658 
   8135000   0.064280901   -1.2503728      0.13397934    -1.0199845     -0.0038978993 
   8136000   0.0643269     -1.2665647      0.13240687    -1.0376799      0.0086732318 
   8137000   0.064270394   -1.2511209      0.13443091    -1.0202968      0.010554932  
   8138000   0.064259537   -1.2622853      0.13282301    -1.0330854      0.015562228  
   8139000   0.064417654   -1.2631064      0.13476483    -1.0317276      0.0021787177 
   8140000   0.064051151   -1.2660095      0.13415345    -1.0357917      0.0032374696 
   8141000   0.063897358   -1.2770784      0.13541035    -1.0458344      0.0024931403 
   8142000   0.064603682   -1.2725726      0.13498718    -1.0406924      0.0011660679 
   8143000   0.064106126   -1.2714549      0.13489342    -1.0404147      0.0054359248 
   8144000   0.064812342   -1.2669901      0.1367533     -1.0330309     -0.0047201619 
   8145000   0.066037251   -1.2641382      0.13380105    -1.031294      -0.0082264641 
   8146000   0.06612624    -1.2626939      0.13342275    -1.0300946     -0.010204046  
   8147000   0.064944386   -1.2592732      0.13250975    -1.0293595      0.017466127  
   8148000   0.064908852   -1.2655106      0.13430966    -1.0338503     -0.0083468836 
   8149000   0.064102897   -1.2733874      0.13406762    -1.0431779     -0.008381583  
   8150000   0.065631612   -1.2587271      0.1358556     -1.0244368      0.0020523516 
   8151000   0.065719489   -1.267247       0.13405501    -1.0346255     -0.0082037179 
   8152000   0.064478386   -1.2569892      0.13449052    -1.0257936     -0.005766299  
   8153000   0.06452232    -1.2701591      0.13351471    -1.0398734      0.002938273  
   8154000   0.06515896    -1.2671585      0.13483096    -1.0346017     -0.0036225728 
   8155000   0.064932069   -1.2629786      0.13581803    -1.0297751      0.001380267  
   8156000   0.065548958   -1.2743595      0.13427483    -1.0417739      0.0025396819 
   8157000   0.065162277   -1.2796035      0.13636045    -1.0455123      0.021928324  
   8158000   0.064551103   -1.2724456      0.13452509    -1.0411064     -0.0035664492 
   8159000   0.065418712   -1.2726681      0.1337542     -1.0407985     -0.0045024985 
   8160000   0.065644051   -1.2685541      0.13544189    -1.0346588     -0.014191867  
   8161000   0.064538572   -1.2609426      0.13427618    -1.0298711     -0.0082051348 
   8162000   0.065222511   -1.2558367      0.13286938    -1.0251462      0.02099244   
   8163000   0.065213799   -1.278285       0.13351389    -1.046963       0.0063700771 
   8164000   0.065361796   -1.2742563      0.1351576     -1.0410687     -0.00897738   
   8165000   0.064404847   -1.2596408      0.13491979    -1.0281262      0.0088701484 
   8166000   0.067048427   -1.2760443      0.13481447    -1.0406702      0.021836294  
   8167000   0.066650102   -1.2612778      0.13565348    -1.0256621     -0.0073450169 
   8168000   0.06665171    -1.258783       0.13644995    -1.0223684      0.0086334408 
   8169000   0.066374136   -1.255599       0.1370877     -1.0189629     -0.0069401854 
   8170000   0.066325519   -1.274994       0.13555437    -1.0399641      0.0051543952 
   8171000   0.065053957   -1.2791811      0.13462685    -1.0469859     -0.004912405  
   8172000   0.065742859   -1.2622082      0.13398446    -1.0296222      0.02484032   
   8173000   0.066121241   -1.2658292      0.13580934    -1.0308508      0.014616412  
   8174000   0.065087965   -1.2625527      0.13655232    -1.0283811     -0.014120538  
   8175000   0.065828977   -1.261118       0.13543404    -1.0269532      0.0087971459 
   8176000   0.065107801   -1.2572222      0.13686234    -1.0227108     -0.0043623054 
   8177000   0.065679712   -1.2671445      0.13629319    -1.0323445     -0.0037963284 
   8178000   0.065308359   -1.253085       0.13326637    -1.0218687      0.010902397  
   8179000   0.065687971   -1.249536       0.13690377    -1.014113      -0.007580411  
   8180000   0.065755913   -1.273558       0.13566028    -1.0392766      0.0022321392 
   8181000   0.065105796   -1.266245       0.13515945    -1.0334394      0.0056328544 
   8182000   0.065734021   -1.261825       0.13567076    -1.027566       0.012569728  
   8183000   0.065193855   -1.2683732      0.13674171    -1.0338533     -0.0057819069 
   8184000   0.064777797   -1.2710111      0.13614265    -1.0377143      0.0076742083 
   8185000   0.066520024   -1.278677       0.13428372    -1.0446261      0.0090656906 
   8186000   0.065363891   -1.2542414      0.13399573    -1.0222125      0.012446707  
   8187000   0.065183702   -1.2582045      0.13655077    -1.0238908     -0.0076194362 
   8188000   0.06510157    -1.259594       0.13768051    -1.0242737      0.0097229194 
   8189000   0.065142397   -1.2496988      0.13338893    -1.0186089     -0.0071095803 
   8190000   0.065641689   -1.266537       0.13501379    -1.0330734      0.018747642  
   8191000   0.065201278   -1.27649        0.13601295    -1.0426878      0.0057827488 
   8192000   0.065808868   -1.2623811      0.13490559    -1.0287749      0.011993492  
   8193000   0.065303829   -1.2701057      0.13543711    -1.0367255      0.011657696  
   8194000   0.065780789   -1.2727532      0.13464415    -1.0394506      0.0074519478 
   8195000   0.065797406   -1.2682276      0.13666946    -1.0328748      0.0013720518 
   8196000   0.065216185   -1.2573989      0.13616248    -1.0234248     -0.007516348  
   8197000   0.065491457   -1.2695479      0.13685787    -1.0344655      0.0019841402 
   8198000   0.064921398   -1.2675625      0.13672935    -1.0334636      0.001756682  
   8199000   0.065635338   -1.2429447      0.13470448    -1.0098         0.012792684  
   8200000   0.066529248   -1.2713354      0.13637456    -1.0351798     -0.0025134586 
   8201000   0.064652917   -1.2526136      0.13436837    -1.0212784     -0.0011386113 
   8202000   0.065237402   -1.2644071      0.13376364    -1.0327999      0.010839148  
   8203000   0.066054754   -1.2744039      0.13579299    -1.0395416      0.0054262573 
   8204000   0.065101834   -1.2736706      0.13488711    -1.0411433      0.0038330385 
   8205000   0.065130272   -1.2582237      0.1358901     -1.0246508      0.0044703473 
   8206000   0.066184089   -1.2735417      0.13430952    -1.0399688      0.019535799  
   8207000   0.066254313   -1.2719024      0.13354753    -1.0389862      0.014827024  
   8208000   0.065757227   -1.2816302      0.13530506    -1.0477021      0.0084764195 
   8209000   0.066226745   -1.2571087      0.13362759    -1.0241538     -0.0038029047 
   8210000   0.064567584   -1.2549961      0.13464987    -1.0235073     -0.0079088748 
   8211000   0.066334921   -1.2555852      0.13515536    -1.0209403     -0.0075521706 
   8212000   0.064429424   -1.2665193      0.13547359    -1.0344141      0.0031543581 
   8213000   0.065775793   -1.2699685      0.13478966    -1.0365279     -0.0016285643 
   8214000   0.065287971   -1.2789184      0.13713133    -1.0438678      0.012402022  
   8215000   0.06525791    -1.2643755      0.13419175    -1.0323096      0.018224279  
   8216000   0.064499819   -1.271276       0.13506149    -1.0394773      4.5547886e-05
   8217000   0.064701441   -1.2732282      0.13479026    -1.0413983     -0.0023421319 
   8218000   0.064536458   -1.2537314      0.13459051    -1.0223487      0.010089553  
   8219000   0.065238452   -1.2629573      0.13829765    -1.0268146      0.00081812591
   8220000   0.065840186   -1.2708812      0.13538186    -1.0367518      0.011437541  
   8221000   0.064658242   -1.263882       0.1348417     -1.0320655      0.010933622  
   8222000   0.065391113   -1.2575947      0.13521091    -1.0243098     -0.0013245548 
   8223000   0.064677553   -1.2711161      0.13580337    -1.0383089      0.0034413504 
   8224000   0.065013544   -1.2805656      0.1363957     -1.0466622     -0.013406026  
   8225000   0.065811512   -1.2766837      0.13502598    -1.0429532      0.017488876  
   8226000   0.064372677   -1.2657886      0.13540304    -1.033839      -0.0025827448 
   8227000   0.064975167   -1.2647287      0.13572963    -1.0315489      0.0065539634 
   8228000   0.064497795   -1.2679543      0.13630913    -1.034911      -0.0050534039 
   8229000   0.065793465   -1.2651646      0.1353288     -1.0311583      0.0047664871 
   8230000   0.06472019    -1.2805844      0.13515203    -1.0483646     -0.0092740179 
   8231000   0.065440913   -1.2552333      0.13712889    -1.0199557      0.006981536  
   8232000   0.065456104   -1.2856354      0.13632146    -1.0511424      0.014719398  
   8233000   0.064393639   -1.26803        0.13595771    -1.0354943      0.020091669  
   8234000   0.065045779   -1.2740099      0.13577046    -1.0406834      0.010014653  
   8235000   0.066173295   -1.274416       0.13498032    -1.0401885      0.0035585761 
   8236000   0.065618585   -1.2670271      0.13562186    -1.0329901     -0.0021227891 
   8237000   0.065444246   -1.262181       0.13523345    -1.0287938      0.0081091377 
   8238000   0.065502869   -1.2691366      0.13481132    -1.0360837     -0.0025948086 
   8239000   0.065417891   -1.2642068      0.13671547    -1.0293772      0.010877024  
   8240000   0.065341383   -1.2553149      0.13610648    -1.021209      -0.011793446  
   8241000   0.066401333   -1.2675051      0.1376464     -1.0302696     -0.01760944   
   8242000   0.065761051   -1.2733699      0.13696705    -1.037774      -0.018518133  
   8243000   0.066179067   -1.2791333      0.13552864    -1.0443489     -0.00068448388
   8244000   0.065617917   -1.291987       0.13571435    -1.0578584     -0.012870513  
   8245000   0.065873105   -1.2646841      0.13417216    -1.0317151      0.010495463  
   8246000   0.064561598   -1.2681742      0.13492385    -1.0364204     -0.0022138074 
   8247000   0.065701933   -1.2759001      0.13674365    -1.0406163      0.0044604209 
   8248000   0.064973727   -1.2583625      0.13491448    -1.026          0.012563605  
   8249000   0.065133334   -1.259668       0.13489703    -1.0270836     -0.010820272  
   8250000   0.065052535   -1.2765991      0.13761587    -1.041417       0.0037985431 
   8251000   0.065399523   -1.2717588      0.13428399    -1.0393882      0.015041182  
   8252000   0.065120996   -1.2551857      0.13557517    -1.0219417     -0.0007498717 
   8253000   0.064925468   -1.2690254      0.13865837    -1.0329914     -0.0075951498 
   8254000   0.066335828   -1.2722271      0.13452642    -1.0382097     -0.0080258384 
   8255000   0.064571521   -1.274564       0.13595104    -1.0417682     -0.004625966  
   8256000   0.064758657   -1.2633856      0.13709818    -1.029162      -0.0022380535 
   8257000   0.065959865   -1.2658795      0.1363864     -1.0305661     -0.017234826  
   8258000   0.065810614   -1.2663889      0.1357508     -1.0319349      0.010920056  
   8259000   0.064067248   -1.261193