LAMMPS (22 Jul 2025)
OMP_NUM_THREADS environment is not set. Defaulting to 1 thread.
  using 1 OpenMP thread(s) per MPI task
package omp 0
using multi-threaded neighbor list subroutines
# Input Script of lammps for assembly simulation of polimeric network.
# Main code is based on: https://github.com/PipeB62/Hydrogel-Simulation
# Patchy particles are with bond style.

# Felipe Benavides modified by Fco. Vazquez

# Initialization
units lj
dimension 3
boundary p p p

# Styles of atoms and that stuff
atom_style full
bond_style harmonic
angle_style harmonic
pair_style hybrid/overlay zero 0.0 lj/cut/omp 1.12 table/omp linear 5000000 threebody/table

newton on

# Create simulaiton box
region simulation_box block -$L $L -$L $L -$L $L
region simulation_box block -9.796741 $L -$L $L -$L $L
region simulation_box block -9.796741 9.796741 -$L $L -$L $L
region simulation_box block -9.796741 9.796741 -9.796741 $L -$L $L
region simulation_box block -9.796741 9.796741 -9.796741 9.796741 -$L $L
region simulation_box block -9.796741 9.796741 -9.796741 9.796741 -9.796741 $L
region simulation_box block -9.796741 9.796741 -9.796741 9.796741 -9.796741 9.796741
# N-atom-types region-ID keyword value Is necesesary the extra/special/per/atom (# of special neighbors per atom)
create_box 4 simulation_box     bond/types 1     angle/types 2     extra/bond/per/atom 10     extra/angle/per/atom 6     extra/special/per/atom 10
Created orthogonal box = (-9.796741 -9.796741 -9.796741) to (9.796741 9.796741 9.796741)
  2 by 2 by 2 MPI processor grid

# Atom types
mass 1 1.0      # CL
mass 2 1.0      # MO
mass 3 1.0      # PA
mass 4 1.0      # PB

# Coefficients
include potential.in
# Script with the pair-wise interaction and bonds between particles

bond_coeff 1 100.0 0.45
angle_coeff 1 100.0 180
angle_coeff 2 100.0 109.4712
pair_coeff 1 3 zero 0.5
pair_coeff 1 4 zero 0.5
pair_coeff 2 3 zero 0.5
pair_coeff 2 4 zero 0.5
pair_coeff 3 3 zero 0.5
pair_coeff 1 1 lj/cut/omp 1.0 1.0 1.12
pair_coeff 2 2 lj/cut/omp 1.0 1.0 1.12
pair_coeff 1 2 lj/cut/omp 1.0 1.0 1.12
pair_coeff 3 4 table/omp sysFiles/pachTab.table POT 0.6 # sw/omp sysFiles/patchyPot.sw NULL NULL PA PB
Reading pair table potential file sysFiles/pachTab.table with DATE: 2024-07-08
WARNING: 7 of 1000000 force values in table POT are inconsistent with -dE/dr.
WARNING:  Should only be flagged at inflection points (src/pair_table.cpp:469)
pair_coeff 4 4 table/omp sysFiles/pachTab.table POT 0.6 # sw/omp sysFiles/patchyPot.sw NULL NULL PA PB
Reading pair table potential file sysFiles/pachTab.table with DATE: 2024-07-08
WARNING: 7 of 1000000 force values in table POT are inconsistent with -dE/dr.
WARNING:  Should only be flagged at inflection points (src/pair_table.cpp:469)
pair_coeff * * threebody/table swapMech.3b NULL NULL PA PB
pair_modify pair lj/cut/omp shift yes


# Molecules
include molecules.in
# Script with all molecule information and create groups for computes

# Read the molecule information
molecule CL sysFiles/molecule.patchy.CL
Read molecule template CL:
# Patchy Cross-Linker
  1 molecules
  0 fragments
  0 bodies
  5 atoms with max type 3
  4 bonds with max type 1
  6 angles with max type 2
  0 dihedrals with max type 0
  0 impropers with max type 0
molecule MO sysFiles/molecule.patchy.MO
Read molecule template MO:
# Patchy Monomer
  1 molecules
  0 fragments
  0 bodies
  3 atoms with max type 4
  2 bonds with max type 1
  1 angles with max type 1
  0 dihedrals with max type 0
  0 impropers with max type 0

# Introduce the molecules
# ID style args keyword arg
region spawn_box block -$L $L -$L $L -$L $L
region spawn_box block -9.796741 $L -$L $L -$L $L
region spawn_box block -9.796741 9.796741 -$L $L -$L $L
region spawn_box block -9.796741 9.796741 -9.796741 $L -$L $L
region spawn_box block -9.796741 9.796741 -9.796741 9.796741 -$L $L
region spawn_box block -9.796741 9.796741 -9.796741 9.796741 -9.796741 $L
region spawn_box block -9.796741 9.796741 -9.796741 9.796741 -9.796741 9.796741

# create_atoms type style args keyword values
# style_random: N seed region-ID
# keyword_mol: template-ID seed
# keyword_overlap: overlap value = only insert if at least this distance from all existing atoms
# keyword_maxtry: maxtry value = number of attempts to insert a particle before failure
create_atoms 0 random ${NCL} ${seed1} spawn_box mol CL ${seed1} overlap 1.0 maxtry 5000 #xls
create_atoms 0 random 25 ${seed1} spawn_box mol CL ${seed1} overlap 1.0 maxtry 5000 
create_atoms 0 random 25 3234 spawn_box mol CL ${seed1} overlap 1.0 maxtry 5000 
create_atoms 0 random 25 3234 spawn_box mol CL 3234 overlap 1.0 maxtry 5000 
Created 125 atoms
  using lattice units in orthogonal box = (-9.796741 -9.796741 -9.796741) to (9.796741 9.796741 9.796741)
  create_atoms CPU = 0.009 seconds
create_atoms 0 random ${NMO} ${seed2} spawn_box mol MO ${seed2} overlap 1.0 maxtry 5000 #mon
create_atoms 0 random 475 ${seed2} spawn_box mol MO ${seed2} overlap 1.0 maxtry 5000 
create_atoms 0 random 475 6321 spawn_box mol MO ${seed2} overlap 1.0 maxtry 5000 
create_atoms 0 random 475 6321 spawn_box mol MO 6321 overlap 1.0 maxtry 5000 
Created 1425 atoms
  using lattice units in orthogonal box = (-9.796741 -9.796741 -9.796741) to (9.796741 9.796741 9.796741)
  create_atoms CPU = 0.009 seconds

# Create patchy particles
group CrossLinker type 1 3
125 atoms in group CrossLinker
group Monomer type 2 4
1425 atoms in group Monomer
group Patches type 3 4
1050 atoms in group Patches
group CL type 1
25 atoms in group CL
group MO type 2
475 atoms in group MO
group PA type 3
100 atoms in group PA
group CM type 1 2
500 atoms in group CM

# Neighbor list
neighbor 1.8 bin # extra-distance style
#neigh_modify delay 0 every 1 check no
#neigh_modify exclude molecule/intra CrossLinker
#neigh_modify exclude molecule/intra Monomer

# COMPUTES

# Compute global kinetic and potential energy and temperature
compute t all temp
compute p all pressure t
compute ep all pe
compute ek all ke
variable eT equal etotal
variable eB equal ebond
variable eA equal eangle
variable eM equal emol
variable ec equal ecouple
variable eC equal econserve

# Potencial energy per pair-wise interaction
compute wcaPair all pair lj/cut/omp epair
compute patchPair all pair table/omp epair
compute swapPair all pair threebody/table epair

# Compute the pressure
compute press all pressure t ke virial
compute pressVirial all pressure t virial
compute pressVirialMod all pressure t pair bond angle

# Computes for the stress
compute cstress all stress/atom t ke pair bond angle
compute cstressVirial all stress/atom t virial
compute cstressVirialMod all stress/atom t pair bond angle
compute stress all reduce sum c_cstress[*]
compute stressVirial all reduce sum c_cstressVirial[*]
compute stressVirialMod all reduce sum c_cstressVirialMod[*]

# Displacement of the central particles
compute disp CM displace/atom
compute redDisp CM reduce ave c_disp[*] # All, because yes

# Get the number of central particles per cluster
compute clusters all aggregate/atom 0.6                             # Create the clusters
compute Nclpart CM chunk/atom c_clusters compress yes discard yes   # Get the number of clusters
compute clsize CM property/chunk Nclpart count                      # Counts the atoms in each chunk
compute idcl CM property/chunk Nclpart id                           # Get the ids of the clusters

# DUMPS and FIXES

thermo ${NsaveStress}
thermo 1000

# Save global energies and temperature
fix Energy all ave/time 1 ${Nsave} ${Nsave} c_t c_wcaPair c_patchPair c_swapPair c_ep c_ek v_eT v_ec v_eC c_p v_eB v_eA v_eM c_redDisp[*] file ${Dir}/${file1_name}
fix Energy all ave/time 1 1000 ${Nsave} c_t c_wcaPair c_patchPair c_swapPair c_ep c_ek v_eT v_ec v_eC c_p v_eB v_eA v_eM c_redDisp[*] file ${Dir}/${file1_name}
fix Energy all ave/time 1 1000 1000 c_t c_wcaPair c_patchPair c_swapPair c_ep c_ek v_eT v_ec v_eC c_p v_eB v_eA v_eM c_redDisp[*] file ${Dir}/${file1_name}
fix Energy all ave/time 1 1000 1000 c_t c_wcaPair c_patchPair c_swapPair c_ep c_ek v_eT v_ec v_eC c_p v_eB v_eA v_eM c_redDisp[*] file /home/franvt/GitRepos/molDynLammps/polymericGels/gel-bonds-1/data/0.050.30.05500-2026-01-23-152756/${file1_name}
fix Energy all ave/time 1 1000 1000 c_t c_wcaPair c_patchPair c_swapPair c_ep c_ek v_eT v_ec v_eC c_p v_eB v_eA v_eM c_redDisp[*] file /home/franvt/GitRepos/molDynLammps/polymericGels/gel-bonds-1/data/0.050.30.05500-2026-01-23-152756/system_assembly.fixf

# Save Pressure and Stress tensor
fix fixStress5 all ave/time 1 ${NsaveStress} ${NsaveStress} c_p c_press[*] c_pressVirial[*] c_pressVirialMod[*] c_stress[*] c_stressVirial[*] c_stressVirialMod[*] file ${Dir}/${file2_name}
fix fixStress5 all ave/time 1 1000 ${NsaveStress} c_p c_press[*] c_pressVirial[*] c_pressVirialMod[*] c_stress[*] c_stressVirial[*] c_stressVirialMod[*] file ${Dir}/${file2_name}
fix fixStress5 all ave/time 1 1000 1000 c_p c_press[*] c_pressVirial[*] c_pressVirialMod[*] c_stress[*] c_stressVirial[*] c_stressVirialMod[*] file ${Dir}/${file2_name}
fix fixStress5 all ave/time 1 1000 1000 c_p c_press[*] c_pressVirial[*] c_pressVirialMod[*] c_stress[*] c_stressVirial[*] c_stressVirialMod[*] file /home/franvt/GitRepos/molDynLammps/polymericGels/gel-bonds-1/data/0.050.30.05500-2026-01-23-152756/${file2_name}
fix fixStress5 all ave/time 1 1000 1000 c_p c_press[*] c_pressVirial[*] c_pressVirialMod[*] c_stress[*] c_stressVirial[*] c_stressVirialMod[*] file /home/franvt/GitRepos/molDynLammps/polymericGels/gel-bonds-1/data/0.050.30.05500-2026-01-23-152756/stress_assembly.fixf

# Save the global cluster information
fix 1 CM ave/time 1 1 ${Ndump} c_idcl c_clsize file ${Dir}/${file3_name} mode vector
fix 1 CM ave/time 1 1 1000 c_idcl c_clsize file ${Dir}/${file3_name} mode vector
fix 1 CM ave/time 1 1 1000 c_idcl c_clsize file /home/franvt/GitRepos/molDynLammps/polymericGels/gel-bonds-1/data/0.050.30.05500-2026-01-23-152756/${file3_name} mode vector
fix 1 CM ave/time 1 1 1000 c_idcl c_clsize file /home/franvt/GitRepos/molDynLammps/polymericGels/gel-bonds-1/data/0.050.30.05500-2026-01-23-152756/clust_assembly.fixf mode vector

# Save atom positions with cluster id
dump dumpID all custom ${Ndump} ${Dir}/traj/${file5_name} id mol c_clusters type x y z vx vy vz
dump dumpID all custom 1000 ${Dir}/traj/${file5_name} id mol c_clusters type x y z vx vy vz
dump dumpID all custom 1000 /home/franvt/GitRepos/molDynLammps/polymericGels/gel-bonds-1/data/0.050.30.05500-2026-01-23-152756/traj/${file5_name} id mol c_clusters type x y z vx vy vz
dump dumpID all custom 1000 /home/franvt/GitRepos/molDynLammps/polymericGels/gel-bonds-1/data/0.050.30.05500-2026-01-23-152756/traj/traj_assembly.*.dumpf id mol c_clusters type x y z vx vy vz
dump_modify dumpID pbc yes # remap atoms via periodic boundary conditions

# RUN SIMULATION

# Brownian Dynamics using Langevin Thermostat

timestep ${tstep}
timestep 0.001

fix VelVerlet all nve # Use Velocity Verlet integrator

# First elevate the temperature
fix ThermoLng all langevin 0.0 ${temp} ${damp} ${seed3} tally yes zero yes # Brownian Dynamics: langevin + nve
fix ThermoLng all langevin 0.0 0.05 ${damp} ${seed3} tally yes zero yes 
fix ThermoLng all langevin 0.0 0.05 1 ${seed3} tally yes zero yes 
fix ThermoLng all langevin 0.0 0.05 1 2010 tally yes zero yes 
run ${stepsheat}
run 500000
WARNING: Using a manybody potential with bonds/angles/dihedrals and special_bond exclusions (src/pair.cpp:250)
Hybrid pair style last /omp style table/omp
Last active /omp style is angle_style harmonic/omp
Neighbor list info ...
  update: every = 1 steps, delay = 0 steps, check = yes
  max neighbors/atom: 2000, page size: 100000
  master list distance cutoff = 2.92
  ghost atom cutoff = 2.92
  binsize = 1.46, bins = 14 14 14
  7 neighbor lists, perpetual/occasional/extra = 6 1 0
  (1) pair zero, perpetual, skip from (7)
      attributes: half, newton on, omp
      pair build: skip/omp
      stencil: none
      bin: none
  (2) pair lj/cut/omp, perpetual, skip from (7)
      attributes: half, newton on, omp
      pair build: skip/omp
      stencil: none
      bin: none
  (3) pair table/omp, perpetual, skip from (7)
      attributes: half, newton on, omp
      pair build: skip/omp
      stencil: none
      bin: none
  (4) pair threebody/table, perpetual, skip from (6)
      attributes: full, newton on, omp
      pair build: skip/omp
      stencil: none
      bin: none
  (5) compute aggregate/atom, occasional, copy from (6)
      attributes: full, newton on, omp
      pair build: copy
      stencil: none
      bin: none
  (6) neighbor class addition, perpetual
      attributes: full, newton on, omp
      pair build: full/bin/omp
      stencil: full/bin/3d
      bin: standard
  (7) neighbor class addition, perpetual, half/full from (6)
      attributes: half, newton on, omp
      pair build: halffull/newton/omp
      stencil: none
      bin: none
Per MPI rank memory allocation (min/avg/max) = 20.03 | 20.03 | 20.03 Mbytes
   Step          Temp          E_pair         E_mol          TotEng         Press     
         0   0              0.00041490155  0.15480456     0.15521947    -0.21361809   
      1000   0.038128237    0              0.00013757075  0.057293028    0.0036255212 
      2000   0.00015524756  8.543009e-08   0.020977048    0.021209855    0.068369326  
      3000   0.0053601671   0              0.0001566732   0.0081917366   0.0024773034 
      4000   0.00032043582  0              0.0030278828   0.0035082264  -0.026562159  
      5000   0.0011098552   0              0.00027894739  0.0019426561  -0.0005261401 
      6000   0.00052871377  0              0.00073390715  0.0015264661   0.0095531329 
      7000   0.00072896697  0              0.00040823029  0.0015009753  -1.2979742e-05
      8000   0.0007251149   0              0.00053299756  0.0016199682  -0.0032626071 
      9000   0.00081771509  1.3387704e-06  0.00052435467  0.0017514747   2.4759112e-06
     10000   0.00090243713  0              0.0006006103   0.0019533927   0.0011493598 
     11000   0.0010197323   0              0.00066288448  0.0021914962  -0.00042254769
     12000   0.0011051079   0              0.00072884253  0.0023854349  -0.00024522879
     13000   0.0011985165   0              0.00078137006  0.0025779849   0.00057614678
     14000   0.0013249056   0              0.00085482435  0.0028409006   0.00081224385
     15000   0.0014112991   0              0.00096232634  0.0030779093  -0.00010780047
     16000   0.0015343975   0              0.0010154688   0.0033155802  -0.00081771796
     17000   0.0016020278   4.7441589e-08  0.0010642477   0.0034657865   0.00030980887
     18000   0.0017598133   0              0.0011497192   0.003787736    0.0012942109 
     19000   0.0018430414   0              0.0012059735   0.003968752    5.7970273e-05
     20000   0.0019080305   0              0.0012946994   0.0041548986  -0.00044607826
     21000   0.001992366    5.7799363e-07  0.0013610759   0.0043482748   0.00069963965
     22000   0.0021283243  -3.6672612e-09  0.0014649008   0.0046553239   0.00056659963
     23000   0.0025735469  -0.0015218821   0.0017283014   0.004064249    0.00012610136
     24000   0.0024444094  -0.0016039619   0.0016864538   0.0037467405  -0.00025353478
     25000   0.0024681684  -0.0016016608   0.0016795706   0.0037777739  -0.00025316254
     26000   0.0025092316  -0.001589946    0.001707866    0.0038793392   0.00073864395
     27000   0.0030589285  -0.0031177114   0.002012252    0.0034799731   0.00066127919
     28000   0.002845273   -0.0031717067   0.0020052056   0.003098655   -0.00065030665
     29000   0.0028512639  -0.0032042003   0.0019482227   0.0030181589  -0.00057429635
     30000   0.0032344357  -0.0047618896   0.0020775691   0.0021642029  -0.00033739482
     31000   0.0030894149  -0.0048363168   0.0022389438   0.0020337595  -5.3009553e-05
     32000   0.0032581607  -0.0048324545   0.0021927205   0.0022443541   0.0004081845 
     33000   0.0032215756  -0.0048326584   0.0023286392   0.0023252265   0.00081874659
     34000   0.0040031854  -0.0075381178   0.0027834668   0.0012462531  -0.00038818505
     35000   0.0034571004  -0.0077706526   0.0024728762  -0.00011547145 -0.00047436738
     36000   0.0044781808  -0.010762873    0.002879389   -0.0011705465   0.00029027022
     37000   0.0046349367  -0.012733258    0.0026719396  -0.0031133985   0.0014358727 
     38000   0.003998545   -0.012685588    0.002635141   -0.004056499    0.00085337462
     39000   0.0042627611  -0.014426017    0.0027870632  -0.0052489372  -0.00031597353
     40000   0.004134619   -0.014466278    0.0026197665  -0.0056485844  -0.0001137876 
     41000   0.0039847584  -0.014424344    0.0027835834  -0.005667479    0.0012337074 
     42000   0.0041003877  -0.014461977    0.0027443035  -0.00557106     0.00093054757
     43000   0.0046610268  -0.016092878    0.0029636582  -0.0061421907  -0.00089918803
     44000   0.0050067312  -0.017410171    0.0032844405  -0.0066204791   0.00065734213
     45000   0.004455419   -0.017661738    0.0034852371  -0.0074976837   0.00065597604
     46000   0.0051730411  -0.018875657    0.0031358034  -0.0079852986   0.0012827956 
     47000   0.0048234191  -0.020213159    0.0036651187  -0.0093175793  -0.00014686758
     48000   0.0050129943  -0.020804911    0.0032635772  -0.010026693    0.0010465819 
     49000   0.0048960789  -0.02092223     0.003432082   -0.010150768    0.00069088756
     50000   0.0049235086  -0.020936616    0.0033882007  -0.010167917    0.00079825125
     51000   0.00492648    -0.020952896    0.0034339135  -0.01013403    -9.9449397e-06
     52000   0.0049640066  -0.020935875    0.0036265379  -0.0098681306   0.0005278417 
     53000   0.0051770599  -0.020929367    0.003623604   -0.0095451832   0.00036990358
     54000   0.0052657508  -0.020944248    0.0034947157  -0.0095560024   0.00086037796
     55000   0.0060853671  -0.023751249    0.0038114575  -0.01081763    -0.0011225271 
     56000   0.0062538265  -0.025626116    0.0044453757  -0.011806053   -0.00027783503
     57000   0.0059547504  -0.025535002    0.0040988231  -0.012509816    0.00078965433
     58000   0.0058286135  -0.025713989    0.0042028718  -0.012773837    0.00087809502
     59000   0.0059676236  -0.025765081    0.004081245   -0.012738176   -0.00083566962
     60000   0.0062263966  -0.028179923    0.0047460447  -0.014100309   -0.00074142725
     61000   0.0059818772  -0.028790768    0.0043156234  -0.015508118    0.0019284784 
     62000   0.0067672005  -0.030551642    0.0044656802  -0.01594171     0.00085783845
     63000   0.0061759127  -0.030546407    0.0042984406  -0.016990074    0.00022777165
     64000   0.006368309   -0.030614988    0.0043737853  -0.016694903    0.00091681367
     65000   0.006979178   -0.03180092     0.0046508149  -0.016688092   -0.0010421423 
     66000   0.006667507   -0.033497093    0.0049865955  -0.018515689   -0.00018351472
     67000   0.0070366041  -0.035029979    0.0048388929  -0.019642989    0.001288804  
     68000   0.0066585769  -0.035294355    0.0049549037  -0.020358029    0.00035402746
     69000   0.00774469    -0.03695675     0.0046795276  -0.020667683    0.00070925206
     70000   0.0075509027  -0.04064005     0.0055705939  -0.02375041    -0.0018496157 
     71000   0.0080932312  -0.043399417    0.005499981   -0.025767421    0.0017198277 
     72000   0.0073398181  -0.043454734    0.0052650805  -0.02718703     0.0016786875 
     73000   0.0082095926  -0.045840785    0.0054637154  -0.028070625    0.0004600615 
     74000   0.0077800166  -0.046450173    0.0052802499  -0.029507427   -0.00041996995
     75000   0.0074292031  -0.046591614    0.0053660244  -0.030088975   -0.00041463259
     76000   0.0080027951  -0.048257038    0.0055370475  -0.030723543    0.0020339269 
     77000   0.0076748602  -0.048277163    0.0053867585  -0.031385542    0.001708909  
     78000   0.008144959   -0.049644101    0.0054825338  -0.03195201    -0.00091277784
     79000   0.0074898826  -0.051124451    0.005852221   -0.034044654    0.00045086305
     80000   0.0082122728  -0.052183593    0.0058364175  -0.034036714   -0.00035149015
     81000   0.0085000032  -0.054556112    0.0056781302  -0.036136202    0.00015970755
     82000   0.0082185397  -0.056153057    0.0062090051  -0.037624196    0.00014269859
     83000   0.0096146426  -0.058705174    0.006278348   -0.038014166    0.00037179401
     84000   0.0092357251  -0.059354831    0.005857861   -0.03965232     0.00047488718
     85000   0.0081015621  -0.059531149    0.0058980691  -0.041488577   -9.8837603e-05
     86000   0.0088965743  -0.061422849    0.0060647872  -0.04202181    -0.00091965681
     87000   0.008721849   -0.062409196    0.0064831676  -0.042851695    0.0029836841 
     88000   0.010043441   -0.06582373     0.0067625536  -0.044005735    0.0013747767 
     89000   0.0095545455  -0.066951882    0.0061576629  -0.046471648    0.00010086466
     90000   0.010147375   -0.069095769    0.0060937386  -0.047790787    0.00022778544
     91000   0.0092176955  -0.069033274    0.0067508475  -0.048464804    0.00063674755
     92000   0.0095120861  -0.070714241    0.0067916841  -0.049663633    0.0015618703 
     93000   0.0092714691  -0.070794768    0.006522662   -0.050373875    0.0014469555 
     94000   0.0093884616  -0.070797593    0.0067830233  -0.049940963    0.0010637428 
     95000   0.010528898   -0.073839706    0.0066369646  -0.051419583    0.0018230506 
     96000   0.0097243418  -0.073761103    0.0063165777  -0.052867424   -0.0007493365 
     97000   0.010361445   -0.075603985    0.0070295896  -0.053042255    0.00013826626
     98000   0.010936829   -0.078282777    0.0072153604  -0.054672758    0.00022203233
     99000   0.010007058   -0.07857286     0.0069755328  -0.056596425   -0.00061588076
    100000   0.010245952   -0.0787175      0.0072617911  -0.056096696   -0.00060968091
    101000   0.010321905   -0.080184721    0.006843532   -0.05786832    -2.6514343e-05
    102000   0.0098863423  -0.080469564    0.0071374487  -0.05851217     0.0013675838 
    103000   0.011470406   -0.083627393    0.0076160969  -0.058816787    0.00050325661
    104000   0.011527542   -0.085612898    0.0075690398  -0.060763701    0.0024648261 
    105000   0.011119937   -0.087780608    0.0078257665  -0.063285697    0.00052593822
    106000   0.01170929    -0.09016856     0.0077799722  -0.064835983   -0.0010794652 
    107000   0.011522565   -0.09285923     0.0077139178  -0.067872615    0.0014563314 
    108000   0.013520888   -0.099770544    0.0085623327  -0.070939963    0.0011599371 
    109000   0.011529412   -0.1033862      0.0088490306  -0.077254211    9.9780679e-05
    110000   0.012026175   -0.10566135     0.0082480033  -0.079385721    0.00075832342
    111000   0.011215969   -0.10599615     0.0076627336  -0.081520322    0.00083506577
    112000   0.011155031   -0.10616894     0.0077189127  -0.081728273   -0.00026488348
    113000   0.011436224   -0.10621597     0.0077084037  -0.081364294    7.3577918e-05
    114000   0.012672019   -0.11039043     0.0085998253  -0.082794837    0.0012530127 
    115000   0.012153045   -0.11208671     0.0085175372  -0.085351362   -6.4095154e-05
    116000   0.012049636   -0.11466189     0.0086054506  -0.087993642   -0.0015391253 
    117000   0.012448626   -0.11856837     0.0086705824  -0.091236899    0.00087683124
    118000   0.012229863   -0.12036939     0.0083479897  -0.093688445   -0.00086907963
    119000   0.012136832   -0.12031809     0.0084677159  -0.093656872    0.00090260424
    120000   0.012850833   -0.12015162     0.0082134856  -0.092674322    0.0029486768 
    121000   0.012133011   -0.1212608      0.0088141104  -0.094258915    0.00085148863
    122000   0.012309419   -0.12180118     0.0084391605  -0.094909805    0.0012274346 
    123000   0.011969356   -0.12178486     0.0082459896  -0.095596422   -0.00052435665
    124000   0.011917139   -0.12183752     0.0085679895  -0.095405351   -0.00014992334
    125000   0.013810645   -0.12483978     0.0084528247  -0.095684349    0.00038337641
    126000   0.013162489   -0.1248949      0.0088166557  -0.096347245    0.00061724839
    127000   0.013477792   -0.12597231     0.0091390848  -0.096629576    0.00020966591
    128000   0.01304847    -0.12747945     0.0094015579  -0.098517816    0.0025029455 
    129000   0.013270971   -0.12827776     0.0091477568  -0.099236393    0.0013535992 
    130000   0.013394805   -0.13047414     0.0095468545  -0.10084805     0.00027284696
    131000   0.014528983   -0.13411999     0.0096563325  -0.10268425     0.0012750173 
    132000   0.013441426   -0.1356388      0.0096708622  -0.10581881    -0.00062462368
    133000   0.013519137   -0.13630922     0.0089427332  -0.10710086    -0.00099088936
    134000   0.013909172   -0.1378402      0.0090849783  -0.10790493     0.0010120003 
    135000   0.014008063   -0.14015409     0.0097946552  -0.10936089     0.0022179086 
    136000   0.014650822   -0.1441598      0.0099094998  -0.11228825     0.0019722728 
    137000   0.015157001   -0.14852652     0.010197802   -0.11560789    -0.0020711885 
    138000   0.014136669   -0.14883017     0.0096424164  -0.11799643     0.00048530809
    139000   0.014953564   -0.15231554     0.0098401213  -0.12005954     0.0024045837 
    140000   0.014455066   -0.15450878     0.010651138   -0.12218903     0.0011570427 
    141000   0.015088108   -0.15700136     0.0096965734  -0.12468723     0.00035667141
    142000   0.014667404   -0.15813942     0.010149823   -0.12600268     0.001185055  
    143000   0.014745614   -0.15876132     0.010013263   -0.12664391    -6.4041086e-05
    144000   0.01558611    -0.16276582     0.010727969   -0.12867377     0.00079792446
    145000   0.015242812   -0.16398269     0.010221941   -0.13091128     0.001778127  
    146000   0.015195214   -0.16611879     0.01037673    -0.13296394     0.0025813607 
    147000   0.01525554    -0.16965271     0.010081151   -0.13670301     0.0014506984 
    148000   0.015157497   -0.17094468     0.010960527   -0.13726258     0.0010020229 
    149000   0.015786776   -0.17133723     0.010174019   -0.13749832     0.0012205406 
    150000   0.015432119   -0.17126505     0.010755379   -0.13737643     0.0015454508 
    151000   0.015856386   -0.17290097     0.01047872    -0.13865301     0.0011229055 
    152000   0.015976079   -0.17437411     0.010551914   -0.13987354     0.001552173  
    153000   0.015400377   -0.17548334     0.010831246   -0.14156643     0.0019131008 
    154000   0.015949937   -0.17715323     0.01058207    -0.14266169     0.00084525647
    155000   0.016291368   -0.1790707      0.011052284   -0.14359713     0.00036009361
    156000   0.017353149   -0.18344682     0.011597304   -0.14583658    -0.00013768808
    157000   0.016284755   -0.18505362     0.011313255   -0.149329      -0.0007593785 
    158000   0.016561037   -0.18526478     0.011525949   -0.1489133      0.00059337684
    159000   0.016508935   -0.18524126     0.011112688   -0.14938114     0.0010951646 
    160000   0.01562799    -0.18534347     0.011027754   -0.15088886     0.0017609509 
    161000   0.015638444   -0.18552041     0.01114609    -0.15093179     0.00060297414
    162000   0.016443824   -0.18709475     0.011111484   -0.15133344    -0.00027196   
    163000   0.015497534   -0.18735208     0.011567798   -0.15255297     0.0015985672 
    164000   0.016793252   -0.19236234     0.012339755   -0.15484896     0.003808195  
    165000   0.017494684   -0.19555677     0.012063474   -0.1572682     -0.00086745041
    166000   0.016947013   -0.19738929     0.011879064   -0.16010611    -0.001451796  
    167000   0.017895482   -0.19917401     0.012007649   -0.16034046    -0.0015823486 
    168000   0.017601313   -0.20060182     0.012407005   -0.16180988     0.0031651426 
    169000   0.017229368   -0.2010133      0.012193954   -0.16299197    -0.0037630495 
    170000   0.017446648   -0.20219359     0.011389604   -0.16465089     0.00043705788
    171000   0.017467512   -0.20414256     0.012493191   -0.16546501     0.0018351605 
    172000   0.018488752   -0.20695476     0.012155025   -0.1670845      0.0014982816 
    173000   0.019283202   -0.21051629     0.012767235   -0.16884292     0.00017204926
    174000   0.018527595   -0.21319931     0.012252063   -0.17317379    -0.0024058293 
    175000   0.017950155   -0.21480298     0.012800411   -0.17509471    -0.00010226224
    176000   0.019060846   -0.21626135     0.011906731   -0.1757818      0.0029562907 
    177000   0.019610565   -0.22266225     0.013297723   -0.17996766     0.0018910324 
    178000   0.018807676   -0.22422355     0.012345088   -0.18368515     0.0038263486 
    179000   0.018695657   -0.22966667     0.013340362   -0.18830092     0.0018966474 
    180000   0.018563512   -0.23091049     0.013082621   -0.19000057     0.0010977056 
    181000   0.01844027    -0.23257157     0.013415129   -0.19151388     0.00013510594
    182000   0.017897734   -0.23267903     0.012427763   -0.19342198     0.0013910939 
    183000   0.020479297   -0.23668128     0.013011074   -0.19297108     0.0014695658 
    184000   0.019072944   -0.23648877     0.013178337   -0.19471948     0.0032343436 
    185000   0.018861377   -0.23695209     0.013635639   -0.19504264     0.0068333858 
    186000   0.019572435   -0.23850874     0.013301768   -0.19586726     0.0041538266 
    187000   0.018823912   -0.23911646     0.013509284   -0.19738953    -0.00030800937
    188000   0.018812931   -0.23937464     0.012754918   -0.19841853    -0.00016649057
    189000   0.01879182    -0.24020102     0.013123896   -0.19890757     0.0042565599 
    190000   0.019433247   -0.24238729     0.014356614   -0.19889961     0.003983511  
    191000   0.01970569    -0.2437152      0.013774142   -0.2004016     -0.0031725706 
    192000   0.019523623   -0.24710691     0.013623785   -0.20421659     0.00086639292
    193000   0.020482599   -0.25005648     0.013565878   -0.20578653     0.00011328064
    194000   0.020262441   -0.25032888     0.013007034   -0.2069478      0.0047266299 
    195000   0.020125423   -0.25384642     0.014967218   -0.20871055     0.0037868654 
    196000   0.020803452   -0.25897548     0.014290573   -0.21349986    -0.00018411192
    197000   0.020609543   -0.26261096     0.014623401   -0.21709319     0.0022098812 
    198000   0.019821062   -0.26389776     0.014635598   -0.21954975    -0.00060021037
    199000   0.020734039   -0.26672724     0.014292282   -0.22135396    -0.001455114  
    200000   0.020311085   -0.26746149     0.01425182    -0.2227627      0.0023872218 
    201000   0.020230944   -0.26871598     0.014379033   -0.22401011     0.0043343784 
    202000   0.02123806    -0.27257088     0.014522542   -0.2262118      0.00059766303
    203000   0.022957252   -0.27902859     0.014827255   -0.22978767    -0.0023859967 
    204000   0.021310735   -0.27952229     0.015070058   -0.23250675     0.0026219124 
    205000   0.02173238    -0.28398048     0.015634717   -0.23576822     0.00060380835
    206000   0.021587978   -0.28731582     0.015120828   -0.23983392    -0.0035775999 
    207000   0.021452915   -0.28897637     0.014877393   -0.24194037    -0.0024039651 
    208000   0.021562729   -0.29293602     0.015865918   -0.24474688     0.009278523  
    209000   0.021293945   -0.29516156     0.015014398   -0.24822685     0.0082443047 
    210000   0.022151107   -0.29628569     0.014745955   -0.24833451     0.006444398  
    211000   0.022045796   -0.2977956      0.015351879   -0.24939636     0.0050317489 
    212000   0.022251301   -0.29919362     0.015414803   -0.25042339    -0.0032447822 
    213000   0.021623076   -0.30097412     0.014858065   -0.25370237     0.0036719703 
    214000   0.02285739    -0.30399471     0.015098336   -0.25463241     0.00080255649
    215000   0.022779569   -0.30721282     0.015581304   -0.2574842     -0.0010927872 
    216000   0.02233827    -0.30754253     0.015064715   -0.25899203    -0.00011790318
    217000   0.022994      -0.30891663     0.014959075   -0.25948881    -0.0002702477 
    218000   0.022060171   -0.30902324     0.015105404   -0.26084893    -0.0029336806 
    219000   0.022192214   -0.30985175     0.015392797   -0.26119211     0.0011903484 
    220000   0.023036521   -0.31146641     0.015944384   -0.26098954     0.0057334196 
    221000   0.022824086   -0.3115421      0.015636965   -0.26169109     0.0012626685 
    222000   0.022004738   -0.31316451     0.015601146   -0.26457755     0.00030103995
    223000   0.022886835   -0.31462291     0.015339553   -0.26497525     0.00065226524
    224000   0.022590142   -0.31649581     0.015998206   -0.26663426     0.001715507  
    225000   0.023117069   -0.31920297     0.0154547     -0.26909504     0.0086213301 
    226000   0.023711045   -0.32238756     0.015948894   -0.27089504     0.0064785713 
    227000   0.02390195    -0.32500405     0.017388937   -0.27178532    -0.0014029756 
    228000   0.023690578   -0.32560312     0.015715615   -0.27437456     0.0042801675 
    229000   0.022746708   -0.3259844      0.015998614   -0.27588774     0.0096746738 
    230000   0.023801401   -0.32890714     0.016438534   -0.27678953     0.0025830496 
    231000   0.023355386   -0.32893407     0.015648392   -0.2782752      0.00093654132
    232000   0.022539756   -0.32944322     0.016296037   -0.27935937    -0.0078864895 
    233000   0.024375457   -0.32925657     0.015797894   -0.27691908     0.0037447155 
    234000   0.023971282   -0.3306594      0.016676483   -0.27804919    -0.0020182832 
    235000   0.024261164   -0.33227565     0.016801751   -0.27910563     0.00056172337
    236000   0.024248949   -0.3343417      0.016910422   -0.28108133     0.0035613643 
    237000   0.02432581    -0.33370643     0.016323625   -0.28091763     0.0012726577 
    238000   0.023838824   -0.33578393     0.016962541   -0.28308623    -0.0024899582 
    239000   0.025621154   -0.33707563     0.017945239   -0.28072345     0.0026595183 
    240000   0.024644142   -0.33851658     0.017429072   -0.28414515     9.1506693e-06
    241000   0.023365069   -0.33832385     0.016794523   -0.28650434     0.0022337435 
    242000   0.023540986   -0.33971751     0.016711557   -0.28771725     0.00087862859
    243000   0.024267385   -0.33994826     0.016737126   -0.28683354     0.00049635603
    244000   0.024788786   -0.34142868     0.01676351    -0.28750598    -0.0013755333 
    245000   0.024380646   -0.34255635     0.016966504   -0.28904247    -5.408381e-05 
    246000   0.024928132   -0.3435654      0.017961069   -0.28823626    -0.0011635114 
    247000   0.02423443    -0.34313553     0.017273243   -0.28953409     0.0038814203 
    248000   0.025003183   -0.34367958     0.017297991   -0.28890101     0.00078649139
    249000   0.026735206   -0.34708517     0.017158177   -0.28985005     0.0010440966 
    250000   0.026276204   -0.35083699     0.018324362   -0.29312375    -0.0014026031 
    251000   0.026805802   -0.35294409     0.017635986   -0.29512534    -0.00090026736
    252000   0.026890179   -0.3554277      0.018232917   -0.29688554     0.0023015986 
    253000   0.027380237   -0.35678275     0.017638538   -0.29810035     0.0066075733 
    254000   0.02695736    -0.35758348     0.017533241   -0.29964028     0.0099922112 
    255000   0.025755691   -0.35760059     0.017668958   -0.30132302     0.00048453317
    256000   0.025551646   -0.35729004     0.017313401   -0.3016739      0.0039410703 
    257000   0.025983408   -0.35761887     0.017240656   -0.30142825     0.0013206876 
    258000   0.025502871   -0.35749387     0.017382193   -0.30188205     0.0074246374 
    259000   0.026597901   -0.35781477     0.017926059   -0.3000176     -0.002719418  
    260000   0.025969501   -0.3584348      0.017940646   -0.30156504     0.0013274585 
    261000   0.027028931   -0.36176532     0.018456466   -0.30279162    -0.00093681428
    262000   0.027070907   -0.36342106     0.018532325   -0.30430857     0.0038965874 
    263000   0.026508639   -0.36345862     0.017997568   -0.30572375     0.00054031846
    264000   0.026263501   -0.36482868     0.017671866   -0.30778698    -0.00035817288
    265000   0.026368633   -0.36627852     0.018075287   -0.3086758     -0.0014304753 
    266000   0.027001467   -0.36810872     0.018695594   -0.30893706     0.00035008181
    267000   0.02630764    -0.36973038     0.019025558   -0.31126882     0.0003638623 
    268000   0.02677522    -0.36976879     0.018663518   -0.31096836     0.011397723  
    269000   0.025930471   -0.37037601     0.018003424   -0.31350197     0.0064719711 
    270000   0.027370574   -0.37126999     0.018959767   -0.31128084     0.0097386928 
    271000   0.02798951    -0.37239191     0.017780063   -0.31265466     0.0044123298 
    272000   0.026962089   -0.37467963     0.019980103   -0.31428249     0.0020510096 
    273000   0.028434037   -0.37643677     0.019102284   -0.31471095     0.001373784  
    274000   0.027530251   -0.37736901     0.019700649   -0.31639963     0.00015428652
    275000   0.027682769   -0.38055156     0.019306396   -0.3197478     -0.0010941429 
    276000   0.028634978   -0.38052544     0.019747971   -0.31785271    -0.00028495895
    277000   0.028271926   -0.38049654     0.018875023   -0.31924099     0.011199345  
    278000   0.02790677    -0.38201314     0.018969995   -0.32121       -0.00012310599
    279000   0.027492601   -0.38196375     0.019366614   -0.32138484     0.00012676303
    280000   0.028513087   -0.38222954     0.019527729   -0.31995978     0.0045681759 
    281000   0.027478473   -0.38249367     0.019651137   -0.32165142    -0.0013652786 
    282000   0.028429733   -0.38270162     0.020050525   -0.320034       0.00045507722
    283000   0.028152834   -0.38466288     0.019671444   -0.32278943    -0.0020302742 
    284000   0.029471748   -0.38608869     0.019268962   -0.32264062    -0.0032058737 
    285000   0.028930103   -0.38637814     0.019885681   -0.3231253      0.0025127696 
    286000   0.028623252   -0.38782748     0.020752947   -0.32416736     0.0057546928 
    287000   0.029316129   -0.38857301     0.020210911   -0.32441628    -0.0041080764 
    288000   0.028570926   -0.38859188     0.021010269   -0.32475287     0.0041867066 
    289000   0.029966697   -0.39081719     0.020656665   -0.32523948    -0.0014732502 
    290000   0.030336597   -0.39258515     0.019508345   -0.32760127     0.0056084116 
    291000   0.030216542   -0.39382509     0.020263037   -0.32826648     0.0041440728 
    292000   0.028838076   -0.39423026     0.020487294   -0.33051376     0.0008522687 
    293000   0.030628623   -0.40159229     0.021024238   -0.33465476    -0.00033741405
    294000   0.030132482   -0.40171031     0.019957504   -0.33658324     0.0029723277 
    295000   0.029354719   -0.40233555     0.021332479   -0.3369994      0.0034374955 
    296000   0.031852812   -0.40692875     0.021928994   -0.33725136     0.0086341172 
    297000   0.029548626   -0.40662863     0.021519692   -0.34081459     0.003986393  
    298000   0.02913009    -0.40620903     0.020925984   -0.3416161      0.0091925666 
    299000   0.030099971   -0.4090953      0.02045721    -0.34351726     0.0092621509 
    300000   0.029892562   -0.40943358     0.020995034   -0.34362864     0.0092513433 
    301000   0.030209008   -0.41234326     0.021903129   -0.34515586     0.012947379  
    302000   0.030482281   -0.4142618      0.021547087   -0.34702079     0.0092549022 
    303000   0.031637226   -0.41817091     0.022605534   -0.34814016     0.0085147876 
    304000   0.031998896   -0.41990382     0.021534463   -0.35040198     0.0042461314 
    305000   0.030626482   -0.4206863      0.022610195   -0.35216602     0.014190898  
    306000   0.030083022   -0.42127699     0.021392486   -0.35478909     0.0056733538 
    307000   0.031840848   -0.42284035     0.021293963   -0.35381593     0.0056304773 
    308000   0.033103662   -0.42562038     0.021420519   -0.35457641     0.018478746  
    309000   0.031161802   -0.42707578     0.021862071   -0.35850116     0.0037012826 
    310000   0.03274621    -0.42735462     0.021188064   -0.35707893     0.0075422701 
    311000   0.031036025   -0.42692851     0.02183586    -0.35856865     0.00079059959
    312000   0.032153344   -0.42859831     0.021647615   -0.35875179     0.013371688  
    313000   0.031732948   -0.4291408      0.021478259   -0.36009382     0.010281208  
    314000   0.032243567   -0.43052222     0.023068064   -0.35912001     0.010980788  
    315000   0.032479857   -0.432319       0.023007989   -0.36062266     0.016162375  
    316000   0.03239997    -0.43560288     0.021923154   -0.36511113     0.012166949  
    317000   0.032144365   -0.436073       0.02190084    -0.36598672     0.01026852   
    318000   0.032972729   -0.43756675     0.023027647   -0.36511192     0.011338433  
    319000   0.033291046   -0.43930423     0.023394182   -0.3660057      0.0066731929 
    320000   0.031837927   -0.43939171     0.023259917   -0.36840571     0.0069549099 
    321000   0.032070868   -0.43949092     0.022915216   -0.36850043     0.0057768606 
    322000   0.032473397   -0.44098094     0.023299621   -0.36900265    -0.0022790537 
    323000   0.03271003    -0.44166505     0.021669461   -0.3709622      0.0026992189 
    324000   0.033106144   -0.44185329     0.022042442   -0.37018367     0.0043006289 
    325000   0.032477242   -0.44201479     0.021566755   -0.3717636      0.00053430544
    326000   0.032505402   -0.44140169     0.021546985   -0.37112806     0.013459731  
    327000   0.034243284   -0.44020342     0.024516728   -0.36435491     0.0079670156 
    328000   0.035451178   -0.44147167     0.022604885   -0.36572433     0.0066811622 
    329000   0.034526959   -0.44172558     0.023102966   -0.36686559     0.0040983088 
    330000   0.034029927   -0.44388284     0.022927249   -0.36994363     0.00025057707
    331000   0.032795181   -0.44477997     0.022934825   -0.37268411     0.0058635825 
    332000   0.032124314   -0.44466072     0.022953541   -0.37355179     0.0059781688 
    333000   0.034327803   -0.44539858     0.022548124   -0.37139197     0.0024505405 
    334000   0.032499288   -0.44916578     0.024203739   -0.37624456     0.0008481382 
    335000   0.034785084   -0.4508813      0.023066784   -0.37567056     0.0075984226 
    336000   0.033803382   -0.45076725     0.023708085   -0.37638681     0.0072178291 
    337000   0.034121006   -0.4523548      0.024826452   -0.37637986    -0.0019045131 
    338000   0.034804601   -0.45417746     0.023923438   -0.37808081     0.0055224277 
    339000   0.033961553   -0.45516399     0.024146014   -0.38010851     0.0088466354 
    340000   0.03499173    -0.45842987     0.022424468   -0.38355167     0.0040678994 
    341000   0.033973424   -0.46238658     0.02293684    -0.38852248     0.00097637508
    342000   0.033209743   -0.46210231     0.022906571   -0.38941326    -0.0038340289 
    343000   0.035003492   -0.46208706     0.024967094   -0.3846486      0.0050563706 
    344000   0.035597163   -0.46198234     0.023080941   -0.3855401      0.0096947279 
    345000   0.03510402    -0.46205251     0.023851882   -0.38557857    -0.00031803829
    346000   0.035021857   -0.46537351     0.024428419   -0.38844619     0.0021676204 
    347000   0.035256213   -0.46823113     0.024341127   -0.39103981     0.0033239475 
    348000   0.035497985   -0.46993965     0.024919986   -0.39180704    -0.0030365732 
    349000   0.035503413   -0.47009088     0.024201765   -0.39266836     0.010453641  
    350000   0.035910604   -0.47141019     0.024951306   -0.39262773    -0.00014997476
    351000   0.036381858   -0.47184626     0.02471001    -0.39259867     0.0088385805 
    352000   0.034599429   -0.47144209     0.025550369   -0.39402606     0.0091582138 
    353000   0.035501686   -0.4730084      0.025673503   -0.39411672     0.021465382  
    354000   0.03628921    -0.47316422     0.025369679   -0.39339585     0.010642126  
    355000   0.036760938   -0.47280146     0.024658186   -0.39303744     0.0021466273 
    356000   0.037845741   -0.47489739     0.025545947   -0.39261945    -0.0038182203 
    357000   0.037476888   -0.47792952     0.026253472   -0.39549699    -0.0024594798 
    358000   0.035061352   -0.48017079     0.026846184   -0.40076651     0.0030906838 
    359000   0.036976534   -0.48064249     0.024734882   -0.40047859     0.00026998308
    360000   0.036043455   -0.48056407     0.025669799   -0.40086397     0.010270789  
    361000   0.036918363   -0.48161323     0.024567443   -0.40170397     0.0076917847 
    362000   0.037858348   -0.48186023     0.024964827   -0.40014452     0.0068076775 
    363000   0.035449589   -0.48206943     0.024873848   -0.4040555      0.014919657  
    364000   0.038138047   -0.48409558     0.025543676   -0.40138174    -0.00010318794
    365000   0.036461336   -0.48314439     0.027514927   -0.40097275     0.0028972539 
    366000   0.037377783   -0.48395411     0.024585389   -0.40333822     0.0094404935 
    367000   0.037403181   -0.48569839     0.02589601    -0.4037338      0.00034967218
    368000   0.036695312   -0.48356754     0.025627477   -0.40293261     0.01312231   
    369000   0.03712841    -0.48533066     0.025827471   -0.40384651     0.0097844302 
    370000   0.037813119   -0.48713619     0.027210536   -0.40324257    -0.00127632   
    371000   0.037971933   -0.48803997     0.026028815   -0.40509        0.0025994226 
    372000   0.038703445   -0.489437       0.026642662   -0.40477663     0.0090981299 
    373000   0.03817038    -0.4884076      0.026704646   -0.40448433    -0.0036492897 
    374000   0.040241041   -0.48768178     0.027603864   -0.39975529     0.0062204421 
    375000   0.038183358   -0.48932528     0.025309944   -0.40677725     0.010699099  
    376000   0.03822209    -0.48962278     0.026774778   -0.40555186     0.008029363  
    377000   0.036942558   -0.49071107     0.026585422   -0.40874756     0.0064664931 
    378000   0.038316722   -0.492477       0.026679828   -0.40835917     0.0075399442 
    379000   0.039229999   -0.49495852     0.026877349   -0.40927414     0.00031729125
    380000   0.039311199   -0.49757637     0.027027865   -0.41161975     0.007681604  
    381000   0.039353955   -0.4983151      0.02740916    -0.41191309    -0.0012324552 
    382000   0.039243109   -0.49969195     0.026216797   -0.41464846     0.017090425  
    383000   0.040159853   -0.50110747     0.028308812   -0.41259774     0.0024535957 
    384000   0.039667647   -0.50154409     0.026739813   -0.4153412      0.0050148978 
    385000   0.039031753   -0.5058709      0.028076161   -0.41928488    -0.006886194  
    386000   0.039307465   -0.50733116     0.028950744   -0.41945726     0.0036787311 
    387000   0.041218836   -0.50916055     0.027932981   -0.4194392      0.002990413  
    388000   0.039965094   -0.50947142     0.028201379   -0.42136108    -0.0032757477 
    389000   0.039530612   -0.51094427     0.028168499   -0.4235181      0.0067999149 
    390000   0.041529533   -0.51265063     0.028039593   -0.42235693     0.0042523471 
    391000   0.040791314   -0.51452235     0.028283781   -0.42509107     0.0049843001 
    392000   0.041023288   -0.51619649     0.027965614   -0.42673564     0.0034972928 
    393000   0.041813342   -0.52007344     0.0300813     -0.42731259     0.0079709576 
    394000   0.040820899   -0.52212296     0.027369932   -0.43356118     0.0023632687 
    395000   0.040370218   -0.52414513     0.027067471   -0.4365614      0.003859613  
    396000   0.039413783   -0.52496391     0.026875799   -0.43900558     0.0093661022 
    397000   0.040579958   -0.52408797     0.025828273   -0.43742903     0.0012348241 
    398000   0.040163976   -0.52647908     0.02716186    -0.43911012     0.0048633733 
    399000   0.040103967   -0.5266475      0.02717753    -0.43935283     0.0063538802 
    400000   0.039492118   -0.52753822     0.027546707   -0.44079155     0.007653709  
    401000   0.038793577   -0.52787349     0.027805758   -0.44191491     0.0064631851 
    402000   0.041094822   -0.52937498     0.028733663   -0.43903885     0.00638718   
    403000   0.040353285   -0.53096925     0.029244688   -0.44123368     0.0053028765 
    404000   0.041198092   -0.53110041     0.02727091    -0.44207224    -0.00056553396
    405000   0.043171366   -0.53261479     0.027866587   -0.44003294     0.0021796125 
    406000   0.040187135   -0.53344404     0.029054      -0.44414823    -0.0030913095 
    407000   0.041557751   -0.53408078     0.027630564   -0.44415381     0.0079849528 
    408000   0.040656887   -0.53603562     0.029488035   -0.4456016      0.00605874   
    409000   0.041091835   -0.53690752     0.028012257   -0.44729728     0.0056875306 
    410000   0.040792837   -0.53804342     0.028376797   -0.44851684     0.0091124456 
    411000   0.042179824   -0.5382433      0.028799644   -0.44621474     0.0032592846 
    412000   0.040617766   -0.53783963     0.02950633    -0.44744596     0.0016536465 
    413000   0.042283549   -0.5394447      0.029037507   -0.44702279     0.002532002  
    414000   0.043881927   -0.54078868     0.029195082   -0.44581317     0.017103929  
    415000   0.042582148   -0.54099241     0.028825058   -0.44833533    -0.019108613  
    416000   0.043023755   -0.54241931     0.028595178   -0.44933014     0.00054059871
    417000   0.041454784   -0.54222607     0.030907663   -0.44917635    -0.0026414703 
    418000   0.042539488   -0.54391297     0.029050184   -0.45109472    -0.0018521162 
    419000   0.043230899   -0.54663394     0.029314065   -0.45251536     0.0044396165 
    420000   0.042843478   -0.54886072     0.030974013   -0.45366295     0.0033208709 
    421000   0.04253321    -0.548898       0.028228969   -0.45691038     0.0091529558 
    422000   0.043094156   -0.5505668      0.029457568   -0.4565097      0.0019880136 
    423000   0.043425411   -0.55010371     0.030050186   -0.45495743     0.011304646  
    424000   0.043228254   -0.55054468     0.029785972   -0.45595816     0.0015751659 
    425000   0.04414533    -0.55090416     0.029956182   -0.45477271    -0.00020355974
    426000   0.044062444   -0.55048888     0.029543238   -0.45489462    -0.0063646229 
    427000   0.043899462   -0.5517989      0.030604761   -0.45538743    -0.0086342457 
    428000   0.042665363   -0.55439615     0.031437748   -0.45900164     0.0065334834 
    429000   0.043193944   -0.55555974     0.030925811   -0.45988481    -0.0069714039 
    430000   0.043562904   -0.55555276     0.02827973    -0.46197084     0.0019456056 
    431000   0.043312853   -0.55515578     0.030568227   -0.45966019    -0.0048863418 
    432000   0.042894189   -0.55472398     0.030405258   -0.46001895     0.010773444  
    433000   0.043835559   -0.55505685     0.030375199   -0.45897074     0.0061294269 
    434000   0.043712165   -0.55795912     0.029466188   -0.46296699    -0.000399204  
    435000   0.045305803   -0.5604044      0.032965996   -0.45952354     0.0027209393 
    436000   0.043968511   -0.56219767     0.030605243   -0.46568221    -0.016790882  
    437000   0.044872025   -0.56229177     0.029701578   -0.46532558     0.0021728324 
    438000   0.042861109   -0.56340442     0.031872476   -0.46728176     0.002010141  
    439000   0.0436883     -0.56247388     0.029572227   -0.46741148     0.0030788152 
    440000   0.044685418   -0.56281843     0.03144372    -0.46438983     0.0068548108 
    441000   0.046848506   -0.56356102     0.030636653   -0.46269695     0.0028833887 
    442000   0.046592445   -0.56388953     0.03269636    -0.4613496     -0.00011887918
    443000   0.047037346   -0.56449565     0.031943183   -0.46204197    -0.0045487627 
    444000   0.046042816   -0.56454011     0.030024844   -0.4654956      3.9928702e-05
    445000   0.046767317   -0.564245       0.032774373   -0.46136491     0.0029086631 
    446000   0.045061776   -0.5660483      0.032030615   -0.46646863    -0.0088843766 
    447000   0.044656274   -0.56564027     0.031201398   -0.46749768     0.005691434  
    448000   0.047949027   -0.56705945     0.030861284   -0.46432102     0.0028841651 
    449000   0.045578843   -0.56854739     0.03164572    -0.46857751     0.0074007779 
    450000   0.045611724   -0.56867056     0.033000378   -0.46729674     0.0012002851 
    451000   0.044780895   -0.56889877     0.029677734   -0.47209303     0.0092353435 
    452000   0.04697284    -0.57045475     0.03026098    -0.46977997     0.011340215  
    453000   0.046837786   -0.57144201     0.032215051   -0.4690156     -0.00046527547
    454000   0.047163871   -0.57368392     0.033018011   -0.46996575    -0.0012583671 
    455000   0.045122216   -0.57371769     0.031523666   -0.47455437     0.0076045644 
    456000   0.045255129   -0.57488776     0.031922079   -0.47512678     0.018196107  
    457000   0.047538234   -0.57605262     0.033279727   -0.47151155     0.0066629467 
    458000   0.045804864   -0.57712645     0.032942777   -0.4755207      0.015633878  
    459000   0.045758479   -0.57772683     0.030953474   -0.47817992     0.014546427  
    460000   0.047240278   -0.57688312     0.032444081   -0.47362434     0.022654273  
    461000   0.04663364    -0.57733256     0.034099962   -0.47332727     0.012143249  
    462000   0.046984852   -0.57714209     0.030972911   -0.47573737    -0.00069587961
    463000   0.045581513   -0.5766147      0.033669743   -0.4746168      0.014374202  
    464000   0.047285613   -0.57749052     0.032988478   -0.47361938     0.007623733  
    465000   0.047663409   -0.57725793     0.03180728    -0.47400167    -0.00078281244
    466000   0.047617091   -0.57839241     0.033356474   -0.47365638     0.0034796988 
    467000   0.04706385    -0.57819451     0.031828331   -0.47581595     0.011981543  
    468000   0.047754403   -0.57967028     0.034250782   -0.4738341      0.0022883991 
    469000   0.046648388   -0.58044499     0.033496107   -0.47702144     0.012348515  
    470000   0.046460765   -0.58169255     0.033260887   -0.47878548     0.004039636  
    471000   0.048712339   -0.5839631      0.033411496   -0.47753024     0.0054246314 
    472000   0.047774039   -0.58478291     0.032747687   -0.4804204     -0.00099113078
    473000   0.048375674   -0.58727745     0.032280349   -0.4824804     -0.0036595095 
    474000   0.047177591   -0.58705975     0.03362907    -0.48270995     0.0054375433 
    475000   0.047393394   -0.58665828     0.034658819   -0.48095523     0.011270928  
    476000   0.047182258   -0.58724814     0.030409972   -0.48611044     0.0094282436 
    477000   0.046515414   -0.58773461     0.0329168     -0.48508971     0.0021772368 
    478000   0.046280366   -0.58798743     0.033517913   -0.48509375     0.0010502823 
    479000   0.049062626   -0.59007126     0.03254013    -0.48398467    -0.0033354075 
    480000   0.04716524    -0.5892571      0.034854954   -0.48369993    -0.0035622428 
    481000   0.048212611   -0.59059761     0.032474718   -0.48585063     0.0039853455 
    482000   0.048586965   -0.59267823     0.033908245   -0.48593656    -0.0056918134 
    483000   0.047999191   -0.59119165     0.033955276   -0.48528404    -0.0014130922 
    484000   0.050224727   -0.5950399      0.035664582   -0.48408684    -0.0014612762 
    485000   0.050798104   -0.59623633     0.036363721   -0.48372462    -0.0033439727 
    486000   0.048653607   -0.59746163     0.035854294   -0.48867401     0.0086949788 
    487000   0.049206609   -0.59819701     0.03319006    -0.49124466     0.0013104229 
    488000   0.049459711   -0.5986122      0.033425647   -0.49104485     0.0034166217 
    489000   0.049958109   -0.59893074     0.033307048   -0.49073487     0.0057243935 
    490000   0.051043775   -0.60035692     0.033776706   -0.49006395     0.0053385515 
    491000   0.048931871   -0.59982158     0.034857623   -0.4916135      0.0024774783 
    492000   0.04945398    -0.60235162     0.034650341   -0.49356816    -4.0254338e-06
    493000   0.048848765   -0.60173621     0.035700035   -0.4928103      0.0074884862 
    494000   0.050477307   -0.60174946     0.034201036   -0.49188132     0.0093515185 
    495000   0.052763848   -0.60299927     0.035870838   -0.48803372     0.0079524033 
    496000   0.05154516    -0.60343703     0.034499232   -0.49166994    -0.0016341008 
    497000   0.049459185   -0.60535921     0.03483508    -0.49638321     0.0062116749 
    498000   0.05055523    -0.60968419     0.036443919   -0.49745636     0.01225703   
    499000   0.052817152   -0.61128909     0.033299166   -0.49881531     0.0022904837 
    500000   0.050383314   -0.61097726     0.034330651   -0.5011204     -0.0051369613 
Loop time of 118.632 on 8 procs for 500000 steps with 1550 atoms

Performance: 364150.645 tau/day, 4214.707 timesteps/s, 6.533 Matom-step/s
91.6% CPU use with 8 MPI tasks x 1 OpenMP threads

MPI task timing breakdown:
Section |  min time  |  avg time  |  max time  |%varavg| %total
---------------------------------------------------------------
Pair    | 12.781     | 14.451     | 16.215     |  29.4 | 12.18
Bond    | 4.7196     | 5.1866     | 5.6322     |  13.4 |  4.37
Neigh   | 0.046492   | 0.046579   | 0.046654   |   0.0 |  0.04
Comm    | 9.5373     | 11.76      | 13.763     |  41.4 |  9.91
Output  | 0.37662    | 0.39866    | 0.42162    |   2.3 |  0.34
Modify  | 85.371     | 85.482     | 85.576     |   0.8 | 72.06
Other   |            | 1.308      |            |       |  1.10

Nlocal:         193.75 ave         223 max         148 min
Histogram: 1 0 0 1 1 0 2 0 1 2
Nghost:         545.25 ave         582 max         457 min
Histogram: 1 0 0 0 1 1 0 0 2 3
Neighs:              0 ave           0 max           0 min
Histogram: 8 0 0 0 0 0 0 0 0 0
FullNghs:      3241.25 ave        4392 max        1783 min
Histogram: 1 0 0 2 0 1 1 1 1 1

Total # of neighbors = 25930
Ave neighs/atom = 16.729032
Ave special neighs/atom = 2.1612903
Neighbor list builds = 183
Dangerous builds = 0

unfix ThermoLng

# Now we let the system to create the polymeric network
fix ThermoLng all langevin ${temp} ${temp} ${damp} ${seed3} tally yes zero yes # Brownian Dynamics: langevin + nve
fix ThermoLng all langevin 0.05 ${temp} ${damp} ${seed3} tally yes zero yes 
fix ThermoLng all langevin 0.05 0.05 ${damp} ${seed3} tally yes zero yes 
fix ThermoLng all langevin 0.05 0.05 1 ${seed3} tally yes zero yes 
fix ThermoLng all langevin 0.05 0.05 1 2010 tally yes zero yes 
run ${steps}
run 3500000
WARNING: Using a manybody potential with bonds/angles/dihedrals and special_bond exclusions (src/pair.cpp:250)
Hybrid pair style last /omp style table/omp
Last active /omp style is angle_style harmonic/omp
Per MPI rank memory allocation (min/avg/max) = 24.03 | 24.04 | 24.04 Mbytes
   Step          Temp          E_pair         E_mol          TotEng         Press     
    500000   0.050383314   -0.61097726     0.034330651   -0.5011204     -0.00130385   
    501000   0.049910751   -0.61134944     0.034112132   -0.50241949     0.0070134929 
    502000   0.051409558   -0.61155075     0.034153909   -0.50033226    -0.0044610422 
    503000   0.049793983   -0.61215852     0.034548832   -0.5029669      0.01550035   
    504000   0.048970809   -0.61296593     0.035319353   -0.50423776     0.0063234877 
    505000   0.049932161   -0.61360747     0.035827545   -0.50293001     0.014988238  
    506000   0.050582691   -0.61459885     0.034585835   -0.50418793     0.0082217635 
    507000   0.050342706   -0.61497089     0.03672944    -0.50277611    -0.006012149  
    508000   0.05212214    -0.61545783     0.035108468   -0.50221659    -0.0011101448 
    509000   0.049826011   -0.61828564     0.036953216   -0.50664163     0.0059265361 
    510000   0.050435389   -0.61796657     0.034357787   -0.50800451     0.0042286158 
    511000   0.050094044   -0.61672242     0.035988993   -0.50564084     0.008997983  
    512000   0.049307207   -0.61723818     0.035868997   -0.50745609     0.0070705407 
    513000   0.052125634   -0.61621718     0.035964859   -0.50211431    -0.0017229782 
    514000   0.050707361   -0.61756824     0.036600384   -0.50495589     0.0092350572 
    515000   0.051099733   -0.61825778     0.035345869   -0.50631176     0.0023349749 
    516000   0.049014055   -0.61877272     0.036825135   -0.50847393     0.014655022  
    517000   0.052751985   -0.62354633     0.036166666   -0.50830273    -0.0024040588 
    518000   0.052442695   -0.62418617     0.038561024   -0.50701185    -0.013463032  
    519000   0.051170397   -0.62407176     0.036970203   -0.51039548    -0.00014022386
    520000   0.050349014   -0.62627597     0.035114338   -0.51568683     0.012690603  
    521000   0.049730195   -0.62631457     0.035643815   -0.51612359     0.00045002409
    522000   0.051923223   -0.62737353     0.036647388   -0.51289156    -0.0071176517 
    523000   0.051107052   -0.62659882     0.036946526   -0.51304117     0.0097501669 
    524000   0.051858306   -0.62700819     0.038624953   -0.51064596     0.0043166009 
    525000   0.05166148    -0.6272203      0.036909184   -0.51286889     0.017973865  
    526000   0.051725941   -0.62872518     0.03659996    -0.51458636     0.014402471  
    527000   0.050799314   -0.62895258     0.036504297   -0.51629847     0.0082659255 
    528000   0.051428715   -0.63096065     0.037000858   -0.51686649    -0.015539406  
    529000   0.050683038   -0.63039391     0.035741182   -0.51867722    -0.0017699697 
    530000   0.050538541   -0.63041455     0.03683845    -0.5178172     -0.00066879245
    531000   0.049889806   -0.63081467     0.036371899   -0.51965634    -0.0034485832 
    532000   0.052133397   -0.63017376     0.036520129   -0.51550398     0.019242542  
    533000   0.050966538   -0.63260174     0.03592015    -0.5202811      0.027957761  
    534000   0.050658187   -0.63241581     0.033809681   -0.52266787     0.014457903  
    535000   0.050248827   -0.63133271     0.03509499    -0.52091311     0.010882476  
    536000   0.05104065    -0.63384921     0.037609794   -0.51972784     0.0069946381 
    537000   0.050597002   -0.63261542     0.036332323   -0.52043656     0.01652121   
    538000   0.049898602   -0.63367769     0.035788659   -0.52308941     0.021808478  
    539000   0.050365308   -0.63488888     0.035766406   -0.52362325    -0.0015756168 
    540000   0.050641666   -0.63466018     0.037359039   -0.52138766     0.022851278  
    541000   0.051281722   -0.63585953     0.03586684    -0.52311973     0.021817179  
    542000   0.051392629   -0.63797653     0.038777346   -0.52215998     0.015072328  
    543000   0.053187372   -0.63832492     0.036231315   -0.52236402     0.023918963  
    544000   0.051733204   -0.63972464     0.035216478   -0.52695842     0.021921014  
    545000   0.05269551    -0.63961225     0.036384491   -0.52423549     0.00802697   
    546000   0.054388792   -0.64049382     0.035884176   -0.52307909     0.0076190319 
    547000   0.05358837    -0.63948537     0.035797098   -0.52335757     0.020223089  
    548000   0.050428059   -0.64114978     0.037891711   -0.52766478     0.011978427  
    549000   0.050675904   -0.64013528     0.036170849   -0.52799961     0.015475353  
    550000   0.050728645   -0.63990341     0.035346743   -0.52851279     0.0095638698 
    551000   0.050704281   -0.6417927      0.035711097   -0.53007425     5.2191487e-05
    552000   0.050905183   -0.64353068     0.035381919   -0.53184025     0.0031745993 
    553000   0.050357025   -0.64437399     0.036009125   -0.53287806    -0.0018439587 
    554000   0.05029398    -0.64285897     0.037073251   -0.53039342     0.008863288  
    555000   0.050607434   -0.64326185     0.035541706   -0.53185796     0.0043740002 
    556000   0.051956471   -0.64330282     0.038826658   -0.52659174    -0.0036081873 
    557000   0.051131038   -0.64329581     0.03459273    -0.53205601     0.0052764995 
    558000   0.050331504   -0.64423316     0.03443679    -0.53434782     0.017837366  
    559000   0.04842557    -0.64269551     0.037023065   -0.53308095     0.0064070196 
    560000   0.05034426    -0.64393713     0.03790872    -0.53056074     0.0086908034 
    561000   0.050525289   -0.64534421     0.037983062   -0.53162211    -0.0025228095 
    562000   0.051932798   -0.6471515      0.035454128   -0.53384843     0.010635776  
    563000   0.05135092    -0.64652079     0.037007124   -0.53253698     0.012515723  
    564000   0.050872145   -0.64630931     0.035234349   -0.53481597     0.0080633857 
    565000   0.047447963   -0.64734121     0.034732788   -0.54148239     0.0063390374 
    566000   0.050264813   -0.6488276      0.034638988   -0.53884003     0.010431133  
    567000   0.051286299   -0.65085558     0.038540501   -0.53543527     0.011110486  
    568000   0.052028452   -0.65069865     0.038268586   -0.53443773     0.0066773035 
    569000   0.05069738    -0.65166422     0.035314643   -0.54035257     0.020674542  
    570000   0.050940627   -0.6539727      0.037444086   -0.54016697     0.0056396626 
    571000   0.048873394   -0.65395349     0.035828657   -0.54486204     0.011933442  
    572000   0.049774992   -0.65349052     0.034866624   -0.54400957     0.0090510572 
    573000   0.051269862   -0.65431678     0.034887107   -0.5425745      0.025636051  
    574000   0.051594926   -0.6559073      0.038423402   -0.54014144     0.0069146312 
    575000   0.050912802   -0.65591373     0.036119312   -0.54347448     0.00092762969
    576000   0.050375533   -0.65645163     0.035787733   -0.54514934     0.024877127  
    577000   0.05176141    -0.65629813     0.0365166     -0.54218951     0.0054061355 
    578000   0.051770047   -0.65701795     0.036494663   -0.54291832    -0.0037043241 
    579000   0.051630321   -0.65833865     0.033830063   -0.54711307    -0.0084267009 
    580000   0.049607252   -0.65985968     0.036203083   -0.54929373     0.0093112912 
    581000   0.051231226   -0.66011355     0.037192693   -0.54612359     0.011071332  
    582000   0.050714494   -0.66106184     0.037149941   -0.54788923     0.0069365908 
    583000   0.04981388    -0.66071405     0.036992412   -0.54904903     0.0097134996 
    584000   0.050733834   -0.65950177     0.035269012   -0.5481811      0.00055213129
    585000   0.049855781   -0.65909836     0.033195285   -0.55116765     0.013345072  
    586000   0.051238004   -0.66174683     0.038798748   -0.54614066     0.0064362934 
    587000   0.053540427   -0.66455586     0.038652937   -0.54564409     0.015469446  
    588000   0.053523166   -0.66406796     0.039278579   -0.54455643    -0.0069989512 
    589000   0.053120103   -0.66521542     0.038579639   -0.54700703    -0.00027041769
    590000   0.052448844   -0.66587756     0.037334236   -0.54992082    -0.0069736689 
    591000   0.054132885   -0.66746129     0.037125238   -0.54918911     0.012581395  
    592000   0.051475957   -0.66888612     0.036240331   -0.55548167    -0.0054504423 
    593000   0.050688082   -0.66811859     0.03570362    -0.5564319      0.011522198  
    594000   0.051087103   -0.66950127     0.036670146   -0.55624991     0.0075707864 
    595000   0.050067594   -0.66874286     0.034305534   -0.55938439     0.020649712  
    596000   0.049648909   -0.66905176     0.036968263   -0.55765818     0.0076359743 
    597000   0.051355582   -0.6712762      0.036181984   -0.55811054     0.00033049555
    598000   0.051329158   -0.67056071     0.035961771   -0.55765487     0.014359808  
    599000   0.049927777   -0.67122874     0.034231785   -0.56215361    -0.004007659  
    600000   0.051358757   -0.67294613     0.035957235   -0.56000046     0.0056138063 
    601000   0.051919035   -0.67258801     0.035097936   -0.55966176     0.010908516  
    602000   0.051713006   -0.67283404     0.036776397   -0.55853818     0.018375936  
    603000   0.051299702   -0.67244993     0.03518943    -0.56036059     0.013211914  
    604000   0.050886788   -0.6737537      0.035045888   -0.56242688     0.028396911  
    605000   0.052045566   -0.67427798     0.036802265   -0.55945773     0.012579834  
    606000   0.051995816   -0.67475949     0.036846383   -0.5599697      0.019778973  
    607000   0.050286174   -0.67606984     0.037143396   -0.56354584     0.013920842  
    608000   0.049822322   -0.67391792     0.03705955    -0.5621731      0.01399923   
    609000   0.052468117   -0.67475317     0.037930004   -0.55817176     0.0090655829 
    610000   0.0514218     -0.674627       0.037294574   -0.56024949     0.014225837  
    611000   0.051053846   -0.67572222     0.035187064   -0.56400379     0.0074714057 
    612000   0.050611109   -0.67575797     0.035242403   -0.56464789     0.020072694  
    613000   0.049864139   -0.67664125     0.03546308    -0.56643022     0.0087205077 
    614000   0.050865083   -0.67829786     0.034300068   -0.56774939     0.00093967334
    615000   0.050075222   -0.67856892     0.037369327   -0.56613522     0.018636639  
    616000   0.051340281   -0.67895132     0.0356426     -0.56634799     0.00043928421
    617000   0.051971674   -0.68057089     0.035815807   -0.56684787     0.0079796015 
    618000   0.050604861   -0.6790242      0.035837783   -0.5673281      0.020892764  
    619000   0.050914937   -0.68093248     0.037302831   -0.56730651    -0.011539568  
    620000   0.051987288   -0.68140683     0.036220617   -0.56725559     0.0020700908 
    621000   0.051487286   -0.68023633     0.034987553   -0.56806767     0.019119624  
    622000   0.05032407    -0.68114367     0.036076483   -0.56962978    -0.0085598216 
    623000   0.050273937   -0.68351172     0.037495487   -0.57065398     0.0060553996 
    624000   0.050817191   -0.68282473     0.033876736   -0.57277138    -0.0028001449 
    625000   0.047751992   -0.68172321     0.037210685   -0.57293075    -0.00062238485
    626000   0.050110915   -0.68262107     0.035511786   -0.57199141     0.013805893  
    627000   0.049981186   -0.68291644     0.035139451   -0.57285358     0.0057022858 
    628000   0.050963588   -0.68359041     0.035282743   -0.57191161    -0.0027172601 
    629000   0.050312799   -0.68430463     0.036322749   -0.57256137    -0.0097406116 
    630000   0.05027312    -0.68539927     0.037098952   -0.57293929     0.0095541521 
    631000   0.050640428   -0.68501978     0.037712047   -0.5713961     -0.0015557006 
    632000   0.050988607   -0.68545797     0.033843833   -0.57518057    -0.0082641369 
    633000   0.051544525   -0.68553727     0.03732081    -0.57094955     0.007707248  
    634000   0.050354235   -0.6882018      0.0383127     -0.57440648    -0.0071722857 
    635000   0.050446747   -0.68629926     0.0375383     -0.57313966    -0.0017676079 
    636000   0.050989164   -0.68747884     0.037647595   -0.57339684     0.015476959  
    637000   0.051397953   -0.68679791     0.036930696   -0.57282002     0.017804185  
    638000   0.050806944   -0.68823418     0.036297924   -0.57577501     0.0030633135 
    639000   0.051382757   -0.68898865     0.035725089   -0.57623915     0.023921519  
    640000   0.05161041    -0.69020001     0.036285934   -0.5765484      0.0066219671 
    641000   0.05086624    -0.69283326     0.037383785   -0.57919934     0.004094052  
    642000   0.051094951   -0.69032009     0.036815184   -0.57691192     0.02291244   
    643000   0.050388728   -0.69063133     0.035738893   -0.57935811     0.0042538423 
    644000   0.049124947   -0.68923753     0.036731024   -0.57886663     0.0085717413 
    645000   0.050597615   -0.68943726     0.035557485   -0.57803232     0.0021999659 
    646000   0.050975389   -0.69068628     0.036017821   -0.57825471    -3.5007279e-05
    647000   0.048616569   -0.69102076     0.035850185   -0.58229277     0.0064024189 
    648000   0.051010369   -0.68959395     0.03613896    -0.5769888      0.0043162664 
    649000   0.049464764   -0.68959419     0.03615562    -0.57928929     0.0040870768 
    650000   0.050773217   -0.69150465     0.036585334   -0.57880863     0.0057836155 
    651000   0.048940437   -0.69207369     0.034643654   -0.58406674    -0.0053855827 
    652000   0.051417806   -0.69200713     0.035760741   -0.57916944     0.0023215108 
    653000   0.051340495   -0.69149446     0.03531602    -0.57921738     0.01239054   
    654000   0.052859506   -0.69259182     0.036834175   -0.57651954    -0.0083706522 
    655000   0.050875898   -0.69294061     0.036120275   -0.58055572     0.0086043624 
    656000   0.050163944   -0.69173338     0.035288673   -0.58124734    -0.012223855  
    657000   0.04985038    -0.69013207     0.035789599   -0.57961515     0.0069085751 
    658000   0.050184448   -0.69346208     0.037164131   -0.58106984     0.013132136  
    659000   0.051038368   -0.69316125     0.039208893   -0.5774442      0.00054425327
    660000   0.051249954   -0.69397828     0.036379614   -0.58077333     0.0012567068 
    661000   0.050283456   -0.69531967     0.036092494   -0.58385065    -0.001133733  
    662000   0.050805058   -0.69473108     0.035275991   -0.58329666     0.0058514155 
    663000   0.050752738   -0.69597792     0.035528972   -0.58436895     0.00058149859
    664000   0.050262192   -0.69604672     0.035992333   -0.58470974     0.016202393  
    665000   0.0501539     -0.69612607     0.037005654   -0.58393811    -0.013394786  
    666000   0.051329283   -0.69483529     0.034751701   -0.58313934    -0.0065144397 
    667000   0.051306649   -0.69628305     0.035345114   -0.58402761     0.0031573508 
    668000   0.050519766   -0.69942088     0.039171676   -0.58451845    -0.0068827305 
    669000   0.051040584   -0.69930249     0.035718121   -0.58707288    -0.012743433  
    670000   0.051240194   -0.69924681     0.038613634   -0.58382247     0.0073637989 
    671000   0.051006821   -0.69904385     0.036959639   -0.58562334     0.018247295  
    672000   0.04995067    -0.69634746     0.03634867    -0.58512113     0.024504002  
    673000   0.053044333   -0.69895738     0.035375784   -0.58406643     0.0084659108 
    674000   0.052453147   -0.69851312     0.036592923   -0.58329123     0.016262037  
    675000   0.051098767   -0.69875349     0.037320441   -0.58483435     0.010987328  
    676000   0.049915403   -0.69932314     0.036249396   -0.58824895     0.0019452436 
    677000   0.050767411   -0.7002597      0.035624978   -0.58853274    -0.0038370881 
    678000   0.050703589   -0.69871647     0.037363899   -0.58534626    -0.010356451  
    679000   0.052106849   -0.69807359     0.038173215   -0.58179053     0.00089650685
    680000   0.050820938   -0.69850561     0.036504959   -0.58581842     0.010912658  
    681000   0.051365945   -0.69769748     0.036468276   -0.58423        0.012070229  
    682000   0.05041694    -0.69986581     0.035814021   -0.58847517    -0.0077774    
    683000   0.05144826    -0.70072175     0.037486655   -0.5861125     -0.00091484336
    684000   0.052523893   -0.7022723      0.037341269   -0.58619602    -0.0019873255 
    685000   0.05086788    -0.70289586     0.03800589    -0.58863738     0.0095411202 
    686000   0.0497748     -0.70287673     0.035422958   -0.59283975     0.013369294  
    687000   0.050951195   -0.70490185     0.035827024   -0.59269734    -0.0072232492 
    688000   0.050942792   -0.70470811     0.037472704   -0.59087052     0.0092672887 
    689000   0.053009774   -0.70412784     0.036265605   -0.58839888     0.0074032037 
    690000   0.052985234   -0.70477665     0.038194968   -0.58715511    -0.011916796  
    691000   0.051423413   -0.70425204     0.037348427   -0.58981825     0.01141853   
    692000   0.052225243   -0.70397897     0.035685526   -0.59000612     0.010006499  
    693000   0.05263915    -0.70333231     0.035312627   -0.5891119      0.0098048456 
    694000   0.049338242   -0.70324599     0.038104986   -0.59118139    -0.0055341208 
    695000   0.050769984   -0.70331977     0.034269557   -0.59294437     0.0078085657 
    696000   0.049634793   -0.70397817     0.036939101   -0.59263492     0.0085411602 
    697000   0.050555542   -0.70429181     0.036916919   -0.5915905      0.011438465  
    698000   0.04999953    -0.70594557     0.036003295   -0.59499137     0.019868299  
    699000   0.054057666   -0.70574887     0.037878177   -0.58683651     0.010463133  
    700000   0.050764042   -0.70511957     0.036442911   -0.59257972    -0.00891387   
    701000   0.050221792   -0.70771877     0.036317156   -0.59611753    -0.0091008019 
    702000   0.052875672   -0.70845288     0.039315124   -0.58987542     0.0047152889 
    703000   0.052981482   -0.70743425     0.039515195   -0.5884981      0.0091899797 
    704000   0.052588652   -0.70725478     0.036985583   -0.59143711     0.002346431  
    705000   0.052709751   -0.70785533     0.035607865   -0.59323385     0.0025132069 
    706000   0.05028898    -0.70922658     0.038184087   -0.59565769    -0.0085060066 
    707000   0.049779338   -0.70886471     0.03604448    -0.5981994      0.017436129  
    708000   0.049802869   -0.70827627     0.035243403   -0.59837676     0.018000708  
    709000   0.051315728   -0.70858884     0.036657203   -0.59500771     0.0049566273 
    710000   0.050539287   -0.70923259     0.037861404   -0.59561116     0.010747018  
    711000   0.05105804    -0.70940728     0.03804073    -0.5948289      0.0024784736 
    712000   0.052152227   -0.70854548     0.036255707   -0.5941119      0.0066761199 
    713000   0.051883294   -0.7099947      0.037610189   -0.59460978     0.0093096786 
    714000   0.052255063   -0.71121164     0.03735509    -0.59552452     0.00034445264
    715000   0.050718574   -0.71299443     0.036412789   -0.60055286     0.0047904467 
    716000   0.049576586   -0.71574078     0.037902493   -0.60352138    -0.0055163391 
    717000   0.052029065   -0.71442919     0.037425792   -0.59901015     0.0064921352 
    718000   0.051851421   -0.71626569     0.03819708    -0.60034166     0.0050468309 
    719000   0.050629646   -0.71469444     0.036096136   -0.60270283     0.0070324645 
    720000   0.051341677   -0.71555697     0.03642478    -0.60216936     0.0083808946 
    721000   0.052935168   -0.71823678     0.036001115   -0.60288414     0.017468596  
    722000   0.05190086    -0.71912811     0.037722527   -0.60360451     0.0069424187 
    723000   0.049781708   -0.71747123     0.036974298   -0.60587255     0.016775025  
    724000   0.049541511   -0.71691897     0.037221196   -0.60543345     0.012963457  
    725000   0.052521905   -0.7170819      0.036159082   -0.60219078     0.0053962594 
    726000   0.049664279   -0.71769525     0.037363285   -0.60588361     0.0097750243 
    727000   0.051485592   -0.71945313     0.0384157     -0.60385886    -0.010187394  
    728000   0.052991973   -0.72146646     0.037231965   -0.60479782     0.00076476214
    729000   0.053333565   -0.72238365     0.03636512    -0.6060698     -0.001965383  
    730000   0.052532471   -0.7238495      0.039186281   -0.60591535     0.0010235499 
    731000   0.05112628    -0.72287325     0.035681671   -0.61055163     0.023639326  
    732000   0.050685423   -0.72398333     0.036249309   -0.61175493     0.011587746  
    733000   0.052294429   -0.72434274     0.036159626   -0.60979208     0.022829563  
    734000   0.052057289   -0.72372886     0.037872943   -0.60782036     0.011153285  
    735000   0.052713239   -0.72476362     0.037711523   -0.60803325     0.0086511184 
    736000   0.052864534   -0.72419596     0.037793704   -0.60715661     0.016160373  
    737000   0.053281092   -0.72221765     0.035679989   -0.60666759     0.014077059  
    738000   0.053227613   -0.72309362     0.039158399   -0.60414531     0.014854459  
    739000   0.051185851   -0.72507956     0.037494175   -0.61085614     0.012143877  
    740000   0.051712117   -0.72385852     0.036520666   -0.60981972     0.019107209  
    741000   0.052854423   -0.72526562     0.03884275    -0.60719239     0.03105917   
    742000   0.052457872   -0.72783771     0.040283767   -0.6089179      0.017333428  
    743000   0.053286694   -0.72581531     0.037843368   -0.60809347     0.0063193846 
    744000   0.051779261   -0.72778805     0.038900198   -0.61126907    -0.0029202013 
    745000   0.052039642   -0.72741899     0.038143697   -0.61126619     0.0025103007 
    746000   0.052511887   -0.72800566     0.038754035   -0.61053461     0.003303575  
    747000   0.053886529   -0.72775228     0.03801323    -0.60896141     0.010163989  
    748000   0.051973898   -0.72868691     0.038090142   -0.61268622    -0.0021325336 
    749000   0.05216551    -0.72750966     0.03581467    -0.6134972      0.020322677  
    750000   0.050875008   -0.72784713     0.037869096   -0.61371475     0.033161764  
    751000   0.04986467    -0.72820718     0.036733358   -0.61672507    -0.00012792016
    752000   0.052096856   -0.72753774     0.036418267   -0.61302461     0.013324881  
    753000   0.051715116   -0.72878861     0.034734709   -0.61653128     0.0042513165 
    754000   0.050527065   -0.72796891     0.036963774   -0.61526344     0.0031952967 
    755000   0.050481941   -0.72896202     0.039878563   -0.6134094     -0.0089330885 
    756000   0.051330216   -0.72740451     0.035610366   -0.6148485      0.017799134  
    757000   0.049925674   -0.72704396     0.037026362   -0.6151774     -0.00041849533
    758000   0.051109307   -0.72842996     0.040166831   -0.61164863     0.012426413  
    759000   0.050296328   -0.72724398     0.037944941   -0.61390322     0.010384716  
    760000   0.0509139     -0.72655404     0.037540442   -0.61269202     0.039460723  
    761000   0.053201801   -0.72746883     0.037505889   -0.61021172     0.016788709  
    762000   0.052393547   -0.72947485     0.038196948   -0.61273829    -0.0052437587 
    763000   0.051061077   -0.72793081     0.03863094    -0.61275766    -0.012617573  
    764000   0.050202654   -0.72783673     0.036404383   -0.61617695     0.00036873114
    765000   0.050279649   -0.72824059     0.039451387   -0.61341839     0.0036165329 
    766000   0.049221192   -0.72923652     0.039911389   -0.61554098     0.0088674051 
    767000   0.051063513   -0.72896669     0.035890073   -0.61653076     0.0042423165 
    768000   0.0510414     -0.72808825     0.037643726   -0.61393182     0.0021295933 
    769000   0.052355528   -0.72814977     0.038112707   -0.61155444    -0.00055467935
    770000   0.051182858   -0.73041358     0.03811783    -0.615571       0.0047769702 
    771000   0.053516299   -0.73004879     0.037256712   -0.61256942     0.0073113781 
    772000   0.052621764   -0.7301976      0.039128351   -0.61218753     0.0042795343 
    773000   0.053350917   -0.73388405     0.037284925   -0.61662438     0.011877931  
    774000   0.051965171   -0.73275571     0.037499607   -0.61735864    -0.01237294   
    775000   0.054139972   -0.73544729     0.037885301   -0.61640442     0.0037459764 
    776000   0.054190722   -0.7368962      0.037422258   -0.6182403      0.014165468  
    777000   0.054806342   -0.73844282     0.037338206   -0.61894814     0.020747087  
    778000   0.053525809   -0.73828149     0.03839889    -0.61964568    -0.0024844365 
    779000   0.053182786   -0.7362929      0.038648042   -0.61792215     0.0047936517 
    780000   0.051216133   -0.73538416     0.039290277   -0.61931925    -0.0091486392 
    781000   0.051854037   -0.73795644     0.038660503   -0.62156506     0.0020133335 
    782000   0.051836723   -0.73810906     0.038013629   -0.62239051     0.011760772  
    783000   0.050151667   -0.73759145     0.037506667   -0.62490581     0.0015343672 
    784000   0.052007436   -0.73988107     0.037866188   -0.62405406     0.01094831   
    785000   0.051503461   -0.73989477     0.039088804   -0.62360062     0.0068917125 
    786000   0.051801141   -0.74023767     0.0391929     -0.62339319    -0.0067716533 
    787000   0.053751495   -0.73942421     0.038035353   -0.62081363     0.0075122869 
    788000   0.053757808   -0.73834589     0.037788319   -0.61997289     0.0030541292 
    789000   0.050559978   -0.73908275     0.036358795   -0.62693291     0.021181131  
    790000   0.050411529   -0.7392278      0.036612144   -0.62704715     0.02393231   
    791000   0.05042449    -0.74055338     0.037801006   -0.62716443     0.016954784  
    792000   0.05144369    -0.74002291     0.03720146    -0.6257057      0.0027837694 
    793000   0.05122468    -0.73993739     0.039098209   -0.62405174     0.0010177652 
    794000   0.052815675   -0.74027078     0.037869317   -0.62322907     0.0070661409 
    795000   0.050859916   -0.7382434      0.038341512   -0.62366124    -0.0028159675 
    796000   0.052233738   -0.74025213     0.039137895   -0.62281418     0.0046223939 
    797000   0.051420066   -0.7387368      0.037241194   -0.62441526     0.0081604609 
    798000   0.050967919   -0.73827434     0.036513365   -0.62535842    -0.015464859  
    799000   0.051747751   -0.73915594     0.037357603   -0.62422679     0.0028529548 
    800000   0.051380116   -0.73949236     0.039260467   -0.62321145     0.001108523  
    801000   0.051896327   -0.73995996     0.040733456   -0.62143224    -0.0048010452 
    802000   0.050888539   -0.74037804     0.039442219   -0.62465226     0.0014527573 
    803000   0.050968685   -0.73888088     0.039396067   -0.62308111     0.0022010342 
    804000   0.050653374   -0.73918301     0.037865506   -0.62538646    -0.0041236719 
    805000   0.052761487   -0.73946557     0.037481389   -0.62289301    -0.0044484396 
    806000   0.052687276   -0.74039324     0.040180404   -0.62123291    -0.0030746937 
    807000   0.049676546   -0.74157162     0.039713424   -0.62739145     0.0049481417 
    808000   0.050739688   -0.73835552     0.036822147   -0.62547295     0.002073238  
    809000   0.049337158   -0.74250599     0.038000412   -0.63054758    -0.00045493197
    810000   0.051304258   -0.74106582     0.038781803   -0.62537728     0.0074932631 
    811000   0.051093238   -0.74242893     0.038819516   -0.627019      -0.01234059   
    812000   0.052713153   -0.7416689      0.038569534   -0.62408065     0.013766119  
    813000   0.051974361   -0.7421923      0.038571255   -0.6257098     -0.0091128476 
    814000   0.051356728   -0.74064652     0.037553333   -0.62610779     0.0089264728 
    815000   0.052603609   -0.74285227     0.037241707   -0.62675606     0.0066907902 
    816000   0.051604256   -0.74112987     0.039648311   -0.62412512    -0.0089927179 
    817000   0.052295412   -0.74200343     0.037507584   -0.62610334     0.0011625559 
    818000   0.052246093   -0.74235297     0.038205834   -0.62582856     0.020162427  
    819000   0.052845529   -0.74348869     0.038562727   -0.62570881     0.014386912  
    820000   0.053032947   -0.74235743     0.037810005   -0.62504932     0.018390447  
    821000   0.051281057   -0.74236019     0.038607662   -0.62688057    -0.0083382781 
    822000   0.052312325   -0.74151718     0.037954709   -0.62514461     0.0060660735 
    823000   0.051565453   -0.74048451     0.038185816   -0.62500041    -0.00076382166
    824000   0.050278423   -0.74074668     0.036690493   -0.62868721     0.010920971  
    825000   0.053092327   -0.74295533     0.037357582   -0.62601064    -0.0084277541 
    826000   0.051045681   -0.74313915     0.038114971   -0.62850506     0.0028303881 
    827000   0.050337909   -0.74321816     0.036351447   -0.63140856     0.010437755  
    828000   0.050881778   -0.7441704      0.036523018   -0.63137395     0.0097563664 
    829000   0.052856967   -0.74280977     0.038137112   -0.62543836     0.017974002  
    830000   0.053520448   -0.74301579     0.035876513   -0.6269104     -0.0044948286 
    831000   0.051353306   -0.74111069     0.039285351   -0.62484508    -0.0017788595 
    832000   0.05146755    -0.74178535     0.039179544   -0.62545429     0.011742468  
    833000   0.053252305   -0.74291385     0.038306404   -0.62478052     0.010334876  
    834000   0.052256316   -0.74163112     0.036736139   -0.62656108     0.0073655209 
    835000   0.051472555   -0.74398421     0.036356798   -0.63046839    -0.0066442828 
    836000   0.052121908   -0.74251498     0.037644271   -0.62673829     0.0018697277 
    837000   0.050981902   -0.74427477     0.038833465   -0.62901779    -0.019568296  
    838000   0.051663074   -0.74244208     0.036789517   -0.62820795     0.013371594  
    839000   0.051985709   -0.74690472     0.038068137   -0.63090833     0.023993316  
    840000   0.051518926   -0.7462955      0.039586089   -0.62948088    -0.002829436  
    841000   0.051465492   -0.74367644     0.037721889   -0.62880612     0.002841011  
    842000   0.053102244   -0.7443492      0.038206988   -0.62654023     0.0095203704 
    843000   0.05161224    -0.74375497     0.038668218   -0.62771834     0.0067637156 
    844000   0.051665582   -0.74436879     0.038483134   -0.62843728     0.0056065748 
    845000   0.052226297   -0.74391479     0.03747971    -0.62814617     0.034196088  
    846000   0.053329587   -0.74516516     0.039180456   -0.62604193    -0.008322361  
    847000   0.05197367    -0.74501882     0.03651853    -0.63059009    -0.017629993  
    848000   0.053619754   -0.7478995      0.040506973   -0.62701479     0.01561338   
    849000   0.050815623   -0.74671428     0.036361824   -0.63417819     0.033810966  
    850000   0.05032356    -0.74666598     0.041677045   -0.6295523     -0.0015855023 
    851000   0.053144426   -0.74684423     0.037930647   -0.62924837     0.006946766  
    852000   0.05216013    -0.74708191     0.036442372   -0.63244982     0.01070757   
    853000   0.05232059    -0.7492696      0.038231071   -0.63260828     0.0027104946 
    854000   0.051308934   -0.74952585     0.037964232   -0.63464787     0.002763568  
    855000   0.051780029   -0.75028055     0.037507771   -0.63515285     0.0030129407 
    856000   0.051507686   -0.74929587     0.036600145   -0.63548404     0.01994875   
    857000   0.052751409   -0.74959451     0.038061851   -0.63245659     0.0089008547 
    858000   0.051790544   -0.74842694     0.039743415   -0.63104783     0.011238372  
    859000   0.051062175   -0.74981229     0.038773758   -0.63449468     0.020792229  
    860000   0.049961073   -0.74917928     0.038522136   -0.63576389    -0.00014846423
    861000   0.050519981   -0.75069114     0.039390295   -0.63556977    -0.0087061115 
    862000   0.053823642   -0.75059802     0.038309095   -0.63160555     0.00095825331
    863000   0.0532685     -0.75181616     0.041090145   -0.63087482    -0.004350266  
    864000   0.052215728   -0.75240105     0.037915729   -0.63621226    -0.0059068396 
    865000   0.049573144   -0.75153849     0.038068913   -0.63915783     0.011832116  
    866000   0.051560522   -0.75097345     0.03738317    -0.63629939    -0.0033114277 
    867000   0.052699268   -0.75229509     0.036562629   -0.63673455     0.013814081  
    868000   0.053683685   -0.75255525     0.037759261   -0.63432241     0.040160928  
    869000   0.05208696    -0.75059651     0.03925693    -0.63325954     0.011157359  
    870000   0.052310615   -0.74954231     0.03776241    -0.6333646      0.019515207  
    871000   0.051081739   -0.74842935     0.037065626   -0.63479055    -0.0059668257 
    872000   0.050958881   -0.74928584     0.037491878   -0.63540496     0.018237225  
    873000   0.052352869   -0.74928162     0.040218606   -0.63058437     0.009492079  
    874000   0.052669747   -0.74900695     0.03833753    -0.63171577     0.029742552  
    875000   0.052403176   -0.75009927     0.038673417   -0.63287181     0.0045254814 
    876000   0.052769244   -0.7499022      0.03903375    -0.63176565     0.025346451  
    877000   0.052104968   -0.74876333     0.038707554   -0.63194875     0.012027537  
    878000   0.050919619   -0.75017686     0.041072902   -0.63277381     0.018241369  
    879000   0.053300505   -0.74915996     0.03892732    -0.63033346     0.0026622399 
    880000   0.051284611   -0.74965823     0.038353647   -0.6344273     -0.0020307164 
    881000   0.050414442   -0.74954661     0.038670973   -0.63530276     0.017002471  
    882000   0.050367234   -0.74985319     0.038913272   -0.63543781     0.012031586  
    883000   0.050855657   -0.74996173     0.038723548   -0.63500391     0.029669694  
    884000   0.049694317   -0.74938977     0.038450449   -0.63644594     0.012646097  
    885000   0.051868246   -0.7495474      0.038691764   -0.63310347     0.014520088  
    886000   0.051839593   -0.74938037     0.03910861    -0.63256254     0.004423816  
    887000   0.053102509   -0.75271695     0.038467755   -0.63464682     0.024498345  
    888000   0.053222839   -0.75061137     0.039824411   -0.63100421     0.0067369059 
    889000   0.052905378   -0.75164459     0.036235742   -0.63610198     0.0081468204 
    890000   0.053106719   -0.75001158     0.038316978   -0.63208592    -0.0050812156 
    891000   0.051989727   -0.75231461     0.03748571    -0.63689462     0.0084995051 
    892000   0.050821591   -0.75252307     0.038638108   -0.63770176     0.0063774362 
    893000   0.050550614   -0.75155738     0.036700542   -0.63907984     0.019575423  
    894000   0.049494114   -0.75276464     0.037051549   -0.64151982     0.027926411  
    895000   0.052662705   -0.75355955     0.037507727   -0.63710873    -0.0036572202 
    896000   0.052860956   -0.75297131     0.038808886   -0.63492214    -0.0059964577 
    897000   0.053924943   -0.75419869     0.037263364   -0.6361001      0.0030991889 
    898000   0.0522018     -0.75215044     0.037469979   -0.63642828     0.0026406775 
    899000   0.052640517   -0.75361522     0.037333908   -0.63737148     0.0029958443 
    900000   0.049582372   -0.75376714     0.038271679   -0.64116989     0.002893102  
    901000   0.050371344   -0.75188897     0.037216542   -0.63916416     0.0055100311 
    902000   0.05145609    -0.75479061     0.035145762   -0.64251051     0.012003351  
    903000   0.052535534   -0.7542738      0.037885334   -0.637636      -0.0047665018 
    904000   0.05125278    -0.75356945     0.037922323   -0.63881755     0.0086705922 
    905000   0.050334422   -0.75436936     0.036276816   -0.64263962     0.0060587652 
    906000   0.050805826   -0.75512899     0.037810232   -0.64115918    -0.0066082893 
    907000   0.050931064   -0.75533661     0.036676089   -0.64231321    -0.0095986388 
    908000   0.051671918   -0.75393133     0.035793273   -0.64068018     0.019782821  
    909000   0.051098027   -0.75420226     0.036965575   -0.64063909     0.0016156612 
    910000   0.051017677   -0.75702808     0.038541565   -0.64200937     0.015376476  
    911000   0.052498618   -0.75481506     0.039005301   -0.63711264     0.014481995  
    912000   0.05317514    -0.75605053     0.038791674   -0.6375476     -0.009807354  
    913000   0.052056048   -0.75627478     0.03822917    -0.64001191    -0.0033014059 
    914000   0.053857691   -0.75591519     0.037332698   -0.63784807    -0.0016098811 
    915000   0.051535746   -0.75563982     0.039171481   -0.6392146      0.015489748  
    916000   0.052334956   -0.75699333     0.037556938   -0.6409846      0.019281924  
    917000   0.051348174   -0.76013382     0.03885943    -0.64430183     0.0056291257 
    918000   0.052756599   -0.75986403     0.037778236   -0.64300195     0.0071224561 
    919000   0.051033315   -0.76001111     0.039942488   -0.64356803    -0.0085066691 
    920000   0.051874655   -0.76220625     0.040699617   -0.64374486     0.010097088  
    921000   0.051932587   -0.76184165     0.038589111   -0.64540392    -0.01134816   
    922000   0.051348199   -0.76196605     0.038345602   -0.64664784     0.017557198  
    923000   0.050869632   -0.76158112     0.037883745   -0.64744216     0.032669154  
    924000   0.051519742   -0.7613155      0.038657158   -0.64542859     0.0024068357 
    925000   0.053106657   -0.76366989     0.037511708   -0.64654959     0.0095823199 
    926000   0.05368126    -0.76364552     0.037795981   -0.64537959    -0.0055217955 
    927000   0.051462964   -0.7622175      0.036381788   -0.64869106    -0.00050116892
    928000   0.05071071    -0.76331321     0.040954597   -0.64634162     0.012758919  
    929000   0.051947864   -0.76323056     0.039640832   -0.6457182      0.0052902145 
    930000   0.052338965   -0.76202244     0.037750542   -0.6458141      0.021993387  
    931000   0.052225132   -0.7633458      0.0378068     -0.64725184     0.014678445  
    932000   0.053298895   -0.7648795      0.037128841   -0.6478539      0.006816019  
    933000   0.050711364   -0.76315678     0.037132269   -0.65000654    -0.0016680671 
    934000   0.049374706   -0.76597465     0.037367027   -0.65459335     0.0063588187 
    935000   0.052214205   -0.76459341     0.037061855   -0.64926078     0.010423231  
    936000   0.054215353   -0.76488114     0.037856784   -0.64575379     0.027783014  
    937000   0.051603385   -0.76426147     0.037722007   -0.64918432     0.022258455  
    938000   0.052050909   -0.76446392     0.038426652   -0.64801128    -0.02188208   
    939000   0.051768331   -0.76405235     0.037834186   -0.64861576     0.017949881  
    940000   0.051052103   -0.76468633     0.038579454   -0.64957813     0.019662571  
    941000   0.051950356   -0.76506225     0.037544711   -0.64964228     0.002120856  
    942000   0.050930195   -0.76389714     0.038561874   -0.64898926    -0.0042043627 
    943000   0.051960449   -0.76357143     0.040241135   -0.64543991    -0.0038483165 
    944000   0.051853913   -0.76442872     0.038719182   -0.64797886    -0.0038503208 
    945000   0.051587409   -0.76420441     0.039527197   -0.64734602     0.011063528  
    946000   0.05152613    -0.76503261     0.038695506   -0.64909777    -0.010950673  
    947000   0.05234441    -0.76544091     0.037201022   -0.64977393     0.0052946139 
    948000   0.052693934   -0.76597659     0.036718898   -0.65026779     0.018483354  
    949000   0.051717417   -0.76657632     0.038266386   -0.65078385    -0.0014204618 
    950000   0.050729776   -0.76689966     0.03771506    -0.65313903     0.0076310465 
    951000   0.050795574   -0.7662493      0.039532027   -0.65057307     0.010736471  
    952000   0.050747287   -0.76611823     0.03725218    -0.65279423     0.0089946237 
    953000   0.05036866    -0.76602085     0.035889115   -0.65462749     0.026521856  
    954000   0.052290788   -0.76748973     0.037784157   -0.65132       -0.0011198377 
    955000   0.053219149   -0.76560631     0.037464648   -0.64836444     0.0067683163 
    956000   0.05117427    -0.76780109     0.038395337   -0.65269387     0.010881625  
    957000   0.049554943   -0.76725329     0.037457195   -0.65551164     0.015966706  
    958000   0.050866616   -0.76815209     0.038924315   -0.65297708     0.016220606  
    959000   0.051057282   -0.76691502     0.038699492   -0.65167901     0.032265325  
    960000   0.051898261   -0.76817444     0.035770201   -0.65460707     0.01720459   
    961000   0.051666447   -0.76793029     0.037497111   -0.65298351     0.0088033275 
    962000   0.050774161   -0.76716024     0.039067833   -0.6519803      0.0014440002 
    963000   0.052169998   -0.76851476     0.03817117    -0.65213908    -0.0035807563 
    964000   0.052470613   -0.76743054     0.037613645   -0.65116175     0.027231304  
    965000   0.051301513   -0.77020208     0.038393336   -0.65490612     0.029957928  
    966000   0.052799056   -0.76791269     0.037911892   -0.65085331     0.00040584904
    967000   0.051009204   -0.7668134      0.039980047   -0.65036891    -0.0055326839 
    968000   0.052704462   -0.76757672     0.037802771   -0.65076826     0.0053169411 
    969000   0.052185712   -0.76716976     0.036015073   -0.65292662    -0.0073962488 
    970000   0.051532152   -0.76707974     0.039783729   -0.65004765     0.027203144  
    971000   0.052131563   -0.76586691     0.037452858   -0.65026716     0.019803931  
    972000   0.051488071   -0.76709563     0.038323065   -0.65159029     0.023221206  
    973000   0.052202217   -0.76805748     0.038245626   -0.65155904     0.015734467  
    974000   0.051952838   -0.76744738     0.036219988   -0.65334841     0.034378425  
    975000   0.050401428   -0.76537795     0.037441864   -0.65238272    -0.010833859  
    976000   0.051356396   -0.76757909     0.038184472   -0.65240973     0.024814089  
    977000   0.049978371   -0.76964053     0.037653855   -0.65706748    -0.0082295879 
    978000   0.049832827   -0.76853332     0.03772573    -0.65610657     0.016465945  
    979000   0.049456554   -0.76908783     0.036033256   -0.6589176      0.027302526  
    980000   0.051374241   -0.76761643     0.036529184   -0.6540756      0.04533472   
    981000   0.051063705   -0.76847937     0.036294019   -0.65563921    -0.0037732515 
    982000   0.0519624     -0.76798335     0.038599872   -0.65149016     0.014850872  
    983000   0.051821631   -0.76799955     0.036852743   -0.65346451     0.0088212851 
    984000   0.05239367    -0.7680782      0.036340133   -0.65319827     0.011288275  
    985000   0.050300192   -0.76788834     0.03752404    -0.65496269     0.014393023  
    986000   0.051299158   -0.76860369     0.036738993   -0.6549656      0.022809922  
    987000   0.053286016   -0.76810326     0.03834627    -0.64987954     0.014625847  
    988000   0.0518884     -0.76910387     0.039005746   -0.65231574     0.000473395  
    989000   0.050508036   -0.76932068     0.037272072   -0.65633543     0.039000861  
    990000   0.050803596   -0.77007054     0.036524472   -0.65738984     0.0055494061 
    991000   0.051140649   -0.77085101     0.037449231   -0.65674029     0.025040754  
    992000   0.050845029   -0.77045214     0.036730562   -0.65750325     0.0067782853 
    993000   0.051300185   -0.77102021     0.038367677   -0.6557519      0.0047290585 
    994000   0.051833043   -0.76969096     0.037641483   -0.65435007     0.012137659  
    995000   0.054332414   -0.76918502     0.037938022   -0.64980096    -0.0019701239 
    996000   0.051447232   -0.76939324     0.036754037   -0.65551815     0.027589567  
    997000   0.051433462   -0.77008379     0.038053836   -0.65492954     0.0017726869 
    998000   0.052985292   -0.76979129     0.03702041    -0.65334421    -0.0013574341 
    999000   0.05076972    -0.76906079     0.037716902   -0.65523844     0.001845111  
   1000000   0.051339319   -0.76946813     0.038991335   -0.6535175     -0.0031696646 
   1001000   0.050389635   -0.76988126     0.039493571   -0.654852      -0.0063181843 
   1002000   0.050048672   -0.7692543      0.038036615   -0.65619311     0.0043087655 
   1003000   0.052716541   -0.76935923     0.036658868   -0.65367657     0.018407045  
   1004000   0.053569339   -0.76992434     0.03880391    -0.65081826     0.0023214688 
   1005000   0.050966806   -0.77052675     0.038756161   -0.65536971    -0.0057411198 
   1006000   0.051451148   -0.77037392     0.037559151   -0.65568783     0.013234663  
   1007000   0.051336181   -0.77059215     0.037419771   -0.65621779    -0.0046922093 
   1008000   0.051705925   -0.77047265     0.035942223   -0.65702158     0.017774434  
   1009000   0.050731193   -0.77017896     0.03694569    -0.65718557    -0.0012605845 
   1010000   0.050308089   -0.77104857     0.037370774   -0.65826435     0.018578163  
   1011000   0.050698473   -0.77136885     0.034401196   -0.66096901     0.0074932606 
   1012000   0.053265254   -0.77173206     0.03644171    -0.65544401    -0.0021196011 
   1013000   0.053170772   -0.77147258     0.037825871   -0.65394201     0.014090087  
   1014000   0.052197776   -0.77198644     0.036284201   -0.65745609     0.018051066  
   1015000   0.051275194   -0.77286017     0.037056523   -0.65894048     0.016605232  
   1016000   0.051036805   -0.77258632     0.038166793   -0.65791371     0.011303751  
   1017000   0.049658464   -0.77291944     0.034985784   -0.66349401     0.012135269  
   1018000   0.049661912   -0.77216677     0.036452778   -0.66126919     0.015702091  
   1019000   0.051581169   -0.77183288     0.037222255   -0.65728879     0.0137096    
   1020000   0.050677771   -0.77258379     0.036499894   -0.66011628     0.016144236  
   1021000   0.051334426   -0.77256059     0.037129007   -0.65847962     0.012611163  
   1022000   0.053570029   -0.77328551     0.037044735   -0.65593757     0.015808648  
   1023000   0.050031877   -0.77414997     0.038375648   -0.66077492     0.0018429183 
   1024000   0.052680903   -0.77153194     0.03542409    -0.65713747     0.011011189  
   1025000   0.051548973   -0.77281568     0.038092877   -0.65744923    -0.0037844656 
   1026000   0.052053786   -0.77231869     0.038843721   -0.65544467    -0.0049147452 
   1027000   0.051961036   -0.77440512     0.038742859   -0.657771       0.01126617   
   1028000   0.05095396    -0.77422697     0.037796635   -0.66004871     0.040661867  
   1029000   0.051236613   -0.7741723      0.036248515   -0.66111845     0.013536549  
   1030000   0.051365732   -0.77391624     0.037043794   -0.65987356     0.010762442  
   1031000   0.050413053   -0.77551031     0.036090134   -0.66384939     0.0065802697 
   1032000   0.05089075    -0.7747756      0.036982933   -0.66150579    -0.0058911061 
   1033000   0.052217092   -0.77613323     0.038414383   -0.65944374    -0.0049720029 
   1034000   0.05306286    -0.77385464     0.035817632   -0.65849407     0.013853946  
   1035000   0.054238422   -0.77583668     0.03526321    -0.65926833    -0.017219321  
   1036000   0.050379202   -0.77605903     0.03944141    -0.66109757     5.7875941e-05
   1037000   0.051912355   -0.77666804     0.036284179   -0.66256557    -0.0084615348 
   1038000   0.0518678     -0.77702188     0.037713672   -0.6615567      0.016281641  
   1039000   0.051414816   -0.77783009     0.037144185   -0.66361343     0.017076191  
   1040000   0.050246446   -0.77809809     0.038427393   -0.66434965     0.00064957133
   1041000   0.050714946   -0.7782523      0.037204913   -0.66502404     0.0048684857 
   1042000   0.050416047   -0.77665207     0.037267679   -0.66380911     0.017734783  
   1043000   0.05121446    -0.77779492     0.03759677    -0.66342602     0.010218201  
   1044000   0.052371015   -0.77834283     0.038165846   -0.66167115     0.0046327737 
   1045000   0.050655649   -0.77790013     0.03551545    -0.66645023     0.012907072  
   1046000   0.05090879    -0.77713528     0.037257677   -0.66356369    -0.0044720836 
   1047000   0.052177204   -0.77793775     0.036380402   -0.66334203     0.011560786  
   1048000   0.052125244   -0.77669972     0.037971706   -0.6605906      0.010215367  
   1049000   0.052592229   -0.77633044     0.036604283   -0.66088871     0.022286478  
   1050000   0.052772822   -0.77748924     0.037533643   -0.66084744    -0.0094625688 
   1051000   0.051892866   -0.77756784     0.037710001   -0.66206876     0.026957556  
   1052000   0.051737654   -0.77733223     0.038457919   -0.66131789     0.027553459  
   1053000   0.050781698   -0.77700591     0.036977495   -0.66390501     0.0027624902 
   1054000   0.051676588   -0.77786138     0.038483753   -0.66191276     0.0032516297 
   1055000   0.054067528   -0.7768154      0.03909184    -0.65667459    -0.0016432702 
   1056000   0.053390071   -0.77661625     0.038092656   -0.65849016    -0.0048223183 
   1057000   0.053465114   -0.78028552     0.038706929   -0.66143266     0.0018896966 
   1058000   0.054559152   -0.77751318     0.038154259   -0.65757299     0.0065095765 
   1059000   0.052833618   -0.78102168     0.038537105   -0.66328528     0.003055918  
   1060000   0.053427509   -0.7795538      0.039477198   -0.65998704     0.0019413043 
   1061000   0.054877492   -0.78157371     0.03575177    -0.66355881     0.029668841  
   1062000   0.052736104   -0.78091666     0.03914515    -0.66271839    -0.0013900131 
   1063000   0.052900115   -0.78072125     0.038503807   -0.66291846     0.015855698  
   1064000   0.051700322   -0.78147883     0.03868723    -0.66529115     0.011106999  
   1065000   0.05407272    -0.78004312     0.041391184   -0.65759519     0.024540778  
   1066000   0.052023785   -0.78085692     0.039348457   -0.66352313     0.0071938003 
   1067000   0.051088461   -0.77898382     0.038714212   -0.66368636     0.036122389  
   1068000   0.052095303   -0.7783639      0.039240806   -0.66103055     0.026132244  
   1069000   0.051412238   -0.78111883     0.036650503   -0.66739972     0.0041430736 
   1070000   0.053224757   -0.78091038     0.036243965   -0.66488078     0.01301912   
   1071000   0.052048176   -0.78188858     0.03835397    -0.66551272    -0.0061717509 
   1072000   0.05260204    -0.78009868     0.035738915   -0.66550761    -0.0086208693 
   1073000   0.050118937   -0.78137992     0.038222798   -0.66802721     0.012086565  
   1074000   0.048471977   -0.77867914     0.037166751   -0.66885134     0.025617171  
   1075000   0.051279842   -0.77663487     0.03785009    -0.66191464    -0.010150635  
   1076000   0.051884826   -0.77708299     0.039924433   -0.65938152     0.019893825  
   1077000   0.054036975   -0.77305224     0.038341529   -0.65370754     0.010692408  
   1078000   0.052187345   -0.77186497     0.039211386   -0.65442307     0.0076068285 
   1079000   0.053643346   -0.77360007     0.03871934    -0.65446762     0.019500732  
   1080000   0.052223513   -0.77342826     0.039294621   -0.65584891    -0.0031557147 
   1081000   0.052604309   -0.77334867     0.039003594   -0.65548952     0.0083900418 
   1082000   0.054611567   -0.77658684     0.039646476   -0.65507586     0.0036995513 
   1083000   0.052610116   -0.77463125     0.040592146   -0.65517485     0.012943918  
   1084000   0.053165567   -0.77423554     0.037010062   -0.65752858     0.010203045  
   1085000   0.053106546   -0.77544033     0.040350091   -0.65548182     0.004457688  
   1086000   0.053035563   -0.77531593     0.039431685   -0.65638222     0.0078943348 
   1087000   0.052997775   -0.77468703     0.040734029   -0.65450763     0.0019800098 
   1088000   0.052764006   -0.77355715     0.038502365   -0.65595984     0.00055166773
   1089000   0.049747905   -0.77563266     0.040224641   -0.6608343      0.0084934094 
   1090000   0.051518572   -0.77777629     0.039419658   -0.66112863     0.0077681096 
   1091000   0.052013376   -0.77771077     0.038181487   -0.66155955    -0.020852856  
   1092000   0.052030676   -0.77835694     0.040877199   -0.65948408    -0.017845706  
   1093000   0.051935761   -0.77744235     0.040795872   -0.6587931      0.011323856  
   1094000   0.051678676   -0.77770224     0.037921314   -0.66231292     0.022034189  
   1095000   0.049461596   -0.77547866     0.040968811   -0.66036532     0.0042247092 
   1096000   0.051292787   -0.77867323     0.038401437   -0.66338225     0.0062134369 
   1097000   0.05187296    -0.77638227     0.039608241   -0.65901479    -0.0083870673 
   1098000   0.050178502   -0.77642651     0.039495236   -0.66171208     0.0090085112 
   1099000   0.050858543   -0.77690249     0.038134377   -0.66252951     0.0013044615 
   1100000   0.051297833   -0.77850205     0.037953982   -0.66365096    -0.010015502  
   1101000   0.051404377   -0.77785778     0.037352911   -0.66344805     0.010219789  
   1102000   0.050329222   -0.77614561     0.038079778   -0.6626207      0.029455206  
   1103000   0.051312841   -0.77759023     0.038880697   -0.66178993     0.029265856  
   1104000   0.050679904   -0.77753141     0.037591696   -0.6639689      0.016580533  
   1105000   0.0501073     -0.77915303     0.040540947   -0.66349962     0.011710848  
   1106000   0.05125967    -0.77839326     0.039434081   -0.66211928     0.019091399  
   1107000   0.050860485   -0.77784047     0.038977095   -0.66262187     0.028797485  
   1108000   0.052690336   -0.77774517     0.03983729    -0.65892337    -0.0036999101 
   1109000   0.053825513   -0.77712544     0.040084926   -0.65635433    -0.0039004886 
   1110000   0.052673288   -0.77982068     0.040063088   -0.66079863     0.010280396  
   1111000   0.051568234   -0.77855792     0.040596972   -0.6606585     -0.0057756331 
   1112000   0.053632566   -0.77923838     0.03976905    -0.65907238    -0.0062665238 
   1113000   0.051805194   -0.77935739     0.040844164   -0.66085557     0.015409795  
   1114000   0.052018621   -0.77995066     0.040284066   -0.66168901     0.0033929004 
   1115000   0.053203445   -0.778511       0.039073336   -0.65968398     0.031387296  
   1116000   0.051508648   -0.7769574      0.040428372   -0.6593159      0.001367751  
   1117000   0.052926272   -0.77661803     0.038643864   -0.65863597     0.0019721022 
   1118000   0.050858324   -0.77679223     0.037713127   -0.66284083     0.035872713  
   1119000   0.052050891   -0.77859668     0.037816347   -0.66275437     0.0033246472 
   1120000   0.052222786   -0.77767331     0.038540476   -0.66084919     0.010764966  
   1121000   0.05464315    -0.7770949      0.038726124   -0.65645693     0.020851095  
   1122000   0.053794642   -0.77715736     0.040257891   -0.65625956     0.030178972  
   1123000   0.051746148   -0.77765069     0.039994333   -0.66008721     0.016911737  
   1124000   0.05186142    -0.77864452     0.039294046   -0.66160853     0.004814007  
   1125000   0.052394032   -0.77894859     0.03878068    -0.66162756     0.0080558498 
   1126000   0.052571599   -0.78098114     0.040598584   -0.66157604    -0.0094914872 
   1127000   0.050079072   -0.77858434     0.039574861   -0.66393934     0.008824633  
   1128000   0.050775169   -0.77986893     0.039038651   -0.66471666     0.023383439  
   1129000   0.05127482    -0.77969642     0.040711562   -0.66212225    -0.012189591  
   1130000   0.05398334    -0.78006331     0.037130038   -0.6620105      0.032540689  
   1131000   0.052414815   -0.77982436     0.039853937   -0.66139893     0.019590008  
   1132000   0.05404947    -0.78192668     0.040138356   -0.66076643     0.053186738  
   1133000   0.051320314   -0.78178923     0.038827877   -0.66603054     0.025945569  
   1134000   0.050221611   -0.78124744     0.0380112     -0.66795243     0.023492864  
   1135000   0.052740148   -0.77990477     0.039029113   -0.66181647    -0.0095714568 
   1136000   0.052695029   -0.77953875     0.040459695   -0.66008751     0.034189268  
   1137000   0.053068715   -0.77871675     0.038719687   -0.66044534     0.017890997  
   1138000   0.049420245   -0.78028748     0.040208675   -0.66599626     0.030241391  
   1139000   0.049988376   -0.77984631     0.038026165   -0.66688596     0.011362741  
   1140000   0.049753654   -0.77927185     0.036890828   -0.66779869     0.034699221  
   1141000   0.050274703   -0.77940091     0.035907166   -0.66813034     0.023858457  
   1142000   0.051976995   -0.77959808     0.040329246   -0.66135364     0.049247349  
   1143000   0.051603792   -0.77899689     0.037665455   -0.66397568    -0.0060197741 
   1144000   0.052924604   -0.778524       0.037888139   -0.66130017     0.014770079  
   1145000   0.053869178   -0.78011798     0.037910077   -0.66145627     0.019351709  
   1146000   0.053003287   -0.77990394     0.03976014    -0.66069016     0.00064954543
   1147000   0.053638921   -0.78063123     0.039195205   -0.66102955     0.023695043  
   1148000   0.050376443   -0.77921891     0.038835455   -0.66486754     0.016132379  
   1149000   0.051410709   -0.7789339      0.036620916   -0.66524668    -0.0009883653 
   1150000   0.050632551   -0.77952079     0.038526467   -0.6650945      0.011934403  
   1151000   0.05267296    -0.78027585     0.039519555   -0.66179782     0.005450745  
   1152000   0.051868792   -0.78129891     0.040006798   -0.66353912     0.015815927  
   1153000   0.050777706   -0.78001588     0.039233338   -0.66466512     0.011330687  
   1154000   0.05084743    -0.78095113     0.040243332   -0.66448586     0.029817219  
   1155000   0.050117947   -0.78030687     0.03872071    -0.66645774     0.0069707369 
   1156000   0.051904074   -0.78009752     0.038873228   -0.66341841     8.036743e-05 
   1157000   0.050703284   -0.78010936     0.038265024   -0.66583848     0.027062576  
   1158000   0.050472781   -0.78025362     0.038817408   -0.66577588    -0.018349313  
   1159000   0.049462314   -0.78052909     0.038427694   -0.66795579     0.016049471  
   1160000   0.050877612   -0.77914775     0.037937926   -0.66494265    -0.0017831607 
   1161000   0.053901029   -0.77896447     0.039062923   -0.65910217     0.020205746  
   1162000   0.051520355   -0.77919612     0.038596729   -0.66336872     0.013220253  
   1163000   0.049874519   -0.77849978     0.037494573   -0.6662417      0.012139611  
   1164000   0.051827337   -0.77944249     0.038656765   -0.66309488     0.027962917  
   1165000   0.051374289   -0.78055195     0.040576181   -0.66296405     0.017571115  
   1166000   0.051461966   -0.7792004      0.040097354   -0.6619599      0.011518642  
   1167000   0.052440151   -0.77997997     0.038277812   -0.66309268     0.010161065  
   1168000   0.050184203   -0.77920478     0.038678108   -0.66529893     0.0034029243 
   1169000   0.049499156   -0.7797022      0.037516492   -0.66798488     0.018697718  
   1170000   0.05067204    -0.7802245      0.037906216   -0.66635926     0.0048974552 
   1171000   0.049723692   -0.77981743     0.037672552   -0.66760746    -0.003952476  
   1172000   0.049448205   -0.78145794     0.042726845   -0.66460664     0.0064833754 
   1173000   0.050361019   -0.78185731     0.039487292   -0.66687722     0.014182914  
   1174000   0.05136284    -0.78104025     0.039710295   -0.6643354      0.018552232  
   1175000   0.051078942   -0.78000867     0.039735668   -0.66370402     0.015749839  
   1176000   0.052088815   -0.77974093     0.040381358   -0.66127676     0.016522736  
   1177000   0.053113224   -0.77993651     0.038637343   -0.66168073     0.018528436  
   1178000   0.052307277   -0.78114232     0.03850275    -0.66422927    -0.00070784037
   1179000   0.050996625   -0.78428998     0.037376965   -0.67046743     0.0072404069 
   1180000   0.054332858   -0.7843615      0.038392743   -0.66452205    -0.00047890725
   1181000   0.052160722   -0.78361679     0.039220047   -0.66620614     0.0032336034 
   1182000   0.050320961   -0.78509401     0.041035675   -0.66862559    -0.012460991  
   1183000   0.05026874    -0.78350333     0.037895174   -0.67025369     0.010997509  
   1184000   0.051589609   -0.78170897     0.037572064   -0.66680242     0.0080715657 
   1185000   0.053678013   -0.78318271     0.039382489   -0.66333514     0.0028866145 
   1186000   0.051740259   -0.78299878     0.03993821    -0.66550025     0.0049514943 
   1187000   0.052543913   -0.78459453     0.04051105    -0.66531846     0.014983547  
   1188000   0.051928468   -0.78498998     0.039156888   -0.66799065     0.02733473   
   1189000   0.052882309   -0.78143219     0.038462441   -0.66369746     0.022703369  
   1190000   0.051972642   -0.7834839      0.039053662   -0.66652157     0.018370675  
   1191000   0.051858472   -0.78218541     0.037145314   -0.66730257     0.028535655  
   1192000   0.050938093   -0.78138927     0.038170248   -0.66686118     0.022960626  
   1193000   0.051497475   -0.77986447     0.039506347   -0.66316175     0.029925053  
   1194000   0.051077666   -0.78293714     0.039670768   -0.6666993      0.021944903  
   1195000   0.05049033    -0.78174271     0.03911795    -0.66693813     0.027016895  
   1196000   0.050918415   -0.78220023     0.039290549   -0.66658133     0.012447613  
   1197000   0.051971439   -0.78278114     0.037989862   -0.66688442     0.00090879599
   1198000   0.052277967   -0.78177001     0.037172737   -0.66623092     0.023054804  
   1199000   0.052363872   -0.78111624     0.039555901   -0.6630652      0.020630172  
   1200000   0.052290092   -0.78232461     0.038672004   -0.66526807     0.019721874  
   1201000   0.05177776    -0.78323331     0.039177891   -0.66643889     0.039422195  
   1202000   0.052412362   -0.782164       0.038592476   -0.6650037      0.0019051964 
   1203000   0.052914393   -0.78239988     0.039360885   -0.66371861     0.029468071  
   1204000   0.051449217   -0.78228645     0.038252248   -0.66691017     0.037538702  
   1205000   0.05218096    -0.78237778     0.038421881   -0.66573496     0.010464411  
   1206000   0.049680314   -0.78416459     0.039277506   -0.6704147      0.02111975   
   1207000   0.050961509   -0.78259669     0.038338715   -0.66786503    -0.001397054  
   1208000   0.050639462   -0.78314949     0.040175401   -0.66706391     0.00797045   
   1209000   0.051164134   -0.78131091     0.038993666   -0.66562056     0.009274057  
   1210000   0.05193716    -0.78189182     0.039564632   -0.66447171     0.014006742  
   1211000   0.04961161    -0.78352789     0.03863821    -0.67052028     0.01253378   
   1212000   0.052511342   -0.78169606     0.040630059   -0.66234981    -0.013038476  
   1213000   0.051519881   -0.78416637     0.039248311   -0.6676881      0.016252752  
   1214000   0.052886292   -0.78112031     0.037176029   -0.66466602     0.047280125  
   1215000   0.049194092   -0.78214758     0.038916385   -0.66948767     0.017855645  
   1216000   0.051847573   -0.78300197     0.03972924    -0.66555155     0.018647823  
   1217000   0.052019627   -0.78144217     0.036949318   -0.66651375     0.0039200978 
   1218000   0.050919294   -0.78357874     0.038794155   -0.66845492     0.014261112  
   1219000   0.050881356   -0.78373597     0.039095353   -0.66836782     0.034560935  
   1220000   0.052343931   -0.78313488     0.040176965   -0.66449268     0.0060436645 
   1221000   0.051710638   -0.78200315     0.040404547   -0.66408269     0.038076608  
   1222000   0.052701733   -0.78350096     0.038640441   -0.66585892     0.0067129946 
   1223000   0.052365114   -0.78188497     0.038822646   -0.66456533     0.029508812  
   1224000   0.051506971   -0.78191918     0.0379164     -0.66679217     0.026149928  
   1225000   0.052780503   -0.78365182     0.039322038   -0.66521011     0.034892117  
   1226000   0.051803903   -0.78416375     0.039154964   -0.66735306     0.022175347  
   1227000   0.051159452   -0.78322015     0.03748332    -0.66904716     0.024824814  
   1228000   0.050959039   -0.7824225      0.0393362     -0.66669705    -0.0034737971 
   1229000   0.052162346   -0.78270965     0.039326697   -0.66518991     0.016679975  
   1230000   0.053661475   -0.78307948     0.038494568   -0.66414463     0.011048392  
   1231000   0.054324612   -0.78365134     0.039478467   -0.66273852     0.012364994  
   1232000   0.053596767   -0.78239769     0.038452149   -0.66360226     0.030372511  
   1233000   0.052874494   -0.78190616     0.038541458   -0.66410413     0.0097220825 
   1234000   0.051512919   -0.78559295     0.040110103   -0.66826331     0.022050261  
   1235000   0.051036965   -0.78319453     0.038576179   -0.66811229    -0.0048355187 
   1236000   0.050705247   -0.78326059     0.041274085   -0.66597771     0.011012569  
   1237000   0.052694143   -0.78438707     0.040904193   -0.66449266     0.0086189127 
   1238000   0.053331059   -0.7831058      0.038566361   -0.66459447     0.024672776  
   1239000   0.051386354   -0.78409627     0.041857354   -0.66520911     0.0032761739 
   1240000   0.053494509   -0.78280338     0.039116639   -0.66349674     0.005386906  
   1241000   0.052082551   -0.78342893     0.039665647   -0.66568986     0.00089173991
   1242000   0.050913367   -0.78428839     0.038360554   -0.66960705     0.013552983  
   1243000   0.050084384   -0.78228545     0.041291671   -0.66591567    -0.0060028179 
   1244000   0.051554369   -0.78308238     0.040145608   -0.66565511     0.0082687988 
   1245000   0.05284123    -0.7835549      0.036967809   -0.66737639     0.017314265  
   1246000   0.05497188    -0.78332045     0.039913201   -0.66100263     0.022915789  
   1247000   0.053829421   -0.7831363      0.038530439   -0.66391383     0.013874648  
   1248000   0.050560569   -0.78287156     0.039463186   -0.66761645     0.0092684992 
   1249000   0.052446515   -0.783832       0.039999751   -0.66521323    -0.0043223145 
   1250000   0.053624483   -0.7847538      0.041017798   -0.66335117     0.0084273141 
   1251000   0.05264745    -0.7836019      0.03846689    -0.66621478     0.01729816   
   1252000   0.052092947   -0.78422085     0.040254745   -0.66587709     0.036893526  
   1253000   0.052172776   -0.78482304     0.037804112   -0.66881025     0.027103121  
   1254000   0.051776499   -0.78390466     0.038570372   -0.66771965     0.0099024045 
   1255000   0.05380869    -0.78654587     0.041071089   -0.66481382     0.019608202  
   1256000   0.052955123   -0.78550878     0.039296317   -0.66683103     0.046875522  
   1257000   0.051275285   -0.78604862     0.037037239   -0.67214807     0.0088693569 
   1258000   0.052429994   -0.78521747     0.039528382   -0.66709484     0.056726827  
   1259000   0.053440153   -0.78434604     0.039263847   -0.66497368     0.054852772  
   1260000   0.051573675   -0.78581637     0.038816627   -0.66968914     0.049288197  
   1261000   0.051742376   -0.78508979     0.039538537   -0.66798776     0.025602577  
   1262000   0.052252117   -0.78517895     0.040799492   -0.66605185     0.011483478  
   1263000   0.052438602   -0.78531907     0.040649675   -0.66606224     0.014923022  
   1264000   0.052890064   -0.78353366     0.039805776   -0.66444397     0.04003834   
   1265000   0.051088385   -0.78580331     0.040255641   -0.66896453     0.0097370304 
   1266000   0.050429543   -0.78586029     0.039363613   -0.67090116     0.0034718596 
   1267000   0.05126601    -0.78469545     0.039635446   -0.6682106      0.018690021  
   1268000   0.051486355   -0.78596659     0.04124172    -0.66754517     0.016487828  
   1269000   0.052276211   -0.78429334     0.040954052   -0.66497557     0.024509389  
   1270000   0.050868991   -0.78334739     0.041359124   -0.66573401     0.026219978  
   1271000   0.053071745   -0.78577049     0.041397515   -0.66481672     0.002380905  
   1272000   0.053765789   -0.78485983     0.038016256   -0.66624692     0.023243789  
   1273000   0.051256728   -0.78536264     0.038924698   -0.66960246     0.044360723  
   1274000   0.051293177   -0.78580764     0.039578543   -0.66933897     0.018596599  
   1275000   0.053866135   -0.78585007     0.03866759    -0.66643541     0.024748387  
   1276000   0.053623465   -0.78458733     0.041021531   -0.6631825      0.02921106   
   1277000   0.051037929   -0.78539576     0.040650601   -0.66823766     0.035753155  
   1278000   0.052902045   -0.7879627      0.043441148   -0.66521969     0.0047680386 
   1279000   0.050196756   -0.78756519     0.040455183   -0.67186345    -0.010295006  
   1280000   0.05192976    -0.78614679     0.040999527   -0.66730288     0.026318902  
   1281000   0.051969096   -0.78740771     0.041564095   -0.66794027     0.024426802  
   1282000   0.050779494   -0.78421149     0.038513554   -0.66957784     0.020115799  
   1283000   0.051623454   -0.78508733     0.041094491   -0.66660762     0.012905285  
   1284000   0.053169081   -0.78718748     0.0403164     -0.66716891     0.013021292  
   1285000   0.051634753   -0.78520751     0.041380532   -0.66642482     0.024863531  
   1286000   0.05236752    -0.78526802     0.041059746   -0.66570767     0.012932237  
   1287000   0.052512898   -0.78770603     0.041573788   -0.66741372     0.005724503  
   1288000   0.052048793   -0.7869595      0.042413227   -0.66652346     0.026648605  
   1289000   0.051811914   -0.78591317     0.038760858   -0.66948458     0.0080587293 
   1290000   0.051750267   -0.78825101     0.041026592   -0.6696491      0.015152208  
   1291000   0.05050469    -0.78595863     0.040629652   -0.66962081     0.012137341  
   1292000   0.051427147   -0.78619773     0.039871521   -0.66923526     0.022884774  
   1293000   0.052303971   -0.78742365     0.039352202   -0.66966611     0.02285407   
   1294000   0.052240663   -0.78872701     0.041788662   -0.66862791     0.017884909  
   1295000   0.053357465   -0.78690481     0.040308116   -0.66661213    -0.011352894  
   1296000   0.051454864   -0.78739293     0.038392904   -0.67186753     0.034787399  
   1297000   0.052896151   -0.78982054     0.039029308   -0.67149819     0.028552237  
   1298000   0.053016942   -0.78818814     0.039045407   -0.66966863     0.029965253  
   1299000   0.049641133   -0.78852344     0.040850963   -0.67325882     0.019857559  
   1300000   0.051954897   -0.78856417     0.039455578   -0.67122652    -0.0058962776 
   1301000   0.052482632   -0.78999028     0.039123197   -0.67219392     0.038297267  
   1302000   0.052214092   -0.78849576     0.043428519   -0.66679663    -0.011572841  
   1303000   0.055022117   -0.78830858     0.039836682   -0.66599197     0.021941566  
   1304000   0.052652965   -0.79199422     0.042116448   -0.67094928     0.00073899501
   1305000   0.052037564   -0.7914237      0.041770664   -0.67164705     0.01598512   
   1306000   0.051170221   -0.79230712     0.042493133   -0.67310818     0.028582856  
   1307000   0.052933788   -0.79038057     0.040266348   -0.67076476     0.0059502268 
   1308000   0.052144314   -0.79172375     0.041743896   -0.67181385     0.014484127  
   1309000   0.050892983   -0.79245202     0.042170459   -0.67399134     0.028594434  
   1310000   0.051883967   -0.79271442     0.040551033   -0.67438765     0.020158593  
   1311000   0.051478264   -0.79339969     0.040166898   -0.67606521     0.0020644587 
   1312000   0.052034187   -0.79265084     0.042046926   -0.67260299    -0.014504557  
   1313000   0.050843027   -0.791592       0.040889879   -0.67448678     0.0053889436 
   1314000   0.052799415   -0.79203078     0.040173492   -0.67270926     0.016354443  
   1315000   0.053116234   -0.79218722     0.041251722   -0.67131255     0.0041527502 
   1316000   0.052550126   -0.79247067     0.043006503   -0.67068984     0.014300285  
   1317000   0.052782919   -0.79237211     0.039821805   -0.67342701    -0.013594867  
   1318000   0.052701304   -0.791184       0.039562474   -0.67262057    -0.01734815   
   1319000   0.052005867   -0.79324947     0.042700079   -0.67259092     0.0037990403 
   1320000   0.053968661   -0.7917575      0.041922226   -0.66893451     0.037823803  
   1321000   0.05320858    -0.79127409     0.040102343   -0.67141037     0.047261675  
   1322000   0.050748339   -0.7926089      0.042625951   -0.67390955     0.0093500145 
   1323000   0.050611019   -0.79319098     0.039772975   -0.67755045     0.031952567  
   1324000   0.050352873   -0.79106757     0.040680237   -0.67490675    -0.0025670233 
   1325000   0.051561088   -0.79219762     0.040909557   -0.67399633    -0.0012702747 
   1326000   0.051516402   -0.79128472     0.040185527   -0.67387445     0.015204589  
   1327000   0.052359297   -0.79276066     0.041210545   -0.67306184     0.0036199294 
   1328000   0.053874836   -0.79229607     0.041062262   -0.67047369    -0.0043414984 
   1329000   0.051054875   -0.79229155     0.039043477   -0.67671517     0.001104967  
   1330000   0.052066531   -0.79258571     0.039730177   -0.67480612     0.0018126085 
   1331000   0.052219177   -0.79129099     0.042405585   -0.67060717     0.0036165481 
   1332000   0.052165371   -0.79301564     0.04065025    -0.67416781    -0.0054138137 
   1333000   0.05486011    -0.79446817     0.040948282   -0.67128281     0.017905375  
   1334000   0.052998876   -0.79346567     0.042827116   -0.67119152     0.012895081  
   1335000   0.052168591   -0.7952842      0.043204711   -0.67387709     0.026231627  
   1336000   0.051517117   -0.79366042     0.041750483   -0.67468411     0.018912864  
   1337000   0.052316995   -0.79342213     0.042877562   -0.6721197      0.034043978  
   1338000   0.051793678   -0.79406459     0.038911726   -0.67751247     0.013457138  
   1339000   0.050277654   -0.79504547     0.041735409   -0.67794223     0.037465101  
   1340000   0.051509271   -0.79463644     0.041069708   -0.67635267     0.0077001416 
   1341000   0.0526742     -0.79589476     0.042745703   -0.67418873     0.0059872644 
   1342000   0.05203192    -0.79447863     0.040493562   -0.67598754     0.01274501   
   1343000   0.052992109   -0.79366466     0.040834101   -0.67339368     0.0021326189 
   1344000   0.052980886   -0.79509665     0.040389476   -0.67528712     0.0096368485 
   1345000   0.052795767   -0.79371601     0.042246631   -0.67232682    -0.0048993843 
   1346000   0.052127849   -0.79069186     0.041044565   -0.67150597     0.011799785  
   1347000   0.052469266   -0.79296879     0.038396936   -0.67591874    -0.0022506432 
   1348000   0.050691867   -0.79340746     0.040587234   -0.67683148    -0.021762299  
   1349000   0.055187038   -0.7919313      0.039814993   -0.66938916     0.0078488053 
   1350000   0.052904122   -0.79049756     0.04181391    -0.66937867     0.010605091  
   1351000   0.053038221   -0.79124187     0.041104773   -0.67063109     0.0045723441 
   1352000   0.053536414   -0.79190823     0.043031653   -0.66862376     0.011005133  
   1353000   0.0533935     -0.79222665     0.040822556   -0.67136552     0.00081136711
   1354000   0.052771067   -0.79089357     0.043005974   -0.66878206     0.0032132522 
   1355000   0.053248036   -0.79316137     0.040339486   -0.67300136     0.0082433139 
   1356000   0.053099041   -0.79144995     0.040706605   -0.67114617     0.0039182577 
   1357000   0.052667744   -0.79287549     0.042064291   -0.67186055     0.0035080265 
   1358000   0.051622949   -0.79235001     0.04384462    -0.67112093    -0.0031164635 
   1359000   0.05139352    -0.79314799     0.039481513   -0.67662593     0.00018214632
   1360000   0.05138663    -0.79097082     0.04075686    -0.67318374     0.0082318094 
   1361000   0.053122836   -0.79198029     0.042463493   -0.66988395     0.016033788  
   1362000   0.053998889   -0.79082269     0.040983496   -0.66889312     0.0031178096 
   1363000   0.05218329    -0.79198926     0.04212594    -0.67163888     0.0051052463 
   1364000   0.052769456   -0.79239837     0.04103957    -0.67225568     0.028775272  
   1365000   0.051776727   -0.79230256     0.041242049   -0.67344552     0.0146897    
   1366000   0.05297358    -0.79248796     0.042321377   -0.67075748     0.035946397  
   1367000   0.052471406   -0.79305219     0.041813784   -0.67258208     0.019680126  
   1368000   0.052170995   -0.78997142     0.041728368   -0.67003705     0.0077406043 
   1369000   0.052046419   -0.79227638     0.040217362   -0.67403975     0.0079260447 
   1370000   0.05219346    -0.79141807     0.040877686   -0.6723007      0.015658914  
   1371000   0.052318908   -0.79192225     0.04021357    -0.67328095     0.034969665  
   1372000   0.05272826    -0.79166672     0.039651926   -0.67297344     0.023445094  
   1373000   0.0545932     -0.79073569     0.041345051   -0.66755367    -0.00064906433
   1374000   0.05279765    -0.79410502     0.042918505   -0.67204114     0.013737111  
   1375000   0.053352886   -0.79193494     0.042913012   -0.66904423     0.008915038  
   1376000   0.053995225   -0.79291536     0.041067125   -0.67090766     0.025840434  
   1377000   0.052859317   -0.79299814     0.043796581   -0.66996374    -0.013081818  
   1378000   0.052365868   -0.79317144     0.04121413    -0.67345918     0.01679551   
   1379000   0.052534787   -0.79451501     0.041214527   -0.67454915     0.028591828  
   1380000   0.052336526   -0.79254567     0.04106128    -0.67303025     0.030595252  
   1381000   0.052865044   -0.79382689     0.040608925   -0.67397156     0.041104063  
   1382000   0.050113908   -0.79382803     0.041771047   -0.67693462     0.020436596  
   1383000   0.052035456   -0.79310892     0.04285399    -0.67225211    -0.014455869  
   1384000   0.053382221   -0.79417759     0.041589931   -0.67256598     0.0097430404 
   1385000   0.05236103    -0.79201496     0.041619155   -0.67190493     0.039453784  
   1386000   0.051710692   -0.79184359     0.039278776   -0.67504882     0.03175967   
   1387000   0.052194644   -0.79216893     0.039746621   -0.67418085    -0.00045521224
   1388000   0.051713685   -0.79290827     0.041970668   -0.67341712     0.0031980852 
   1389000   0.052799885   -0.79359726     0.03947416    -0.67497437     0.0077633365 
   1390000   0.050174844   -0.79411439     0.040076493   -0.67882418     0.031648981  
   1391000   0.050340832   -0.79318673     0.041529237   -0.67619497    -0.011855084  
   1392000   0.05170793    -0.7943474      0.04033677    -0.67649877     0.035652698  
   1393000   0.052804553   -0.79601245     0.042679364   -0.67417736     0.00013230648
   1394000   0.051595505   -0.79261784     0.040371297   -0.67490322    -0.00081200649
   1395000   0.05275766    -0.79468754     0.041722319   -0.67387979     0.043971234  
   1396000   0.051890016   -0.79607491     0.04073996    -0.67755014    -0.0090222308 
   1397000   0.051117545   -0.79649717     0.040213739   -0.67965659    -0.012033615  
   1398000   0.05065514    -0.79884753     0.040575739   -0.68233811    -0.0085124836 
   1399000   0.050771073   -0.79492307     0.041001525   -0.67781407    -0.00017860098
   1400000   0.050832679   -0.79599155     0.043138233   -0.67665349     0.032474514  
   1401000   0.052376808   -0.79635241     0.040291749   -0.67754614    -0.003761882  
   1402000   0.052133158   -0.79736221     0.04185023    -0.67736269    -0.01201558   
   1403000   0.051962216   -0.79688092     0.040154488   -0.67883339    -0.0083590164 
   1404000   0.052874667   -0.79675917     0.04191964    -0.6755787      0.01106692   
   1405000   0.053104209   -0.79924266     0.044730304   -0.67490743    -0.021324521  
   1406000   0.052732899   -0.79888367     0.041272956   -0.6785624      0.017872329  
   1407000   0.052253884   -0.79701951     0.040808886   -0.67788037    -0.020511145  
   1408000   0.051496242   -0.79970571     0.041597901   -0.68091328    -0.018797533  
   1409000   0.053695139   -0.79777008     0.042424548   -0.67485479    -0.011794942  
   1410000   0.054189723   -0.79662674     0.041901744   -0.67349285     0.015099377  
   1411000   0.055130802   -0.79724105     0.044806495   -0.66979171     0.01802668   
   1412000   0.052445965   -0.79910943     0.044248433   -0.6762428      0.032008922  
   1413000   0.053543508   -0.79811969     0.04110156    -0.67675468     0.029231915  
   1414000   0.05280625    -0.79858437     0.042154729   -0.67727137     0.033213898  
   1415000   0.053804981   -0.79799212     0.042649946   -0.67468677    -0.0099504237 
   1416000   0.053426687   -0.799821       0.041613727   -0.67811894     0.020142048  
   1417000   0.053391056   -0.79867997     0.040557745   -0.67808731     0.05372372   
   1418000   0.052887638   -0.7999568      0.041626812   -0.67904971     0.031955959  
   1419000   0.051233789   -0.80084847     0.041214072   -0.6828333      0.020984066  
   1420000   0.052688146   -0.80223789     0.041271008   -0.68198565     0.0057622145 
   1421000   0.051476343   -0.80131494     0.042061045   -0.6820892      0.026046601  
   1422000   0.052917696   -0.80016735     0.039129065   -0.68171295    -0.0041725065 
   1423000   0.051822078   -0.80192264     0.040972069   -0.68326761     0.02044468   
   1424000   0.05026791    -0.8008015      0.04023668    -0.6852116      0.02076704   
   1425000   0.051143265   -0.80123218     0.039116101   -0.68545068     0.023709449  
   1426000   0.051212299   -0.79906611     0.040093549   -0.68220367    -0.013703616  
   1427000   0.052810717   -0.8015967      0.04120992    -0.68122181     0.0089686035 
   1428000   0.04964554    -0.80043999     0.038591274   -0.68742845     0.003231443  
   1429000   0.052183107   -0.80013723     0.040589959   -0.68132311     0.0013090901 
   1430000   0.051580421   -0.80146973     0.041729447   -0.68241956    -0.0284302    
   1431000   0.052097685   -0.8001673      0.043543435   -0.67852776     0.006768164  
   1432000   0.053349948   -0.8002629      0.041316827   -0.67897278     0.011409678  
   1433000   0.050550823   -0.79995933     0.044255282   -0.67992674     0.014786496  
   1434000   0.053163876   -0.80082764     0.042187404   -0.67894587    -0.0030292277 
   1435000   0.053059837   -0.80097236     0.042665998   -0.67876796    -0.0030652913 
   1436000   0.050863104   -0.80176045     0.041829243   -0.68368578    -0.016479023  
   1437000   0.052446293   -0.79914987     0.041245644   -0.67928554     0.014497518  
   1438000   0.051973952   -0.80119075     0.041984352   -0.68129577     0.020231076  
   1439000   0.0522909     -0.80107647     0.042788143   -0.67990258     0.010176139  
   1440000   0.05346174    -0.80112302     0.040524718   -0.68045743     0.016814651  
   1441000   0.053341367   -0.80201512     0.042210756   -0.67984393     0.028521445  
   1442000   0.052259103   -0.79961644     0.04024313    -0.68103522    -0.0031652402 
   1443000   0.052908376   -0.80111238     0.042654529   -0.67914649    -0.0049221108 
   1444000   0.051575207   -0.8019649      0.043545888   -0.68110612    -0.012209928  
   1445000   0.052472733   -0.79975189     0.040653133   -0.68044044     0.011116051  
   1446000   0.052060365   -0.79968114     0.040828442   -0.68081254     0.027089619  
   1447000   0.052867755   -0.80086313     0.040590674   -0.68102199     0.047153475  
   1448000   0.05373084    -0.79885507     0.042517981   -0.67579283     0.0062556439 
   1449000   0.051085132   -0.8009014      0.042557339   -0.6817658     -0.0042835748 
   1450000   0.051221916   -0.800404       0.039246891   -0.68437381     0.0056045327 
   1451000   0.053715267   -0.8004914      0.041227408   -0.67874308     0.028842087  
   1452000   0.050839801   -0.80170694     0.04369928    -0.68179715     0.0034899272 
   1453000   0.052622213   -0.80094973     0.041306842   -0.68076049     0.017220368  
   1454000   0.052600786   -0.79855046     0.042038046   -0.67766214     0.010132873  
   1455000   0.0525264     -0.79976979     0.043045109   -0.67798591    -0.0066486613 
   1456000   0.053867427   -0.80102436     0.040290365   -0.67998498     0.017059579  
   1457000   0.050817997   -0.79934524     0.044981174   -0.67818625     0.0032524281 
   1458000   0.053412531   -0.79819228     0.041138268   -0.6769869      0.021861503  
   1459000   0.051306083   -0.7996511      0.042199818   -0.68054181     0.033796297  
   1460000   0.053652623   -0.80081346     0.041013472   -0.67937298    -0.013526097  
   1461000   0.052503459   -0.8028291      0.041215976   -0.68290875    -0.015264619  
   1462000   0.05230923    -0.79941027     0.041241678   -0.67975537    -0.011759822  
   1463000   0.052545137   -0.79966868     0.041499606   -0.67940222    -0.0061552205 
   1464000   0.052962025   -0.80006232     0.041812927   -0.67885761    -0.0048205316 
   1465000   0.053985046   -0.80007929     0.042815085   -0.67633888    -0.014989839  
   1466000   0.053833277   -0.80068568     0.04230166    -0.6776862      0.016816399  
   1467000   0.053048571   -0.80172509     0.044622151   -0.67758142    -0.012790135  
   1468000   0.052770198   -0.79961874     0.042098999   -0.67841551     0.0082174451 
   1469000   0.055302277   -0.80072022     0.04217322    -0.6756471      0.016047842  
   1470000   0.051919432   -0.79836166     0.041197616   -0.67933514     0.013782134  
   1471000   0.053638176   -0.79982501     0.042957865   -0.67646179     0.013626976  
   1472000   0.052779647   -0.8002023      0.04166453    -0.67941938     0.010261304  
   1473000   0.051725906   -0.7993888      0.042777414   -0.67907259    -0.013193794  
   1474000   0.052457599   -0.7998979      0.045308312   -0.67595396    -0.0032266743 
   1475000   0.052490653   -0.80026218     0.042321453   -0.67925554    -0.012539871  
   1476000   0.052834391   -0.80024229     0.043877728   -0.6771641     -0.0014350955 
   1477000   0.05335771    -0.8012562      0.044552893   -0.67671838     0.015229693  
   1478000   0.053796872   -0.80005465     0.042402688   -0.67700871     0.0044742539 
   1479000   0.053710874   -0.80185876     0.042989904   -0.67835453     0.014323789  
   1480000   0.053983241   -0.80035605     0.040766326   -0.6786671      0.013247076  
   1481000   0.052652277   -0.79993303     0.040387626   -0.68061794    -0.0036051304 
   1482000   0.054279549   -0.79724024     0.040913645   -0.6749598     -0.0038220396 
   1483000   0.051408608   -0.79818073     0.042061358   -0.67905621     0.014545567  
   1484000   0.052213792   -0.7997913      0.040140593   -0.68138055     0.024233762  
   1485000   0.052450215   -0.79845545     0.041270008   -0.67856087    -0.0013078458 
   1486000   0.053418674   -0.79801862     0.03744095    -0.68050136     0.018343093  
   1487000   0.052513087   -0.79936442     0.040682002   -0.67996361    -0.0032910102 
   1488000   0.052418946   -0.79931773     0.039838731   -0.68090131     0.0076738344 
   1489000   0.052024559   -0.80025021     0.040577069   -0.68168665    -0.011122174  
   1490000   0.052573795   -0.79786728     0.041673526   -0.67738393     0.027365734  
   1491000   0.051534324   -0.80023196     0.043812519   -0.67916783     0.0064589334 
   1492000   0.05211012    -0.80022311     0.042937433   -0.67917093     0.021618796  
   1493000   0.051030821   -0.7984854      0.041676683   -0.68031187     0.020633212  
   1494000   0.052717011   -0.79920754     0.042491379   -0.67769166     0.03062972   
   1495000   0.051334377   -0.79884013     0.042404836   -0.6794834      0.0083155046 
   1496000   0.052540934   -0.79926779     0.042315507   -0.67819173     0.0049674359 
   1497000   0.052057832   -0.80150079     0.041525255   -0.68193916     0.030190791  
   1498000   0.053288321   -0.79876904     0.040197492   -0.67869064     0.022833673  
   1499000   0.05310823    -0.79800333     0.043256425   -0.67513595    -0.0029000547 
   1500000   0.053974255   -0.80054977     0.0400546     -0.67958602     0.015757848  
   1501000   0.051245683   -0.79747707     0.041875978   -0.67878215     0.0074594598 
   1502000   0.052891993   -0.79885026     0.038986825   -0.68057663     0.023922781  
   1503000   0.051824204   -0.79913407     0.042278786   -0.67916913     0.00075881481
   1504000   0.052814435   -0.80017697     0.042254702   -0.67875173     0.045600965  
   1505000   0.051643495   -0.79855089     0.042254337   -0.67888129     0.02648724   
   1506000   0.055452784   -0.79820319     0.040162913   -0.67491477    -0.014302738  
   1507000   0.053599165   -0.79960114     0.0434874     -0.67576686    -0.0046113355 
   1508000   0.051726677   -0.80078591     0.0413131     -0.68193285     0.0094370298 
   1509000   0.052627224   -0.79890023     0.040042348   -0.67996797     0.014325899  
   1510000   0.054677588   -0.79924301     0.040896295   -0.67638325     0.0086043994 
   1511000   0.053047505   -0.79974441     0.039791985   -0.6804325      0.0080549581 
   1512000   0.051447568   -0.8004784      0.041352413   -0.68200442     0.010172379  
   1513000   0.051813755   -0.79916501     0.041629097   -0.67986543     0.026580594  
   1514000   0.054236198   -0.80049474     0.04379657    -0.67539635    -0.010407747  
   1515000   0.054064709   -0.79826238     0.041177616   -0.67604002     0.019063995  
   1516000   0.052538902   -0.79881461     0.041428603   -0.6786285     -0.0042962504 
   1517000   0.05221204    -0.80052665     0.043867763   -0.67839135     0.0063728745 
   1518000   0.054098379   -0.80211547     0.040650203   -0.68037005     0.016391898  
   1519000   0.053133931   -0.80004744     0.040138413   -0.68025955    -0.0015751362 
   1520000   0.051852997   -0.8008803      0.041700988   -0.68144999     0.020431617  
   1521000   0.051956783   -0.80297956     0.040267338   -0.68482733     0.00086139034
   1522000   0.050089606   -0.80089811     0.042985661   -0.68282651     0.011970786  
   1523000   0.053755483   -0.80087158     0.042739964   -0.67755042     0.013131835  
   1524000   0.055263495   -0.80240438     0.044006855   -0.67555576     0.013065227  
   1525000   0.053322306   -0.80154197     0.040870329   -0.68073978    -0.0026228694 
   1526000   0.052725596   -0.80228927     0.041461242   -0.68179066     0.0054655139 
   1527000   0.054004442   -0.80233149     0.043272216   -0.67810487     0.0088603431 
   1528000   0.050918312   -0.80192204     0.04096497    -0.68462888    -0.0096921577 
   1529000   0.053728254   -0.80433398     0.041858458   -0.68193514     0.0026039066 
   1530000   0.051943979   -0.80377878     0.041168919   -0.68474416    -0.0097396753 
   1531000   0.053295084   -0.80152733     0.04177334    -0.67986294     0.018871751  
   1532000   0.050911619   -0.80176271     0.043547394   -0.68189716     0.012825037  
   1533000   0.052340361   -0.80141524     0.041480473   -0.68147487     0.0098445804 
   1534000   0.054369857   -0.80332598     0.04216248    -0.67966133     0.024477481  
   1535000   0.051209718   -0.80050229     0.042337444   -0.68139983    -0.0092785095 
   1536000   0.051737487   -0.80078376     0.04207004    -0.68115756     0.0034981746 
   1537000   0.052690634   -0.80198146     0.041106994   -0.68188951    -0.0001295295 
   1538000   0.052928149   -0.80162978     0.044431271   -0.6778575      0.0029006756 
   1539000   0.051881846   -0.80077268     0.041386774   -0.68161335     0.015803497  
   1540000   0.051357078   -0.80087981     0.042403505   -0.68149039    -0.0076963707 
   1541000   0.052690987   -0.80042605     0.042462449   -0.67897811     0.0057585743 
   1542000   0.052557018   -0.80163865     0.042675683   -0.68017831     0.008777766  
   1543000   0.052732107   -0.80040659     0.040815739   -0.68054373    -0.008910204  
   1544000   0.052305703   -0.80234249     0.042827285   -0.68110726     0.013080166  
   1545000   0.053484371   -0.80454501     0.043219774   -0.68115044     0.026309414  
   1546000   0.052120163   -0.80198994     0.041680079   -0.68218005     0.0074208538 
   1547000   0.04950275    -0.80304952     0.042607525   -0.68623578     0.022840977  
   1548000   0.052307473   -0.80370785     0.04144154    -0.68385572     0.018974985  
   1549000   0.052579018   -0.8035892      0.041672408   -0.68309915     0.014631435  
   1550000   0.053092253   -0.80335836     0.041954915   -0.68181644    -0.009332463  
   1551000   0.053392257   -0.80352353     0.043830595   -0.67965622    -0.0040142726 
   1552000   0.05211553    -0.80403024     0.040382415   -0.68552496    -0.0064355164 
   1553000   0.051094353   -0.80355517     0.04076348    -0.6861996      0.031819461  
   1554000   0.05016274    -0.80325061     0.040699062   -0.68735598    -0.0029327898 
   1555000   0.052557538   -0.80295438     0.040098474   -0.68407046    -0.0087688153 
   1556000   0.053863261   -0.80437812     0.041036001   -0.68259935    -0.02063326   
   1557000   0.053417037   -0.80387926     0.041745593   -0.6820598      0.016623834  
   1558000   0.052906761   -0.80385562     0.042153119   -0.68239356     0.0097867709 
   1559000   0.051578781   -0.80393474     0.044112095   -0.68250439     0.008572482  
   1560000   0.054448757   -0.80388598     0.039364973   -0.68290057     0.0017448266 
   1561000   0.052318002   -0.80467777     0.042791245   -0.68346015    -0.0036812927 
   1562000   0.052209261   -0.80118187     0.042021876   -0.68089663     0.024673112  
   1563000   0.054660153   -0.80358431     0.041742467   -0.67990451     0.020596313  
   1564000   0.054571537   -0.80239382     0.041229626   -0.6793597     -0.0040013269 
   1565000   0.052206523   -0.80395654     0.03912705    -0.68657022     0.01278027   
   1566000   0.052516117   -0.80413812     0.042225297   -0.68318947     0.0085029712 
   1567000   0.052337388   -0.80300293     0.040032881   -0.68451462     0.014966058  
   1568000   0.052898506   -0.80512886     0.039729413   -0.68610288    -0.014007412  
   1569000   0.052418437   -0.8056375      0.0435152     -0.68354537     0.018167493  
   1570000   0.052612191   -0.80513456     0.041928895   -0.6843383     -0.019137284  
   1571000   0.051362887   -0.80519644     0.041689235   -0.68651258    -0.0069796013 
   1572000   0.053077768   -0.80503391     0.042692175   -0.68277644    -0.0020566845 
   1573000   0.053543559   -0.80560107     0.042439817   -0.68289774    -0.00052153728
   1574000   0.051693845   -0.80575983     0.042215829   -0.68605326     0.0021895643 
   1575000   0.051609341   -0.80468572     0.041594474   -0.68572718     0.019530833  
   1576000   0.053221946   -0.80524236     0.042496263   -0.68296468    -0.0078402886 
   1577000   0.053214595   -0.80454953     0.042863055   -0.68191608    -0.0040187021 
   1578000   0.053392387   -0.80455348     0.041954857   -0.68256171     0.0063406245 
   1579000   0.051955756   -0.80396403     0.042021973   -0.68405871     0.0018679813 
   1580000   0.051743865   -0.80443968     0.043244907   -0.68362905     0.047287151  
   1581000   0.051719209   -0.80559279     0.041028632   -0.68703539     0.0028010532 
   1582000   0.052718544   -0.8033557      0.041038808   -0.68329009     0.0077290346 
   1583000   0.052672045   -0.80529544     0.041507971   -0.68483037     0.021840895  
   1584000   0.051445961   -0.80321859     0.040388619   -0.68571081     0.0011001713 
   1585000   0.052637296   -0.80446754     0.041063306   -0.68449923    -0.023107405  
   1586000   0.051742986   -0.80660434     0.04196129    -0.68707864    -0.010737795  
   1587000   0.04955467    -0.80587656     0.042163706   -0.68942881    -0.01605561   
   1588000   0.051284541   -0.80461672     0.04082689    -0.68691265     0.0015433943 
   1589000   0.052396491   -0.80387273     0.040092058   -0.68523664     0.027300476  
   1590000   0.052838108   -0.80508054     0.042802635   -0.68307188    -0.0083681081 
   1591000   0.053675391   -0.80373623     0.04083697    -0.68243811     0.017434548  
   1592000   0.052882758   -0.80406893     0.043017625   -0.68177834     0.016266869  
   1593000   0.052443351   -0.80391173     0.039084153   -0.6862133     -0.0010834524 
   1594000   0.053559357   -0.80526894     0.040710983   -0.68427075     0.019880573  
   1595000   0.050288054   -0.80549587     0.040851673   -0.68926078     0.0030017132 
   1596000   0.050979848   -0.80568561     0.041436182   -0.68782899     0.00014058335
   1597000   0.052454337   -0.80556599     0.040938664   -0.68599658     0.023205992  
   1598000   0.052079702   -0.80685889     0.04263833    -0.68615141    -0.0041677939 
   1599000   0.053673966   -0.80247678     0.040433314   -0.68158446    -0.012594727  
   1600000   0.053078317   -0.80488859     0.042076179   -0.6832463      0.0099184809 
   1601000   0.051813878   -0.80530431     0.041301146   -0.68633249     0.0062212698 
   1602000   0.051197852   -0.80359303     0.040963742   -0.68588205     0.010885656  
   1603000   0.053289408   -0.80396154     0.042582338   -0.68149666     0.00070246243
   1604000   0.054414863   -0.80531726     0.043851618   -0.67989601    -0.027158316  
   1605000   0.05331558    -0.80460171     0.041722531   -0.6829574      0.003741379  
   1606000   0.051861056   -0.80494796     0.040932464   -0.6862741      0.021477676  
   1607000   0.051909231   -0.80427034     0.041556282   -0.68490044     0.016059501  
   1608000   0.052573464   -0.80719989     0.041342478   -0.68704809     0.0041023685 
   1609000   0.051439681   -0.80610981     0.039553583   -0.68944648     0.016622807  
   1610000   0.051806489   -0.80453489     0.040038719   -0.68683657     0.006020317  
   1611000   0.052728993   -0.80578158     0.043136422   -0.68360269     0.0036340669 
   1612000   0.05280712    -0.80516611     0.041934115   -0.68407242    -0.012638622  
   1613000   0.053547868   -0.80444479     0.041823463   -0.68235135     0.0016346858 
   1614000   0.054933567   -0.80423395     0.041491527   -0.68039523     0.0089088616 
   1615000   0.051183385   -0.80440093     0.04189748    -0.6857779     -0.0065177026 
   1616000   0.052694835   -0.80499823     0.042302812   -0.68370416    -0.0094213277 
   1617000   0.053809564   -0.80448932     0.038649936   -0.68517711     0.023718974  
   1618000   0.052890929   -0.80488285     0.042622652   -0.68297498     0.008552572  
   1619000   0.051644655   -0.80528593     0.043923597   -0.68394533    -0.018300936  
   1620000   0.051266478   -0.80399052     0.044424711   -0.6827157     -0.005073073  
   1621000   0.052051826   -0.80481131     0.041829595   -0.68495435    -0.027456337  
   1622000   0.05229192    -0.80426314     0.042040484   -0.68383538    -0.011606153  
   1623000   0.053734535   -0.80448049     0.041363323   -0.68256736    -0.0019008101 
   1624000   0.053629844   -0.80576742     0.043012093   -0.68236246    -0.016281949  
   1625000   0.051533309   -0.80345691     0.041629236   -0.68457758     0.0022475238 
   1626000   0.052241406   -0.80388106     0.041685726   -0.68388378     0.015489764  
   1627000   0.054088145   -0.80537212     0.040898906   -0.68339334     0.0094041974 
   1628000   0.049785087   -0.80617317     0.043502092   -0.68804163     0.0081161826 
   1629000   0.053438789   -0.80390431     0.039803014   -0.68399483    -0.0042025486 
   1630000   0.052686506   -0.8049482      0.042665051   -0.68330438    -0.005545787  
   1631000   0.05226089    -0.80574866     0.044485855   -0.68292204    -0.014689981  
   1632000   0.0523677     -0.80418573     0.042662248   -0.68302261     0.015308863  
   1633000   0.052061987   -0.80556019     0.042739447   -0.68477815    -0.010413806  
   1634000   0.053476041   -0.80512404     0.042578943   -0.68238278    -0.0057577757 
   1635000   0.052107557   -0.80440257     0.041423439   -0.68486822     0.019048909  
   1636000   0.050481336   -0.80330186     0.040587437   -0.68704128    -0.0024423475 
   1637000   0.050483296   -0.80604272     0.041490725   -0.6888759      0.01526737   
   1638000   0.051459629   -0.80479655     0.040223862   -0.68743305    -0.011664557  
   1639000   0.049957996   -0.80435081     0.041702907   -0.68775925    -0.010909885  
   1640000   0.051416318   -0.80387274     0.041629615   -0.6851684      0.0016504876 
   1641000   0.051893522   -0.80436995     0.040420831   -0.68615906     0.0026652007 
   1642000   0.051339274   -0.80419918     0.041383443   -0.68585651     0.0050697187 
   1643000   0.05161742    -0.80739204     0.042710984   -0.68730487     0.015767244  
   1644000   0.051814643   -0.80596851     0.043485317   -0.68481137    -0.021173206  
   1645000   0.055034472   -0.80521294     0.041806436   -0.68090806     0.008950431  
   1646000   0.052518896   -0.80474382     0.042389325   -0.68362697    -0.003132599  
   1647000   0.052980979   -0.80431485     0.041428127   -0.68346653    -0.012610976  
   1648000   0.052507719   -0.80458725     0.040404616   -0.68547187     0.0037162662 
   1649000   0.051889343   -0.8070784      0.04107627    -0.68821833    -0.0082500992 
   1650000   0.051674459   -0.80391823     0.04306628    -0.68339027    -0.010581031  
   1651000   0.054710821   -0.80659868     0.041126846   -0.68345855    -0.0032485556 
   1652000   0.052334177   -0.80480497     0.043435214   -0.68291914    -0.014529441  
   1653000   0.052707396   -0.80694154     0.041666868   -0.68626458     0.0080780602 
   1654000   0.054290621   -0.8060237      0.042484009   -0.6821563      0.0017242541 
   1655000   0.051214633   -0.80828432     0.043528257   -0.68798367    -0.0038313217 
   1656000   0.053024784   -0.80776148     0.042711018   -0.6855646      0.0014592191 
   1657000   0.051322639   -0.80723039     0.041356198   -0.6889399     -0.021554716  
   1658000   0.051432843   -0.80740471     0.041451785   -0.68885344     0.0033269337 
   1659000   0.052571419   -0.80895125     0.042396659   -0.68774833     0.012324446  
   1660000   0.052036839   -0.80828639     0.043572407   -0.68670908     0.01342219   
   1661000   0.050414539   -0.8068743      0.042399741   -0.68890153     0.01493905   
   1662000   0.049990515   -0.80873653     0.039678008   -0.69412113    -0.012851603  
   1663000   0.052429052   -0.80889695     0.04152928    -0.68877483    -0.0033904692 
   1664000   0.051158978   -0.80653088     0.040102747   -0.68973917     0.013743844  
   1665000   0.053973172   -0.80728322     0.043441529   -0.68293417     0.053473159  
   1666000   0.052445926   -0.80695898     0.040631149   -0.68770969     0.013810964  
   1667000   0.052124557   -0.80708798     0.040587446   -0.68836414     0.017589661  
   1668000   0.051369508   -0.80736818     0.041963391   -0.68840024     0.027489702  
   1669000   0.051150347   -0.80705165     0.042430761   -0.68794487    -0.0089827106 
   1670000   0.05174439    -0.80553938     0.040743511   -0.68722935    -0.0036399642 
   1671000   0.052605751   -0.80606448     0.041460766   -0.685746      -0.014690573  
   1672000   0.053675573   -0.80716253     0.04126431    -0.6854368      0.00031881522
   1673000   0.053482578   -0.80679034     0.043626117   -0.68299211    -0.0080314269 
   1674000   0.052766746   -0.80667015     0.043248951   -0.68432214     0.017222232  
   1675000   0.051667268   -0.80831297     0.041371539   -0.68949053     0.010817927  
   1676000   0.050898648   -0.80681163     0.040284174   -0.69022874     0.022427652  
   1677000   0.051260985   -0.80758674     0.041796852   -0.68894802     0.016805172  
   1678000   0.053523503   -0.80894788     0.041270303   -0.68744412     0.0043597525 
   1679000   0.051063643   -0.80813374     0.042639496   -0.6889482     -0.0050604507 
   1680000   0.051418836   -0.8084619      0.043796021   -0.68758739     0.0055540673 
   1681000   0.053511952   -0.80842696     0.043187355   -0.68502347     0.014073085  
   1682000   0.05196489    -0.80746676     0.040462396   -0.68910732    -0.0075929848 
   1683000   0.053201204   -0.8090813      0.040483078   -0.6888479      0.0097150461 
   1684000   0.051804024   -0.807891       0.042985232   -0.68724987     0.04849202   
   1685000   0.050056338   -0.80703883     0.042719381   -0.68928339    -0.0035958457 
   1686000   0.052343686   -0.80729414     0.041896582   -0.68693268     0.013291317  
   1687000   0.052914643   -0.8090015      0.043085366   -0.68659538     0.0027439336 
   1688000   0.055695119   -0.80953534     0.040834173   -0.68521239     0.011645539  
   1689000   0.054688112   -0.80852347     0.041491587   -0.68505264    -0.0081381599 
   1690000   0.052024447   -0.81011345     0.040874862   -0.69125226     0.0081602863 
   1691000   0.051363073   -0.80763027     0.041741524   -0.68889384    -0.0052351868 
   1692000   0.051060544   -0.81064435     0.042809878   -0.69129307     0.0051225867 
   1693000   0.053498868   -0.81111013     0.04077583    -0.69013778    -0.02204583   
   1694000   0.052503805   -0.81060077     0.042675488   -0.68922039    -0.011419189  
   1695000   0.050333663   -0.81073638     0.043020118   -0.69226448     0.017694979  
   1696000   0.051463236   -0.80827109     0.040166901   -0.69095914    -0.0057983786 
   1697000   0.050621738   -0.80968257     0.043667554   -0.6901314      0.014966333  
   1698000   0.054061696   -0.8082082      0.040591901   -0.68657608     0.0016542475 
   1699000   0.054698373   -0.80859793     0.042331012   -0.68427229    -0.012927193  
   1700000   0.05264986    -0.81000271     0.04364276    -0.68743611     0.020747321  
   1701000   0.05120164    -0.80822882     0.04287313    -0.68860278    -0.011458192  
   1702000   0.051746891   -0.80888084     0.043319634   -0.68799094     0.010544316  
   1703000   0.051688618   -0.80828814     0.043535579   -0.68726965     0.0026908166 
   1704000   0.052210969   -0.8097475      0.04427716    -0.68720441     0.040306879  
   1705000   0.052553384   -0.80965747     0.044995988   -0.68588227     0.014816142  
   1706000   0.051789437   -0.81082621     0.041231863   -0.69196031     0.0024979849 
   1707000   0.052279555   -0.80864895     0.04218269    -0.68809752    -0.00091550323
   1708000   0.054237386   -0.8089044      0.042573437   -0.68502738    -0.00085905838
   1709000   0.054263591   -0.80986427     0.042046165   -0.68647523     0.002654399  
   1710000   0.051473601   -0.80896824     0.044065697   -0.68774196     0.020707486  
   1711000   0.053223235   -0.80931261     0.043203203   -0.68632606     0.021690714  
   1712000   0.052854987   -0.80939144     0.041802574   -0.68835754     0.0031948749 
   1713000   0.052513037   -0.8079685      0.041285042   -0.68796472     0.0021430384 
   1714000   0.052825013   -0.80873459     0.043874792   -0.6856734      0.037081535  
   1715000   0.051947627   -0.81004551     0.042371504   -0.68980284     0.039325875  
   1716000   0.053627501   -0.80997108     0.04312277    -0.68645896     0.024123593  
   1717000   0.054127795   -0.81085926     0.042223827   -0.68749612     0.028267125  
   1718000   0.053862261   -0.80792032     0.044746497   -0.68243256     0.026846975  
   1719000   0.054529357   -0.81010032     0.043892064   -0.68446699     0.012112599  
   1720000   0.052604243   -0.8094489      0.043835052   -0.68675839     0.026305069  
   1721000   0.054035125   -0.80917339     0.04397813    -0.68419487     0.018174207  
   1722000   0.053756783   -0.80979313     0.042654381   -0.6865556      0.0015876039 
   1723000   0.052774172   -0.81067474     0.043752655   -0.6878119      0.027349904  
   1724000   0.051610472   -0.80816957     0.044145834   -0.68665797     0.017619681  
   1725000   0.05387489    -0.80881856     0.043612189   -0.68444617     0.0072498722 
   1726000   0.053099606   -0.81050631     0.044929594   -0.68597869     0.018868382  
   1727000   0.052791803   -0.80884748     0.04295917    -0.68675169    -0.0045406629 
   1728000   0.05253961    -0.80952225     0.043450786   -0.6873129      0.0368359    
   1729000   0.052661331   -0.80895666     0.041747262   -0.68826836     0.03911304   
   1730000   0.051241681   -0.80747032     0.042561892   -0.6880955      0.010698755  
   1731000   0.051820293   -0.81039912     0.041192532   -0.6915263      0.025499544  
   1732000   0.055287173   -0.81026769     0.042240826   -0.6851496      0.014997439  
   1733000   0.053688315   -0.80965747     0.043306522   -0.68587043     0.035889974  
   1734000   0.053497054   -0.80638762     0.043750422   -0.68244339     0.0042990209 
   1735000   0.054244339   -0.80790419     0.043836097   -0.68275408     0.013744363  
   1736000   0.052721478   -0.80774331     0.044815347   -0.68389677     0.015066246  
   1737000   0.052779073   -0.80949565     0.041713377   -0.68866474     0.0011394438 
   1738000   0.053593033   -0.81067974     0.043754039   -0.68658802     0.0058818182 
   1739000   0.053246773   -0.80939194     0.042709964   -0.68686334     0.0074406724 
   1740000   0.053133287   -0.80898737     0.040031967   -0.6893069      0.0088168602 
   1741000   0.054316672   -0.81000412     0.043567692   -0.68501398     0.024478492  
   1742000   0.053172604   -0.80910976     0.0431265     -0.68627581     0.023190243  
   1743000   0.052210742   -0.80583495     0.04081921    -0.68675016     0.021929508  
   1744000   0.053644367   -0.81025182     0.044984621   -0.68485256     0.0058786111 
   1745000   0.050680405   -0.80795759     0.04387749    -0.68810854     0.041041273  
   1746000   0.051185191   -0.8094387      0.044298735   -0.68841171     0.0051019902 
   1747000   0.053137315   -0.80843135     0.041795518   -0.68698128     0.00062559262
   1748000   0.052781636   -0.80959157     0.04351576    -0.68695444     0.0073410374 
   1749000   0.053891436   -0.80832905     0.043909645   -0.6836344      0.0061871979 
   1750000   0.052117089   -0.80869373     0.043119457   -0.68744907    -0.0054660547 
   1751000   0.051741181   -0.80960051     0.044012371   -0.68802644     0.00041157174
   1752000   0.050927433   -0.80945647     0.041280243   -0.69183436     0.024632051  
   1753000   0.051355222   -0.8081612      0.041926923   -0.68925115     0.0025151508 
   1754000   0.050957748   -0.81132746     0.042410479   -0.69252967     0.0088294527 
   1755000   0.051331535   -0.81021498     0.042914347   -0.690353      -0.0046480309 
   1756000   0.052237377   -0.81070164     0.042446158   -0.68994997    -0.0085271947 
   1757000   0.054266819   -0.80868976     0.041614884   -0.68572717     0.01581377   
   1758000   0.052223901   -0.80950858     0.045223144   -0.68600013     0.010209701  
   1759000   0.053384098   -0.80790396     0.044498848   -0.68338063    -0.0016145218 
   1760000   0.052287064   -0.8082711      0.042858771   -0.68703233     0.013983426  
   1761000   0.053187102   -0.80679815     0.041346765   -0.6857222      0.016778748  
   1762000   0.054104272   -0.80708035     0.044719142   -0.68125716    -0.0027347799 
   1763000   0.053775233   -0.80948321     0.044089692   -0.68478271     0.004644025  
   1764000   0.050945059   -0.80793146     0.044019831   -0.68754335     0.023786544  
   1765000   0.051295819   -0.80881573     0.043910068   -0.68801158     0.0047199889 
   1766000   0.051761766   -0.80881041     0.043421173   -0.68779668    -0.0031767965 
   1767000   0.052730403   -0.80777906     0.042172406   -0.68656208     0.0078084427 
   1768000   0.052820046   -0.80892322     0.044793988   -0.68495028     0.025292607  
   1769000   0.052215323   -0.80680949     0.042191462   -0.68634558     0.03000157   
   1770000   0.053261858   -0.80590099     0.042602581   -0.68345717     0.029380107  
   1771000   0.053155786   -0.80927327     0.043384453   -0.68620658     0.051538829  
   1772000   0.054025316   -0.8097193      0.046511433   -0.68222217     0.043265928  
   1773000   0.054588625   -0.80890081     0.044689743   -0.68238096     0.020695659  
   1774000   0.052826275   -0.80956474     0.045909687   -0.68446676     0.05436587   
   1775000   0.051869176   -0.81004781     0.042106207   -0.69018804     0.043083819  
   1776000   0.051640735   -0.80831563     0.042306302   -0.6885982      0.043438287  
   1777000   0.052629176   -0.80704213     0.044915958   -0.68323334     0.022705117  
   1778000   0.052378268   -0.81098783     0.045566391   -0.68690472     0.033728651  
   1779000   0.052996656   -0.81150602     0.04387818    -0.68818414     0.028482557  
   1780000   0.052276855   -0.80857033     0.043635493   -0.68657015     0.011916868  
   1781000   0.053957097   -0.80880089     0.043021413   -0.68489605     0.024956025  
   1782000   0.053012192   -0.8101524      0.043899022   -0.68678639     0.02810163   
   1783000   0.052411417   -0.81046137     0.045457032   -0.68643793     0.012182299  
   1784000   0.054418685   -0.8109123      0.043906672   -0.68543026     0.0032080571 
   1785000   0.054634294   -0.80832995     0.042490809   -0.68394058     0.036118993  
   1786000   0.053942135   -0.80821853     0.043220905   -0.68413662     0.011246182  
   1787000   0.052783929   -0.81121881     0.043586435   -0.68850757     0.018990304  
   1788000   0.05180951    -0.80843446     0.041507992   -0.68926234     0.021503041  
   1789000   0.052739277   -0.80975227     0.041504393   -0.68919        0.029998615  
   1790000   0.055084076   -0.80818647     0.041486808   -0.68412685    -0.0013336157 
   1791000   0.052430826   -0.80766553     0.043610265   -0.68545976     0.001392604  
   1792000   0.052788866   -0.80860481     0.043637336   -0.68583527     0.022966594  
   1793000   0.051295002   -0.80905031     0.044139176   -0.68801827     0.061195155  
   1794000   0.051550441   -0.80822836     0.041114351   -0.68983824     0.03624786   
   1795000   0.053301798   -0.80853492     0.042205898   -0.68642791     0.0062555169 
   1796000   0.052596265   -0.80844574     0.041861761   -0.68774048     0.031923276  
   1797000   0.052128523   -0.80781691     0.041041819   -0.68863276     0.012557477  
   1798000   0.051544689   -0.80846372     0.042213938   -0.68898263     0.012689198  
   1799000   0.05282949    -0.80818253     0.043941333   -0.68504809     0.032640912  
   1800000   0.053515206   -0.80949452     0.043239071   -0.68603442     0.045276476  
   1801000   0.052060953   -0.80768632     0.042264981   -0.68738029     0.018464945  
   1802000   0.054500319   -0.81204554     0.04286015    -0.68748766     0.03534975   
   1803000   0.052698291   -0.80846811     0.041837716   -0.68763396     0.034765248  
   1804000   0.053571063   -0.80839419     0.041862491   -0.68622694     0.04551655   
   1805000   0.052347643   -0.80927777     0.04164894    -0.68915803     0.057033078  
   1806000   0.052538649   -0.80731478     0.042645148   -0.6859125      0.047477192  
   1807000   0.052479629   -0.80818035     0.043902896   -0.6856088      0.051622297  
   1808000   0.053759135   -0.80723125     0.04238998    -0.68425459     0.018929982  
   1809000   0.050652858   -0.80781136     0.045056443   -0.68682465     0.017488399  
   1810000   0.053247286   -0.80894785     0.04210992    -0.68701853     0.01512918   
   1811000   0.05332822    -0.80677387     0.039535601   -0.68729755     0.034470771  
   1812000   0.051613491   -0.80826213     0.044469923   -0.68642192     0.0059032139 
   1813000   0.053361294   -0.8080703      0.042398765   -0.68568124     0.00015052674
   1814000   0.053796736   -0.80679445     0.042689456   -0.68346195     0.032975453  
   1815000   0.050989464   -0.80729268     0.040613198   -0.69024463     0.029488558  
   1816000   0.054918014   -0.8077633      0.043174071   -0.68226536     0.019058572  
   1817000   0.05226991    -0.80763615     0.044366362   -0.68491551     0.013572794  
   1818000   0.05303925    -0.80612523     0.042073588   -0.68454409     0.042455822  
   1819000   0.055053657   -0.80770207     0.042367847   -0.68280702     0.0077184397 
   1820000   0.052815789   -0.80910272     0.044129912   -0.68580024     0.028748605  
   1821000   0.053197421   -0.80766837     0.042942647   -0.68498108     0.038315247  
   1822000   0.051238834   -0.80675498     0.043024894   -0.68692142     0.026923367  
   1823000   0.052144543   -0.80763889     0.04155503    -0.6879175      0.05335694   
   1824000   0.051919177   -0.8071044      0.039998838   -0.68927704     0.034958555  
   1825000   0.051779345   -0.80548572     0.042548678   -0.68531814     0.039801212  
   1826000   0.05403737    -0.80694531     0.041703891   -0.68423766     0.048071235  
   1827000   0.055722231   -0.80769813     0.043506311   -0.6806624      0.042647471  
   1828000   0.053859997   -0.80802914     0.042970205   -0.68432106     0.053817064  
   1829000   0.052385493   -0.80779841     0.043739563   -0.6855313      0.013719152  
   1830000   0.052407514   -0.80725798     0.043487357   -0.68521007     0.045663926  
   1831000   0.054163332   -0.80946041     0.041297931   -0.68696989     0.048231395  
   1832000   0.055373173   -0.8081639      0.04311721    -0.68204052     0.021564945  
   1833000   0.052257561   -0.81086728     0.043949484   -0.68858203     0.057685881  
   1834000   0.051827924   -0.80690519     0.04096848    -0.68824499     0.021666623  
   1835000   0.052037656   -0.80966981     0.040038      -0.69162568     0.031265544  
   1836000   0.052450805   -0.808076       0.042115354   -0.6873352      0.033015051  
   1837000   0.052517958   -0.80899059     0.042139423   -0.68812505    -0.013056844  
   1838000   0.052633625   -0.81039166     0.043800076   -0.68769208     0.027884125  
   1839000   0.05261892    -0.81091272     0.042494536   -0.68954073     0.018903083  
   1840000   0.051272234   -0.81106145     0.042522815   -0.69167991     0.022401083  
   1841000   0.051531003   -0.81029433     0.041913094   -0.6911346      0.043111068  
   1842000   0.053073729   -0.81067042     0.043674153   -0.68743703     0.028336053  
   1843000   0.053174817   -0.80994794     0.042431942   -0.68780523     0.033411591  
   1844000   0.054073685   -0.80973368     0.043885016   -0.68479046     0.021870241  
   1845000   0.051729596   -0.81057625     0.043529363   -0.68950255     0.046502927  
   1846000   0.0538688     -0.81065052     0.044838111   -0.68506134     0.01976425   
   1847000   0.050918392   -0.8087935      0.042331872   -0.69013331     0.010867614  
   1848000   0.052763511   -0.81022488     0.042503165   -0.68862751     0.031519781  
   1849000   0.052322144   -0.81052614     0.043770683   -0.68832287     0.037312787  
   1850000   0.052677609   -0.80988511     0.043861148   -0.68705853     0.0096591333 
   1851000   0.053968942   -0.81053649     0.041923058   -0.68771225     0.02155024   
   1852000   0.053406089   -0.81064775     0.042280201   -0.6883101      0.023587539  
   1853000   0.052172326   -0.81036418     0.044669969   -0.68748622     0.031957546  
   1854000   0.055393055   -0.80950418     0.042577934   -0.68389027     0.047144024  
   1855000   0.052763117   -0.80881588     0.042818135   -0.68690413     0.020763512  
   1856000   0.054036542   -0.8099218      0.04120676    -0.68771252     0.014105801  
   1857000   0.051460696   -0.81190371     0.041933037   -0.69282943     0.020040708  
   1858000   0.051180973   -0.80954013     0.04214181    -0.69067639     0.022258173  
   1859000   0.051732054   -0.80991721     0.043956575   -0.68841262     0.017864817  
   1860000   0.052352023   -0.8102719      0.044995      -0.68679952    -0.0010907757 
   1861000   0.050958024   -0.80997801     0.04336256    -0.69022773     0.055818096  
   1862000   0.053879782   -0.80847027     0.041979906   -0.68572283     0.019706356  
   1863000   0.051374925   -0.81027801     0.042866209   -0.69039913     0.013110421  
   1864000   0.051627159   -0.81053894     0.045463057   -0.68768511     0.040947435  
   1865000   0.052172399   -0.80972409     0.042809678   -0.68870631     0.022391631  
   1866000   0.052645525   -0.81077713     0.041781329   -0.69007846     0.036116297  
   1867000   0.052805828   -0.81038074     0.0438809     -0.6873422      0.023034624  
   1868000   0.05326174    -0.80920625     0.043366936   -0.68599825     0.036416937  
   1869000   0.053214588   -0.80712715     0.041734677   -0.68562209     0.053523558  
   1870000   0.051653053   -0.80927937     0.042243667   -0.68960611     0.015637119  
   1871000   0.052896764   -0.81133897     0.042387927   -0.68965709     0.021193454  
   1872000   0.05227986    -0.80976322     0.044039757   -0.68735427     0.02868894   
   1873000   0.051079749   -0.80957392     0.044006171   -0.68899756     0.035283245  
   1874000   0.054867732   -0.80870991     0.043543703   -0.68291771     0.022173099  
   1875000   0.052541691   -0.80985157     0.044299329   -0.68679055     0.022560314  
   1876000   0.052181297   -0.81071502     0.042757004   -0.68973657     0.044442041  
   1877000   0.05305155    -0.81103241     0.045434274   -0.68607215     6.6991232e-05
   1878000   0.05363959    -0.80755275     0.042777699   -0.68436757     0.038731687  
   1879000   0.051511534   -0.81136517     0.041404452   -0.69274327     0.019155681  
   1880000   0.053022611   -0.80918314     0.04153262    -0.68816791     0.035239911  
   1881000   0.053115938   -0.80991875     0.043381142   -0.68691511     0.010824416  
   1882000   0.052568547   -0.81101109     0.043471145   -0.688738       0.019133065  
   1883000   0.053380323   -0.80908694     0.041760394   -0.68730772    -0.015826111  
   1884000   0.052928031   -0.81072408     0.043302294   -0.68808096     0.020079036  
   1885000   0.053699949   -0.81110435     0.044221554   -0.68638484     0.032983251  
   1886000   0.053820048   -0.80978404     0.042963618   -0.68614244     0.017500228  
   1887000   0.054208128   -0.81173351     0.043813856   -0.68665992     0.019455127  
   1888000   0.052535579   -0.81073702     0.043243309   -0.68874118     0.020852972  
   1889000   0.05142035    -0.80933899     0.044176835   -0.6880814      0.0074880815 
   1890000   0.053064837   -0.81069777     0.040638473   -0.69051339     0.024864803  
   1891000   0.052322463   -0.81171926     0.043387476   -0.68989872    -0.011517177  
   1892000   0.051106623   -0.80816007     0.042310151   -0.68923944    -0.021300599  
   1893000   0.052747423   -0.81007532     0.042710189   -0.68829504     0.016829248  
   1894000   0.053297778   -0.80957253     0.04350113    -0.68617631     0.014689952  
   1895000   0.053323539   -0.80930024     0.041585418   -0.68778112     0.040033639  
   1896000   0.051278542   -0.81068521     0.042683408   -0.69113361     0.018137811  
   1897000   0.052353879   -0.80983532     0.041142672   -0.6902125      0.023088808  
   1898000   0.053776903   -0.81075611     0.041186978   -0.68895582     0.011131876  
   1899000   0.05316485    -0.81015712     0.042661575   -0.68779972     0.016857379  
   1900000   0.05443105    -0.81177746     0.043039207   -0.68714435     0.026881885  
   1901000   0.052622568   -0.80930193     0.043621521   -0.68679748     0.00026683878
   1902000   0.053335196   -0.8099462      0.044599748   -0.68539527     0.012458936  
   1903000   0.053657825   -0.80867357     0.042338811   -0.68589995     0.030456914  
   1904000   0.052115064   -0.81045151     0.043894578   -0.68843477     0.023010508  
   1905000   0.051677231   -0.80908794     0.042532178   -0.68908992     0.0067296886 
   1906000   0.051903554   -0.80866092     0.042475071   -0.68838075    -0.010730697  
   1907000   0.052037911   -0.80987708     0.041116937   -0.69075364     0.022225552  
   1908000   0.050298246   -0.81128655     0.045697828   -0.69019003    -0.011855357  
   1909000   0.0519243     -0.80883815     0.039647564   -0.69135438     0.0099415792 
   1910000   0.05159239    -0.81012174     0.042517316   -0.69026577     0.0058385864 
   1911000   0.052682331   -0.81029029     0.043594597   -0.68772318    -0.0084068325 
   1912000   0.051671045   -0.80941383     0.044150861   -0.6878064      0.0032744766 
   1913000   0.05396936    -0.81132704     0.043143446   -0.68728178     0.0084598854 
   1914000   0.05155111    -0.80982798     0.043743275   -0.68880793     0.0062853393 
   1915000   0.052161524   -0.80902329     0.042598971   -0.68823251    -0.0075847024 
   1916000   0.052493679   -0.81108249     0.044099567   -0.6882932     -0.020376031  
   1917000   0.051781801   -0.80874096     0.043703849   -0.68741452     0.033912008  
   1918000   0.050640215   -0.81009697     0.042774015   -0.69141164     0.03791553   
   1919000   0.05269257    -0.81061952     0.041411994   -0.69021966     0.047773296  
   1920000   0.051494339   -0.8095557      0.041966558   -0.69039747     0.053874838  
   1921000   0.053381777   -0.80987835     0.042403526   -0.68745382     0.028474503  
   1922000   0.052427344   -0.8074988      0.041355435   -0.68755308     0.018054944  
   1923000   0.051455756   -0.80954748     0.043087054   -0.68932659     0.024497964  
   1924000   0.054224995   -0.80869328     0.042334544   -0.68507372     0.00090438252
   1925000   0.054278475   -0.80837158     0.042188723   -0.68481767     0.04479288   
   1926000   0.052556299   -0.80694275     0.041066444   -0.68709271     0.033734805  
   1927000   0.05175362    -0.80914774     0.042627819   -0.68893958    -0.00870346   
   1928000   0.055793546   -0.81003249     0.042448307   -0.68394786     0.053564037  
   1929000   0.053970221   -0.80819367     0.044161746   -0.68312882     0.042986897  
   1930000   0.052924195   -0.80862132     0.043592816   -0.68569343     0.047109995  
   1931000   0.054154592   -0.80736739     0.042959795   -0.68322812     0.040815854  
   1932000   0.052856078   -0.8075919      0.043104638   -0.6852543      0.025441765  
   1933000   0.052378463   -0.80897177     0.044027945   -0.68642682     0.024653452  
   1934000   0.052490932   -0.80968002     0.044401541   -0.68659288     0.0055320528 
   1935000   0.054239199   -0.80933153     0.043620701   -0.68440452     0.029421558  
   1936000   0.054255083   -0.80776697     0.039912116   -0.68652473     0.039848283  
   1937000   0.052102842   -0.80783602     0.043303566   -0.68642861    -0.0023344641 
   1938000   0.051679009   -0.80948068     0.042358576   -0.6896536      0.04100111   
   1939000   0.051488023   -0.80908109     0.044374514   -0.68752437     0.037724902  
   1940000   0.052232332   -0.8071977      0.042013192   -0.68688656     0.044447049  
   1941000   0.052906852   -0.80739674     0.041447724   -0.68663994     0.022074865  
   1942000   0.051435071   -0.81098964     0.043667152   -0.69021966     0.005562412  
   1943000   0.052116606   -0.80940519     0.043066928   -0.68821379     0.020213238  
   1944000   0.054192334   -0.81125649     0.040837702   -0.68918273     0.025056155  
   1945000   0.052668891   -0.80836091     0.040901069   -0.68850747     0.034328142  
   1946000   0.051634162   -0.80959627     0.042751139   -0.68944386     0.014418199  
   1947000   0.052494152   -0.80866313     0.0419142     -0.6880585      0.017085754  
   1948000   0.05213016    -0.80833945     0.040858393   -0.68933626     0.06704218   
   1949000   0.05310507    -0.80965068     0.041548296   -0.68849617     0.031819175  
   1950000   0.052353071   -0.80918402     0.043211277   -0.68749381     0.035277256  
   1951000   0.051840685   -0.80769416     0.043218102   -0.6867652      0.036521615  
   1952000   0.054230601   -0.80824343     0.041763834   -0.68518618     0.049221746  
   1953000   0.052433345   -0.8075245      0.044264164   -0.68466106     0.036930485  
   1954000   0.053104204   -0.81006734     0.045433968   -0.68502845     0.030538904  
   1955000   0.05319936    -0.80892376     0.04218086    -0.68699534     0.060903884  
   1956000   0.051525253   -0.81107227     0.044234539   -0.68959972     0.024388692  
   1957000   0.053489666   -0.81051748     0.042235794   -0.68809895     0.035491601  
   1958000   0.052142585   -0.81012533     0.044492724   -0.68746919     0.043504914  
   1959000   0.053469815   -0.81004822     0.043330987   -0.68656425     0.0092279614 
   1960000   0.053793652   -0.80815523     0.041752484   -0.68576432     0.013537643  
   1961000   0.052955777   -0.80828422     0.044303314   -0.68459849     0.013530643  
   1962000   0.053460783   -0.80786001     0.042510699   -0.68520988     0.019964834  
   1963000   0.052803635   -0.8094336      0.044024682   -0.68625457     0.042490993  
   1964000   0.051978398   -0.80877476     0.042940368   -0.68791709     0.014118008  
   1965000   0.050815991   -0.80986435     0.041371597   -0.69231794     0.022405477  
   1966000   0.051749055   -0.80941559     0.040493893   -0.69134819     0.031018193  
   1967000   0.051836516   -0.809556       0.041824526   -0.69002686     0.055946593  
   1968000   0.052045146   -0.80916205     0.042654732   -0.68848996     0.02435124   
   1969000   0.053558482   -0.80913885     0.040373309   -0.68847965     0.026030293  
   1970000   0.051165423   -0.80892753     0.043891879   -0.68833703     0.015888167  
   1971000   0.053862315   -0.80955206     0.042646149   -0.68616456     0.023573599  
   1972000   0.051567627   -0.80957612     0.044070214   -0.68820437     0.027458178  
   1973000   0.05486214    -0.80974948     0.044835624   -0.68267374     0.011417516  
   1974000   0.05384346    -0.81145081     0.045107499   -0.68563023     0.011155165  
   1975000   0.053579628   -0.80819335     0.044029579   -0.68384618     0.04145997   
   1976000   0.053291132   -0.81111457     0.043245535   -0.68798391     0.0035009497 
   1977000   0.054678092   -0.81072992     0.041513256   -0.68725244     0.012512652  
   1978000   0.05284763    -0.81035485     0.04310024    -0.6880343     -0.00018667842
   1979000   0.051912487   -0.81040225     0.044327038   -0.68825672     0.017106455  
   1980000   0.054292559   -0.8105235      0.04433607    -0.68480113     0.0091187253 
   1981000   0.052016754   -0.80945558     0.043104319   -0.68837647     0.050714259  
   1982000   0.05052734    -0.80894564     0.045848259   -0.68735527     0.032635633  
   1983000   0.051978082   -0.80986091     0.042987856   -0.68895623     0.03428612   
   1984000   0.051562278   -0.81124114     0.043101854   -0.69084577     0.0070366643 
   1985000   0.055166897   -0.8110111      0.044083375   -0.68423077     0.024145767  
   1986000   0.053889004   -0.81257038     0.042137431   -0.68965159     0.0071561307 
   1987000   0.052463195   -0.81279597     0.04342244    -0.69072951     0.00036283418
   1988000   0.052750545   -0.81338385     0.043020897   -0.69128818     0.0024520602 
   1989000   0.053557599   -0.8136023      0.042892604   -0.69042512    -0.00090074821
   1990000   0.052466631   -0.81278036     0.04284156    -0.69128963    -0.0031324086 
   1991000   0.052887385   -0.81317219     0.042865774   -0.69102652    -0.0008216963 
   1992000   0.052705219   -0.8113787      0.041291101   -0.69108078     0.0048683619 
   1993000   0.052365087   -0.81264511     0.043833071   -0.69031508     0.013859149  
   1994000   0.051060313   -0.81414041     0.044847008   -0.69275235    -0.0030837437 
   1995000   0.051537919   -0.81212863     0.042796086   -0.69207554     0.033771779  
   1996000   0.05407325    -0.8124383      0.044090971   -0.68728979     0.029059505  
   1997000   0.053342757   -0.81312723     0.044148893   -0.68901583    -0.0035618599 
   1998000   0.053908146   -0.81314953     0.042550319   -0.68978916     0.012993373  
   1999000   0.052515255   -0.81114606     0.041519222   -0.69090478     0.016024404  
   2000000   0.051934935   -0.81252411     0.042909723   -0.69176224    -0.0039644387 
   2001000   0.053483724   -0.81379884     0.041851556   -0.69177346     0.023598957  
   2002000   0.05053298    -0.81207395     0.044674459   -0.69164892     0.028829606  
   2003000   0.052084363   -0.81155286     0.043100898   -0.69037582     0.040383371  
   2004000   0.05200065    -0.81407447     0.043318353   -0.69280547     0.032219472  
   2005000   0.051484516   -0.81222971     0.042357404   -0.69269535     0.0070714314 
   2006000   0.052651791   -0.81327158     0.042274764   -0.69207009    -0.0036544749 
   2007000   0.054094685   -0.81208424     0.042860469   -0.6881341     -0.0023291013 
   2008000   0.052837052   -0.81373335     0.045870978   -0.68865792    -0.0093492331 
   2009000   0.05110594    -0.81374059     0.044262414   -0.69286872    -0.014091645  
   2010000   0.053579876   -0.81144312     0.044374186   -0.68675097     0.041592301  
   2011000   0.053344872   -0.81367253     0.043590302   -0.69011655     0.0055745599 
   2012000   0.04999872    -0.81305876     0.044193663   -0.6939154      0.031623501  
   2013000   0.052745914   -0.81293399     0.042907593   -0.69095857     0.0091721014 
   2014000   0.051422443   -0.81287102     0.042014633   -0.69377249     0.0040512479 
   2015000   0.054155491   -0.81317774     0.043298179   -0.68869873     0.0485239    
   2016000   0.049852989   -0.81373542     0.045257771   -0.69374641    -0.010305948  
   2017000   0.052042811   -0.81405127     0.046530344   -0.68950708    -0.014188307  
   2018000   0.051443078   -0.81415444     0.044643013   -0.69239659     0.024469551  
   2019000   0.0516358     -0.81548975     0.043656774   -0.69442925     0.019944607  
   2020000   0.051440203   -0.81479346     0.043775272   -0.69390767     0.0053441895 
   2021000   0.052276731   -0.81400152     0.043787457   -0.69184955     0.052608379  
   2022000   0.054130956   -0.81311554     0.043972209   -0.68799928     0.020094994  
   2023000   0.054499676   -0.81349744     0.042812674   -0.68898799     0.021561318  
   2024000   0.052715581   -0.81564842     0.042417746   -0.69420831     0.046110745  
   2025000   0.052930461   -0.81410541     0.042434199   -0.69232675     0.036707281  
   2026000   0.053611904   -0.81462941     0.043530854   -0.69073258     0.026770301  
   2027000   0.053573212   -0.8163038      0.043281951   -0.69271388     0.041104498  
   2028000   0.053100003   -0.81482427     0.043848788   -0.69137686     0.022845973  
   2029000   0.053073147   -0.81597834     0.043393564   -0.69302642     0.022974951  
   2030000   0.051528627   -0.81562097     0.045334889   -0.69304301     0.0045935627 
   2031000   0.053030908   -0.81674368     0.042812346   -0.69443629     0.039441782  
   2032000   0.052778858   -0.81580537     0.041121783   -0.69556638     0.02637052   
   2033000   0.051485679   -0.81547176     0.043779885   -0.69451318     0.02026617   
   2034000   0.05249555    -0.81632612     0.042464388   -0.69516921     0.036545752  
   2035000   0.052406519   -0.81637133     0.045068577   -0.69274369     0.013914969  
   2036000   0.051781948   -0.81552363     0.041899076   -0.69600174     0.050908159  
   2037000   0.052166717   -0.81517134     0.043080514   -0.69389123     0.040894582  
   2038000   0.053754982   -0.81637786     0.042310189   -0.69348721     0.028253343  
   2039000   0.053135304   -0.81400647     0.041430895   -0.69292404     0.011967371  
   2040000   0.053298318   -0.81524321     0.04531437    -0.69003294     0.0026090094 
   2041000   0.054078088   -0.81464227     0.041956257   -0.69162121     0.0301114    
   2042000   0.052018637   -0.81674414     0.043884712   -0.69488182     0.0074405738 
   2043000   0.053657843   -0.81482745     0.043408788   -0.69098383     0.033572119  
   2044000   0.053194653   -0.81638939     0.044083657   -0.69256524     0.028756679  
   2045000   0.055879206   -0.81645827     0.044107924   -0.68858561    -0.010341748  
   2046000   0.052551586   -0.81353901     0.045527909   -0.68923458     0.0089821471 
   2047000   0.052987689   -0.81458871     0.045962391   -0.68919606     0.042545554  
   2048000   0.05439182    -0.81349175     0.045516312   -0.68644035     0.0064901504 
   2049000   0.05312525    -0.81446621     0.043616073   -0.69121368     0.029638922  
   2050000   0.050687175   -0.81281012     0.042383165   -0.69444524     0.02600794   
   2051000   0.053943316   -0.81553839     0.042481373   -0.69219425     0.0045367908 
   2052000   0.053939754   -0.81582592     0.042064783   -0.6929037      0.018102743  
   2053000   0.051536345   -0.8137032      0.04212112    -0.69432744    -0.0046259355 
   2054000   0.055174264   -0.81539791     0.042072464   -0.69061744     0.0087309578 
   2055000   0.053548901   -0.81287244     0.042149574   -0.69045134     0.032340927  
   2056000   0.054794022   -0.81593314     0.043065321   -0.69072981    -0.0028847455 
   2057000   0.052702972   -0.81383965     0.043451182   -0.69138502     0.03013788   
   2058000   0.053001495   -0.81395337     0.043511615   -0.6909908      0.031105297  
   2059000   0.05365593    -0.81435859     0.043808953   -0.69011767     0.0051968988 
   2060000   0.054035601   -0.813293       0.045217283   -0.68707461     0.034174086  
   2061000   0.053217757   -0.81310108     0.043470357   -0.68985559     0.058633112  
   2062000   0.053550059   -0.81335066     0.042719372   -0.69035802     0.02418686   
   2063000   0.053230377   -0.81251821     0.042722507   -0.69000165     0.030830488  
   2064000   0.052225087   -0.81380231     0.042721165   -0.69279406    -0.001007744  
   2065000   0.053999869   -0.81131879     0.041457043   -0.68891421     0.029211773  
   2066000   0.051112458   -0.81324144     0.043364371   -0.69325785    -0.010058051  
   2067000   0.052903185   -0.81242825     0.044483117   -0.68864156     0.020273258  
   2068000   0.052410183   -0.8129422      0.043442422   -0.69093522     0.039271846  
   2069000   0.051109926   -0.81244915     0.045540494   -0.69029322     8.8406603e-05
   2070000   0.051984068   -0.81466731     0.042883031   -0.69385849     0.018294946  
   2071000   0.052278318   -0.81542898     0.042927636   -0.69413446     0.0059873969 
   2072000   0.05255872    -0.81306055     0.043651714   -0.69062162     0.00055163388
   2073000   0.053781078   -0.81387904     0.043964786   -0.68929469     0.013629725  
   2074000   0.053550844   -0.81402977     0.04355938    -0.69019595     0.020621742  
   2075000   0.053699304   -0.81367099     0.043663526   -0.68951047     0.01666646   
   2076000   0.053711441   -0.8131576      0.043254279   -0.68938814     0.010361321  
   2077000   0.054854017   -0.81297621     0.044540888   -0.68620739     0.022547591  
   2078000   0.0524338     -0.81448292     0.04426752    -0.69161545     0.013108168  
   2079000   0.052481123   -0.81354327     0.041671584   -0.69320078     0.026075023  
   2080000   0.052233058   -0.81415374     0.045237383   -0.69061732     0.033957303  
   2081000   0.054527805   -0.81513097     0.043514536   -0.6898775      0.031272341  
   2082000   0.050752687   -0.81402708     0.044732364   -0.6932148      0.014797051  
   2083000   0.051430584   -0.81349827     0.041975349   -0.69442682     0.034966166  
   2084000   0.052109829   -0.81387312     0.042702043   -0.69305676    -0.0022681603 
   2085000   0.05005611    -0.81256927     0.040321887   -0.69721166     0.027575123  
   2086000   0.051356969   -0.81396158     0.042318688   -0.69465714     0.019725353  
   2087000   0.052717053   -0.81317466     0.040776407   -0.69337368     0.018829667  
   2088000   0.052213642   -0.81494255     0.045047307   -0.69162531     0.023213652  
   2089000   0.0534817     -0.81584926     0.047213813   -0.68846465     0.017172854  
   2090000   0.052588741   -0.81312112     0.043579575   -0.69070933     0.0015592795 
   2091000   0.053130665   -0.81395382     0.04370877    -0.69060047     0.033969303  
   2092000   0.051651176   -0.81397936     0.044188008   -0.69236457     0.024037061  
   2093000   0.054248468   -0.81254578     0.042439387   -0.68878619     0.026702045  
   2094000   0.050196247   -0.81226753     0.042347655   -0.69467408     0.022372449  
   2095000   0.053007939   -0.81403847     0.044994824   -0.68958303     0.046161744  
   2096000   0.053500763   -0.81354116     0.044751959   -0.68858983     0.020850015  
   2097000   0.051352596   -0.81404776     0.043269222   -0.69379934     0.044496916  
   2098000   0.052281861   -0.81420412     0.042137736   -0.69369418     0.036815529  
   2099000   0.053971894   -0.81367713     0.044309118   -0.6884624      0.034737596  
   2100000   0.052195281   -0.81367846     0.04425976    -0.69117629     0.0091939829 
   2101000   0.051292496   -0.81471909     0.044878443   -0.69295154     0.017293549  
   2102000   0.050885992   -0.81341084     0.045424587   -0.69170651    -0.011816405  
   2103000   0.051683378   -0.81281499     0.044412919   -0.69092702     0.030301345  
   2104000   0.052217253   -0.81299402     0.042910419   -0.69180825     0.027918024  
   2105000   0.054116577   -0.81276447     0.04350219    -0.68813979     0.040281706  
   2106000   0.052875872   -0.81386592     0.044988569   -0.68961471     0.013238541  
   2107000   0.052350372   -0.81423734     0.043498658   -0.69226378    -0.0036568623 
   2108000   0.053226453   -0.81275886     0.04188014    -0.69109056     0.035623072  
   2109000   0.052404121   -0.81334631     0.042014559   -0.69277628     0.058982834  
   2110000   0.053251184   -0.81358009     0.04370316    -0.69005169     0.014454485  
   2111000   0.052316911   -0.81326735     0.043304732   -0.69153788     0.022978472  
   2112000   0.052833221   -0.81344305     0.043967525   -0.69027682     0.0036017657 
   2113000   0.052862237   -0.81119646     0.043972036   -0.68798222     0.048528256  
   2114000   0.05253245    -0.81329061     0.042735133   -0.69180764    -0.021384195  
   2115000   0.052404715   -0.81456321     0.043531613   -0.69247524    -0.016142909  
   2116000   0.052897867   -0.81322554     0.043287904   -0.69064203     0.021980803  
   2117000   0.052321961   -0.81343987     0.045750684   -0.68925688     0.037809131  
   2118000   0.052201483   -0.81447236     0.043003124   -0.69321753     0.016117176  
   2119000   0.051795496   -0.81115211     0.043549375   -0.68995961     0.00012387093
   2120000   0.051007935   -0.81460693     0.045082617   -0.69306177     0.0084223306 
   2121000   0.053574603   -0.81214251     0.041614441   -0.69021801     0.0069799244 
   2122000   0.054233822   -0.81315672     0.0435038     -0.68835467     0.0060357348 
   2123000   0.05270905    -0.81426858     0.045755922   -0.68950009    -0.0050584292 
   2124000   0.055542704   -0.81395684     0.043863634   -0.6868329      0.010715473  
   2125000   0.053638542   -0.81422893     0.043607733   -0.69021529    -0.0019944681 
   2126000   0.051273422   -0.81237713     0.04456325    -0.69095337     0.010011689  
   2127000   0.051557876   -0.81186788     0.045561459   -0.6890195      0.0095463271 
   2128000   0.051478988   -0.81367421     0.041519862   -0.69498568     0.012853503  
   2129000   0.053982836   -0.81328075     0.044707037   -0.6876517      0.028956203  
   2130000   0.050917011   -0.81278459     0.044452705   -0.69200564     0.0084097068 
   2131000   0.052405099   -0.81382333     0.04222259    -0.6930438      0.017034218  
   2132000   0.053701033   -0.81221877     0.043883688   -0.68783551    -0.017339514  
   2133000   0.05375372    -0.81311807     0.042339451   -0.69020006     0.011468787  
   2134000   0.052591721   -0.81348179     0.042896839   -0.69174826     0.0036895354 
   2135000   0.05225322    -0.81323012     0.042168224   -0.69273264     0.044485539  
   2136000   0.05211166    -0.81416131     0.042819528   -0.69322472     0.01763511   
   2137000   0.052502554   -0.81356759     0.043996761   -0.69086781     0.0096475601 
   2138000   0.054439773   -0.81471311     0.04255072    -0.69055541    -0.0054478914 
   2139000   0.053208293   -0.81572924     0.044779024   -0.69118926     0.0099151024 
   2140000   0.054105842   -0.81172928     0.042282249   -0.68834063     0.002000008  
   2141000   0.052605571   -0.81392147     0.044309173   -0.69075484     0.014509366  
   2142000   0.053247706   -0.81323702     0.043694252   -0.68972274     0.0073162578 
   2143000   0.051990849   -0.81335046     0.043015844   -0.69239866     0.012813771  
   2144000   0.052210706   -0.81171826     0.04377573    -0.689677       0.026562219  
   2145000   0.051493429   -0.8135172      0.043447385   -0.6928795      0.016738881  
   2146000   0.054213222   -0.81572113     0.04317987    -0.69127389     0.028109405  
   2147000   0.050721566   -0.81391844     0.042451698   -0.69543348    -0.010733824  
   2148000   0.051419071   -0.81381242     0.044066147   -0.69266742    -0.0073143378 
   2149000   0.053880385   -0.81281262     0.041651664   -0.69039252     0.010426829  
   2150000   0.054285389   -0.81323701     0.041614541   -0.69024692     0.02392752   
   2151000   0.053326813   -0.81388824     0.044089379   -0.68986025    -0.00373539   
   2152000   0.051389608   -0.81289072     0.04356457    -0.69229147    -0.011370033  
   2153000   0.052255426   -0.81383876     0.042237825   -0.69326836     0.0060380819 
   2154000   0.052713505   -0.81225808     0.042833211   -0.69040562     0.021002179  
   2155000   0.051878426   -0.81377691     0.042470175   -0.69353931     0.011941009  
   2156000   0.054299529   -0.81302995     0.042750772   -0.68888243     0.030071636  
   2157000   0.051486844   -0.81354327     0.042954774   -0.69340805     0.033829357  
   2158000   0.052283849   -0.81289321     0.043529342   -0.69098869     0.030044393  
   2159000   0.054055085   -0.81383162     0.044747457   -0.68805384     0.025549353  
   2160000   0.052665151   -0.81279173     0.046117876   -0.6877271      0.0092502533 
   2161000   0.051586387   -0.8127039      0.042441225   -0.69293302     0.0095460194 
   2162000   0.052375101   -0.81405736     0.042132916   -0.69341247     0.008107561  
   2163000   0.052364003   -0.81446019     0.042558052   -0.69340681     0.0026165475 
   2164000   0.05253615    -0.81453312     0.04382367    -0.69195606     0.00088504683
   2165000   0.052612635   -0.81314356     0.043723082   -0.69055244    -0.00095673456
   2166000   0.052287295   -0.81275114     0.043271892   -0.6910989      0.010715236  
   2167000   0.052910745   -0.81183343     0.038577927   -0.69394059     0.034178417  
   2168000   0.052314881   -0.81285914     0.044277258   -0.69016019     0.011008022  
   2169000   0.052012229   -0.81479923     0.043700256   -0.69313096     0.0046105949 
   2170000   0.052987883   -0.81409532     0.042829716   -0.69183506     0.01591298   
   2171000   0.053119049   -0.81443926     0.043323265   -0.69148883     0.018098851  
   2172000   0.052146525   -0.81448481     0.042131097   -0.69418439     0.0063800596 
   2173000   0.051577499   -0.8156227      0.043880957   -0.69442541     0.030788643  
   2174000   0.052692109   -0.81412185     0.042723629   -0.69241105     0.0070635058 
   2175000   0.051446033   -0.81520774     0.042249714   -0.69583876     0.028073638  
   2176000   0.051053441   -0.81587935     0.043063014   -0.69628558     0.011375466  
   2177000   0.053652861   -0.81504465     0.044942781   -0.6896745      0.0052067151 
   2178000   0.053281723   -0.8148136      0.045043163   -0.68989941     0.016393966  
   2179000   0.054107133   -0.81336408     0.042267483   -0.68998826     0.01820571   
   2180000   0.053235133   -0.81463269     0.043097341   -0.69173417     0.023948322  
   2181000   0.054285083   -0.81425757     0.043672642   -0.68920984     0.010184709  
   2182000   0.054393036   -0.81571609     0.042446632   -0.69173255    -0.00012229538
   2183000   0.052838997   -0.81564016     0.043979561   -0.69245324     0.011714836  
   2184000   0.052839779   -0.8161967      0.043443014   -0.69354516    -0.0067085483 
   2185000   0.05257934    -0.81435733     0.042965889   -0.69257332     0.011182851  
   2186000   0.052953057   -0.8154216      0.042472395   -0.69357087    -0.022978652  
   2187000   0.053712788   -0.81536771     0.043983472   -0.69086703     0.001541765  
   2188000   0.052890418   -0.816714       0.042930313   -0.69449925    -0.016950575  
   2189000   0.053555867   -0.81617018     0.043607199   -0.692281       0.003805303  
   2190000   0.052993777   -0.81618594     0.043007659   -0.6937389     -0.00024210278
   2191000   0.051375343   -0.81628015     0.044015629   -0.69525123    -0.0092461875 
   2192000   0.051717897   -0.81607906     0.042967063   -0.6955852      0.016912881  
   2193000   0.052538486   -0.81568829     0.04306192    -0.69386949    -0.00079592159
   2194000   0.052404075   -0.81606615     0.042921537   -0.69458921    -0.017734728  
   2195000   0.053140834   -0.8156412      0.043073918   -0.69290746     0.021248631  
   2196000   0.051331358   -0.81709837     0.042163706   -0.6979873     -0.0021328312 
   2197000   0.053455474   -0.81558911     0.043161193   -0.69229643    -0.022232385  
   2198000   0.05383054    -0.81499845     0.042227506   -0.69207723     0.031400812  
   2199000   0.052832988   -0.81590725     0.04113961    -0.69556929     0.00189121   
   2200000   0.051957457   -0.81712959     0.044096713   -0.69514698    -0.012066711  
   2201000   0.054956787   -0.81780889     0.044202872   -0.69122402     0.02224881   
   2202000   0.053651999   -0.8153569      0.046270925   -0.6886599     -0.0079132775 
   2203000   0.054421951   -0.81693635     0.043215227   -0.69214087    -0.0047472984 
   2204000   0.05110683    -0.8170894      0.044717743   -0.69576087     0.0010387106 
   2205000   0.052592803   -0.81835854     0.045024355   -0.69449588     0.041914423  
   2206000   0.051745348   -0.81830026     0.043513008   -0.69721931     0.010592285  
   2207000   0.05113102    -0.81892613     0.043593199   -0.69868588     0.010471823  
   2208000   0.051716908   -0.81641368     0.04143506    -0.69745331     0.020046273  
   2209000   0.051968865   -0.81694352     0.043293028   -0.69574749     0.011439948  
   2210000   0.052644518   -0.81937413     0.045004107   -0.69545419     0.039985614  
   2211000   0.053367684   -0.81607323     0.044075186   -0.69199817     0.041462869  
   2212000   0.052821551   -0.81412751     0.042813092   -0.69213321     0.021751277  
   2213000   0.051853883   -0.81472633     0.042781186   -0.6942145      0.022950002  
   2214000   0.050713835   -0.81421458     0.044056039   -0.69413687     0.013109691  
   2215000   0.055166429   -0.81601878     0.044857754   -0.68846477    -0.00030319824
   2216000   0.053565689   -0.81499014     0.044282576   -0.69041087     0.0065232559 
   2217000   0.054417015   -0.81518076     0.043256806   -0.69035109     0.0046287409 
   2218000   0.052285827   -0.81557016     0.045372535   -0.69181948     0.013945813  
   2219000   0.053508646   -0.81626103     0.044272749   -0.6917771      0.0057835928 
   2220000   0.05071602    -0.81557918     0.043737285   -0.69581694    -0.0082345232 
   2221000   0.051245862   -0.81673274     0.042726338   -0.6971872      0.017655846  
   2222000   0.055818624   -0.81651004     0.040907754   -0.69192837     0.0042351452 
   2223000   0.05210518    -0.81363879     0.043235447   -0.692296       0.017678159  
   2224000   0.054017916   -0.8148431      0.042914746   -0.69095376     0.050194215  
   2225000   0.05250407    -0.81693584     0.043159959   -0.69507059    -0.0028038034 
   2226000   0.053020095   -0.81453714     0.042960919   -0.69209738     0.0093969608 
   2227000   0.052739915   -0.81721389     0.043742875   -0.69441219     0.014358719  
   2228000   0.052899107   -0.81730001     0.043618443   -0.69438409     0.028097728  
   2229000   0.054159861   -0.81612724     0.044392492   -0.69054737     0.0072603535 
   2230000   0.053532026   -0.81766566     0.041970025   -0.6954494      0.028718977  
   2231000   0.053009702   -0.81480691     0.04471781    -0.69062584     0.0031227578 
  