LAMMPS (22 Jul 2025)
OMP_NUM_THREADS environment is not set. Defaulting to 1 thread.
  using 1 OpenMP thread(s) per MPI task
package omp 0
using multi-threaded neighbor list subroutines
# Input Script of lammps for assembly simulation of polimeric network.
# Main code is based on: https://github.com/PipeB62/Hydrogel-Simulation
# Patchy particles are with bond style.

# Felipe Benavides modified by Fco. Vazquez

# Initialization
units lj
dimension 3
boundary p p p

# Styles of atoms and that stuff
atom_style full
bond_style harmonic
angle_style harmonic
pair_style hybrid/overlay zero 0.0 lj/cut/omp 1.12 table/omp linear 5000000 threebody/table

newton on

# Create simulaiton box
region simulation_box block -$L $L -$L $L -$L $L
region simulation_box block -9.796741 $L -$L $L -$L $L
region simulation_box block -9.796741 9.796741 -$L $L -$L $L
region simulation_box block -9.796741 9.796741 -9.796741 $L -$L $L
region simulation_box block -9.796741 9.796741 -9.796741 9.796741 -$L $L
region simulation_box block -9.796741 9.796741 -9.796741 9.796741 -9.796741 $L
region simulation_box block -9.796741 9.796741 -9.796741 9.796741 -9.796741 9.796741
# N-atom-types region-ID keyword value Is necesesary the extra/special/per/atom (# of special neighbors per atom)
create_box 4 simulation_box     bond/types 1     angle/types 2     extra/bond/per/atom 10     extra/angle/per/atom 6     extra/special/per/atom 10
Created orthogonal box = (-9.796741 -9.796741 -9.796741) to (9.796741 9.796741 9.796741)
  2 by 2 by 2 MPI processor grid

# Atom types
mass 1 1.0      # CL
mass 2 1.0      # MO
mass 3 1.0      # PA
mass 4 1.0      # PB

# Coefficients
include potential.in
# Script with the pair-wise interaction and bonds between particles

bond_coeff 1 100.0 0.45
angle_coeff 1 100.0 180
angle_coeff 2 100.0 109.4712
pair_coeff 1 3 zero 0.5
pair_coeff 1 4 zero 0.5
pair_coeff 2 3 zero 0.5
pair_coeff 2 4 zero 0.5
pair_coeff 3 3 zero 0.5
pair_coeff 1 1 lj/cut/omp 1.0 1.0 1.12
pair_coeff 2 2 lj/cut/omp 1.0 1.0 1.12
pair_coeff 1 2 lj/cut/omp 1.0 1.0 1.12
pair_coeff 3 4 table/omp sysFiles/pachTab.table POT 0.6 # sw/omp sysFiles/patchyPot.sw NULL NULL PA PB
Reading pair table potential file sysFiles/pachTab.table with DATE: 2024-07-08
WARNING: 7 of 1000000 force values in table POT are inconsistent with -dE/dr.
WARNING:  Should only be flagged at inflection points (src/pair_table.cpp:469)
pair_coeff 4 4 table/omp sysFiles/pachTab.table POT 0.6 # sw/omp sysFiles/patchyPot.sw NULL NULL PA PB
Reading pair table potential file sysFiles/pachTab.table with DATE: 2024-07-08
WARNING: 7 of 1000000 force values in table POT are inconsistent with -dE/dr.
WARNING:  Should only be flagged at inflection points (src/pair_table.cpp:469)
pair_coeff * * threebody/table swapMech.3b NULL NULL PA PB
pair_modify pair lj/cut/omp shift yes


# Molecules
include molecules.in
# Script with all molecule information and create groups for computes

# Read the molecule information
molecule CL sysFiles/molecule.patchy.CL
Read molecule template CL:
# Patchy Cross-Linker
  1 molecules
  0 fragments
  0 bodies
  5 atoms with max type 3
  4 bonds with max type 1
  6 angles with max type 2
  0 dihedrals with max type 0
  0 impropers with max type 0
molecule MO sysFiles/molecule.patchy.MO
Read molecule template MO:
# Patchy Monomer
  1 molecules
  0 fragments
  0 bodies
  3 atoms with max type 4
  2 bonds with max type 1
  1 angles with max type 1
  0 dihedrals with max type 0
  0 impropers with max type 0

# Introduce the molecules
# ID style args keyword arg
region spawn_box block -$L $L -$L $L -$L $L
region spawn_box block -9.796741 $L -$L $L -$L $L
region spawn_box block -9.796741 9.796741 -$L $L -$L $L
region spawn_box block -9.796741 9.796741 -9.796741 $L -$L $L
region spawn_box block -9.796741 9.796741 -9.796741 9.796741 -$L $L
region spawn_box block -9.796741 9.796741 -9.796741 9.796741 -9.796741 $L
region spawn_box block -9.796741 9.796741 -9.796741 9.796741 -9.796741 9.796741

# create_atoms type style args keyword values
# style_random: N seed region-ID
# keyword_mol: template-ID seed
# keyword_overlap: overlap value = only insert if at least this distance from all existing atoms
# keyword_maxtry: maxtry value = number of attempts to insert a particle before failure
create_atoms 0 random ${NCL} ${seed1} spawn_box mol CL ${seed1} overlap 1.0 maxtry 5000 #xls
create_atoms 0 random 25 ${seed1} spawn_box mol CL ${seed1} overlap 1.0 maxtry 5000 
create_atoms 0 random 25 3234 spawn_box mol CL ${seed1} overlap 1.0 maxtry 5000 
create_atoms 0 random 25 3234 spawn_box mol CL 3234 overlap 1.0 maxtry 5000 
Created 125 atoms
  using lattice units in orthogonal box = (-9.796741 -9.796741 -9.796741) to (9.796741 9.796741 9.796741)
  create_atoms CPU = 0.009 seconds
create_atoms 0 random ${NMO} ${seed2} spawn_box mol MO ${seed2} overlap 1.0 maxtry 5000 #mon
create_atoms 0 random 475 ${seed2} spawn_box mol MO ${seed2} overlap 1.0 maxtry 5000 
create_atoms 0 random 475 6321 spawn_box mol MO ${seed2} overlap 1.0 maxtry 5000 
create_atoms 0 random 475 6321 spawn_box mol MO 6321 overlap 1.0 maxtry 5000 
Created 1425 atoms
  using lattice units in orthogonal box = (-9.796741 -9.796741 -9.796741) to (9.796741 9.796741 9.796741)
  create_atoms CPU = 0.007 seconds

# Create patchy particles
group CrossLinker type 1 3
125 atoms in group CrossLinker
group Monomer type 2 4
1425 atoms in group Monomer
group Patches type 3 4
1050 atoms in group Patches
group CL type 1
25 atoms in group CL
group MO type 2
475 atoms in group MO
group PA type 3
100 atoms in group PA
group CM type 1 2
500 atoms in group CM

# Neighbor list
neighbor 1.8 bin # extra-distance style
#neigh_modify delay 0 every 1 check no
#neigh_modify exclude molecule/intra CrossLinker
#neigh_modify exclude molecule/intra Monomer

# COMPUTES

# Compute global kinetic and potential energy and temperature
compute t all temp
compute p all pressure t
compute ep all pe
compute ek all ke
variable eT equal etotal
variable eB equal ebond
variable eA equal eangle
variable eM equal emol
variable ec equal ecouple
variable eC equal econserve

# Potencial energy per pair-wise interaction
compute wcaPair all pair lj/cut/omp epair
compute patchPair all pair table/omp epair
compute swapPair all pair threebody/table epair

# Compute the pressure
compute press all pressure t ke virial
compute pressVirial all pressure t virial
compute pressVirialMod all pressure t pair bond angle

# Computes for the stress
compute cstress all stress/atom t ke pair bond angle
compute cstressVirial all stress/atom t virial
compute cstressVirialMod all stress/atom t pair bond angle
compute stress all reduce sum c_cstress[*]
compute stressVirial all reduce sum c_cstressVirial[*]
compute stressVirialMod all reduce sum c_cstressVirialMod[*]

# Displacement of the central particles
compute disp CM displace/atom
compute redDisp CM reduce ave c_disp[*] # All, because yes

# Get the number of central particles per cluster
compute clusters all aggregate/atom 0.6                             # Create the clusters
compute Nclpart CM chunk/atom c_clusters compress yes discard yes   # Get the number of clusters
compute clsize CM property/chunk Nclpart count                      # Counts the atoms in each chunk
compute idcl CM property/chunk Nclpart id                           # Get the ids of the clusters

# DUMPS and FIXES

thermo ${NsaveStress}
thermo 1000

# Save global energies and temperature
fix Energy all ave/time 1 ${Nsave} ${Nsave} c_t c_wcaPair c_patchPair c_swapPair c_ep c_ek v_eT v_ec v_eC c_p v_eB v_eA v_eM c_redDisp[*] file ${Dir}/${file1_name}
fix Energy all ave/time 1 1000 ${Nsave} c_t c_wcaPair c_patchPair c_swapPair c_ep c_ek v_eT v_ec v_eC c_p v_eB v_eA v_eM c_redDisp[*] file ${Dir}/${file1_name}
fix Energy all ave/time 1 1000 1000 c_t c_wcaPair c_patchPair c_swapPair c_ep c_ek v_eT v_ec v_eC c_p v_eB v_eA v_eM c_redDisp[*] file ${Dir}/${file1_name}
fix Energy all ave/time 1 1000 1000 c_t c_wcaPair c_patchPair c_swapPair c_ep c_ek v_eT v_ec v_eC c_p v_eB v_eA v_eM c_redDisp[*] file /home/franvt/GitRepos/molDynLammps/polymericGels/gel-bonds-1/data/0.050.30.05500-2026-01-21-133721/${file1_name}
fix Energy all ave/time 1 1000 1000 c_t c_wcaPair c_patchPair c_swapPair c_ep c_ek v_eT v_ec v_eC c_p v_eB v_eA v_eM c_redDisp[*] file /home/franvt/GitRepos/molDynLammps/polymericGels/gel-bonds-1/data/0.050.30.05500-2026-01-21-133721/system_assembly.fixf

# Save Pressure and Stress tensor
fix fixStress5 all ave/time 1 ${NsaveStress} ${NsaveStress} c_p c_press[*] c_pressVirial[*] c_pressVirialMod[*] c_stress[*] c_stressVirial[*] c_stressVirialMod[*] file ${Dir}/${file2_name}
fix fixStress5 all ave/time 1 1000 ${NsaveStress} c_p c_press[*] c_pressVirial[*] c_pressVirialMod[*] c_stress[*] c_stressVirial[*] c_stressVirialMod[*] file ${Dir}/${file2_name}
fix fixStress5 all ave/time 1 1000 1000 c_p c_press[*] c_pressVirial[*] c_pressVirialMod[*] c_stress[*] c_stressVirial[*] c_stressVirialMod[*] file ${Dir}/${file2_name}
fix fixStress5 all ave/time 1 1000 1000 c_p c_press[*] c_pressVirial[*] c_pressVirialMod[*] c_stress[*] c_stressVirial[*] c_stressVirialMod[*] file /home/franvt/GitRepos/molDynLammps/polymericGels/gel-bonds-1/data/0.050.30.05500-2026-01-21-133721/${file2_name}
fix fixStress5 all ave/time 1 1000 1000 c_p c_press[*] c_pressVirial[*] c_pressVirialMod[*] c_stress[*] c_stressVirial[*] c_stressVirialMod[*] file /home/franvt/GitRepos/molDynLammps/polymericGels/gel-bonds-1/data/0.050.30.05500-2026-01-21-133721/stress_assembly.fixf

# Save the global cluster information
fix 1 CM ave/time 1 1 ${Ndump} c_idcl c_clsize file ${Dir}/${file3_name} mode vector
fix 1 CM ave/time 1 1 1000 c_idcl c_clsize file ${Dir}/${file3_name} mode vector
fix 1 CM ave/time 1 1 1000 c_idcl c_clsize file /home/franvt/GitRepos/molDynLammps/polymericGels/gel-bonds-1/data/0.050.30.05500-2026-01-21-133721/${file3_name} mode vector
fix 1 CM ave/time 1 1 1000 c_idcl c_clsize file /home/franvt/GitRepos/molDynLammps/polymericGels/gel-bonds-1/data/0.050.30.05500-2026-01-21-133721/clust_assembly.fixf mode vector

# Save atom positions with cluster id
dump dumpID all custom ${Ndump} ${Dir}/traj/${file5_name} id mol c_clusters type x y z vx vy vz
dump dumpID all custom 1000 ${Dir}/traj/${file5_name} id mol c_clusters type x y z vx vy vz
dump dumpID all custom 1000 /home/franvt/GitRepos/molDynLammps/polymericGels/gel-bonds-1/data/0.050.30.05500-2026-01-21-133721/traj/${file5_name} id mol c_clusters type x y z vx vy vz
dump dumpID all custom 1000 /home/franvt/GitRepos/molDynLammps/polymericGels/gel-bonds-1/data/0.050.30.05500-2026-01-21-133721/traj/traj_assembly.*.dumpf id mol c_clusters type x y z vx vy vz
dump_modify dumpID pbc yes # remap atoms via periodic boundary conditions

# RUN SIMULATION

# Brownian Dynamics using Langevin Thermostat

timestep ${tstep}
timestep 0.001

fix VelVerlet all nve # Use Velocity Verlet integrator

# First elevate the temperature
fix ThermoLng all langevin 0.0 ${temp} ${damp} ${seed3} tally yes zero no # Brownian Dynamics: langevin + nve
fix ThermoLng all langevin 0.0 0.05 ${damp} ${seed3} tally yes zero no 
fix ThermoLng all langevin 0.0 0.05 1 ${seed3} tally yes zero no 
fix ThermoLng all langevin 0.0 0.05 1 2010 tally yes zero no 
run ${stepsheat}
run 500000
WARNING: Using a manybody potential with bonds/angles/dihedrals and special_bond exclusions (src/pair.cpp:250)
Hybrid pair style last /omp style table/omp
Last active /omp style is angle_style harmonic/omp
Neighbor list info ...
  update: every = 1 steps, delay = 0 steps, check = yes
  max neighbors/atom: 2000, page size: 100000
  master list distance cutoff = 2.92
  ghost atom cutoff = 2.92
  binsize = 1.46, bins = 14 14 14
  7 neighbor lists, perpetual/occasional/extra = 6 1 0
  (1) pair zero, perpetual, skip from (7)
      attributes: half, newton on, omp
      pair build: skip/omp
      stencil: none
      bin: none
  (2) pair lj/cut/omp, perpetual, skip from (7)
      attributes: half, newton on, omp
      pair build: skip/omp
      stencil: none
      bin: none
  (3) pair table/omp, perpetual, skip from (7)
      attributes: half, newton on, omp
      pair build: skip/omp
      stencil: none
      bin: none
  (4) pair threebody/table, perpetual, skip from (6)
      attributes: full, newton on, omp
      pair build: skip/omp
      stencil: none
      bin: none
  (5) compute aggregate/atom, occasional, copy from (6)
      attributes: full, newton on, omp
      pair build: copy
      stencil: none
      bin: none
  (6) neighbor class addition, perpetual
      attributes: full, newton on, omp
      pair build: full/bin/omp
      stencil: full/bin/3d
      bin: standard
  (7) neighbor class addition, perpetual, half/full from (6)
      attributes: half, newton on, omp
      pair build: halffull/newton/omp
      stencil: none
      bin: none
Per MPI rank memory allocation (min/avg/max) = 20.03 | 20.03 | 20.03 Mbytes
   Step          Temp          E_pair         E_mol          TotEng         Press     
         0   0              0.00041490155  0.15480456     0.15521947    -0.21361809   
      1000   0.038128318    0              0.00013757075  0.057293149    0.0036255378 
      2000   0.0001553194   8.543009e-08   0.020977048    0.021209962    0.06836934   
      3000   0.0053605035   0              0.0001566732   0.0081922409   0.0024773727 
      4000   0.00032052098  0              0.0030278828   0.0035083541  -0.026562142  
      5000   0.0011105973   0              0.00027894739  0.0019437685  -0.00052598729
      6000   0.00052872688  0              0.00073390716  0.0015264858   0.0095531356 
      7000   0.00072927609  0              0.00040823029  0.0015014387  -1.2916085e-05
      8000   0.00072585491  0              0.00053299756  0.0016210775  -0.0032624547 
      9000   0.00081810771  1.3387704e-06  0.00052435466  0.0017520633   2.5567647e-06
     10000   0.00090272886  0              0.00060061031  0.00195383     0.0011494198 
     11000   0.0010201009   0              0.00066288446  0.0021920487  -0.00042247179
     12000   0.0011061632   0              0.00072884252  0.0023870168  -0.00024501148
     13000   0.0012001304   0              0.00078137006  0.0025804043   0.00057647913
     14000   0.0013260643   0              0.00085482435  0.0028426375   0.00081248246
     15000   0.0014119989   0              0.00096232635  0.0030789583  -0.00010765636
     16000   0.001535233    0              0.0010154688   0.0033168325  -0.00081754593
     17000   0.0016028884   4.7441589e-08  0.0010642477   0.0034670765   0.00030998609
     18000   0.001761206    0              0.0011497192   0.0037898237   0.0012944977 
     19000   0.0018432559   0              0.0012059735   0.0039690735   5.8014435e-05
     20000   0.0019092078   0              0.0012946994   0.0041566635  -0.0004458358 
     21000   0.0019928468   5.7799363e-07  0.0013610759   0.0043489956   0.00069973867
     22000   0.0021307457  -3.6672612e-09  0.0014649008   0.0046589537   0.00056709826
     23000   0.0025735969  -0.0015218821   0.0017283014   0.0040643241   0.00012611167
     24000   0.0024460339  -0.0016039619   0.0016864538   0.0037491756  -0.00025320026
     25000   0.0024684046  -0.0016016608   0.0016795706   0.003778128   -0.00025311389
     26000   0.0025122593  -0.001589946    0.001707866    0.0038838777   0.00073926743
     27000   0.003059753   -0.0031177114   0.002012252    0.0034812091   0.00066144898
     28000   0.0028744488  -0.0031717398   0.0020047545   0.0031419063   7.292593e-05 
     29000   0.0028250763  -0.003210074    0.0020204298   0.0030452362  -3.2013521e-05
     30000   0.0029586756  -0.0032123605   0.0020655468   0.0032883364   0.00016649409
     31000   0.003102151   -0.0032078802   0.0022673204   0.0037096648   0.00022022235
     32000   0.0032251426  -0.004139441    0.0021639363   0.0028590882   0.0011425176 
     33000   0.0033106147  -0.0048356386   0.0022191945   0.0023462742   0.00046933401
     34000   0.0034242329  -0.0048064176   0.0022292744   0.0025558924   0.00082004433
     35000   0.0033390042  -0.0048069904   0.0023892171   0.0025875018  -0.00020417673
     36000   0.0034887525  -0.0048385658   0.0023932307   0.0027844175   0.00017502983
     37000   0.0040807335  -0.0064241659   0.0028401122   0.0025330974   0.00024022972
     38000   0.0038661699  -0.0063784925   0.0026222091   0.00203923     0.00087589097
     39000   0.0050262804  -0.0094439598   0.0030641535   0.0011547501   0.00040701702
     40000   0.0040565885  -0.0094615097   0.0029640309  -0.00041652182 -0.00011135644
     41000   0.0040800984  -0.0096173745   0.0028677911  -0.00063338419  0.00030131406
     42000   0.0043573341  -0.0110681      0.0031080772  -0.0014282383   0.0013636407 
     43000   0.0041663046  -0.011088285    0.002885346   -0.0019575134   0.00040473915
     44000   0.004787039   -0.012489864    0.0032134367  -0.0021005016  -0.00037962583
     45000   0.0046470182  -0.012800731    0.0030789043  -0.0027557964   0.00069740058
     46000   0.0046750572  -0.012890548    0.0030772104  -0.0028052757  -0.00029404444
     47000   0.0055680896  -0.014145429    0.0034054174  -0.0023932656  -0.00065158766
     48000   0.0051770036  -0.014481024    0.0033600823  -0.0033604461   0.0017578118 
     49000   0.0049473003  -0.01529084     0.0036206013  -0.0042540758   0.002459839  
     50000   0.0051617937  -0.016060118    0.0033839357  -0.0049384874   0.00067531486
     51000   0.0060526315  -0.018518201    0.0037569644  -0.0056881472   0.00082142607
     52000   0.0057402022  -0.019146012    0.0038733167  -0.0066679467  -0.00042409425
     53000   0.0053518059  -0.019122752    0.0036494777  -0.0074507444  -0.00023706157
     54000   0.0053884576  -0.019302425    0.0036123453  -0.0076126076  -0.0002493152 
     55000   0.0054397362  -0.01931962     0.0036693316  -0.0074959482   0.00074747542
     56000   0.0054105097  -0.019324432    0.0038734592  -0.007340444    0.0013987397 
     57000   0.0055061322  -0.019312671    0.0036945703  -0.0073642305   0.0010860479 
     58000   0.0057668845  -0.020767811    0.0042849057  -0.0078381594  -0.00054263523
     59000   0.0063220148  -0.023315919    0.0045152534  -0.0093237619   0.00030372781
     60000   0.0072038714  -0.025563658    0.0044906584  -0.010274164    0.0010540371 
     61000   0.0071080404  -0.027589245    0.0048429271  -0.012091136    0.00049998514
     62000   0.0067414756  -0.030146141    0.0048432965  -0.015197156   -0.00013814254
     63000   0.0064212682  -0.030379765    0.0043930029  -0.016361073    0.00094915402
     64000   0.0075637185  -0.036139694    0.005129775   -0.019671661    0.00020276551
     65000   0.0072777132  -0.03914699     0.0052120075  -0.023025456    0.001656499  
     66000   0.0071593007  -0.040004288    0.0046005368  -0.024671729    0.0004733857 
     67000   0.0067983502  -0.040082606    0.0046209882  -0.025270672   -0.00028178156
     68000   0.0069702489  -0.040239498    0.0047151027  -0.025075768    0.00023854663
     69000   0.0070103661  -0.041593512    0.0050554402  -0.026029307    0.00078452178
     70000   0.0075676525  -0.046009454    0.0056167791  -0.029048519    0.00025924906
     71000   0.0080106279  -0.047888888    0.004781959   -0.03109874     1.6246481e-05
     72000   0.0079264295  -0.050957349    0.0055875966  -0.033487779    0.0023604212 
     73000   0.0083642732  -0.054358339    0.0057899053  -0.036030118    0.0017932649 
     74000   0.0079005286  -0.054280875    0.0051576842  -0.037280044   -0.00086955007
     75000   0.0085613956  -0.055574493    0.0052906961  -0.037449989   -0.00060955254
     76000   0.0078260307  -0.055715975    0.0054401137  -0.038544389   -0.00050323335
     77000   0.0076669074  -0.055861787    0.0052358428  -0.039133003    0.00042690537
     78000   0.0078587706  -0.055992739    0.0054434084  -0.03876878     0.0015405124 
     79000   0.0083173657  -0.057389925    0.0057388513  -0.039183075   -0.00023671199
     80000   0.0084081536  -0.057964235    0.0059512931  -0.039408849    0.00042535498
     81000   0.0087641525  -0.060379269    0.0059657061  -0.041275815    0.0014720792 
     82000   0.0094459575  -0.063051182    0.006291783   -0.042599604   -0.00074654384
     83000   0.0086472869  -0.065164728    0.00602687    -0.046175296   -0.00023846942
     84000   0.009199538   -0.066764137    0.0059204692  -0.047053264    0.0016777712 
     85000   0.0088718552  -0.067123107    0.006171694   -0.047652216    0.0013274618 
     86000   0.0090739723  -0.068661559    0.0066723232  -0.048387059   -0.00044600661
     87000   0.0092746203  -0.070149663    0.0069639421  -0.049282765    0.00043087755
     88000   0.0098980256  -0.072023669    0.0062248401  -0.050961369   -0.00052688475
     89000   0.0092168066  -0.0720402      0.0063412065  -0.051882703    0.0018171324 
     90000   0.0090390777  -0.072133743    0.0063281985  -0.052255675   -0.00014712378
     91000   0.0090695083  -0.072149706    0.0062650307  -0.05228919     3.4453358e-05
     92000   0.010890887   -0.078762476    0.0079836503  -0.054453035   -0.00064423948
     93000   0.010540057   -0.080964005    0.0069947822  -0.058169336   -0.0012726345 
     94000   0.01082992    -0.085589344    0.0080199381  -0.061335007   -0.0022984935 
     95000   0.010384096   -0.088308021    0.0071975019  -0.065544424   -7.3429732e-05
     96000   0.01021528    -0.089697276    0.0069171888  -0.067467054    0.0026447459 
     97000   0.010356637   -0.092341079    0.0070102597  -0.069805887   -0.00058532735
     98000   0.010183065   -0.094176653    0.0068755768  -0.072036333   -0.0014542168 
     99000   0.009894471   -0.094536693    0.0068318292  -0.072872733    4.2613603e-07
    100000   0.010927518   -0.098550946    0.0071999603  -0.074970283    0.0014690641 
    101000   0.011325339   -0.10057359     0.0070604053  -0.07653614     0.0023092444 
    102000   0.010943755   -0.10218403     0.0069997374  -0.078779254   -0.0017278911 
    103000   0.010608176   -0.10379804     0.0073215923  -0.08057445    -0.00034328163
    104000   0.010988132   -0.10805691     0.0086855358  -0.082899814   -9.954112e-05 
    105000   0.011916537   -0.11142057     0.0077934816  -0.085763815   -0.00038909396
    106000   0.011943045   -0.11220258     0.0080153207  -0.086284248    0.00067782175
    107000   0.011185228   -0.11334688     0.0077433955  -0.088836463   -0.00013195438
    108000   0.011049893   -0.11491496     0.0074183686  -0.090932449   -0.00089828138
    109000   0.010634406   -0.11529259     0.0073846768  -0.091966591    0.0023399218 
    110000   0.010594262   -0.11531088     0.0073448641  -0.09208488     0.0011836037 
    111000   0.010957836   -0.1154352      0.0076269637  -0.091382089   -0.00083193467
    112000   0.011134567   -0.11553447     0.0074832994  -0.091360099    0.00012887777
    113000   0.012274283   -0.11809006     0.0075379551  -0.09215256     0.0022316736 
    114000   0.012146566   -0.12211545     0.0083173026  -0.09559005     0.0025095667 
    115000   0.0126121     -0.12383394     0.0083109993  -0.096616996   -0.0030088669 
    116000   0.012567627   -0.12638213     0.0085303749  -0.099012481   -0.0012471002 
    117000   0.01163274    -0.1272944      0.0090583348  -0.10079822     0.0022469728 
    118000   0.012183231   -0.12930494     0.0086784611  -0.10236342     0.003221706  
    119000   0.012772264   -0.13053997     0.0083981592  -0.10299577     0.0021874771 
    120000   0.012129278   -0.13230717     0.0089445617  -0.10518043    -0.0029183822 
    121000   0.012578366   -0.13205005     0.00829416    -0.10490052     0.0018766511 
    122000   0.012331756   -0.132485       0.0084562489  -0.10554305    -0.00076858872
    123000   0.013510156   -0.13412246     0.008844235   -0.10502607     0.00031630033
    124000   0.012493551   -0.13379201     0.0083624056  -0.10670137    -0.0016372632 
    125000   0.013347797   -0.13783232     0.0094050073  -0.10841853     0.00072055801
    126000   0.013582547   -0.14180588     0.0090600864  -0.11238512    -0.00047686644
    127000   0.013308489   -0.14357652     0.008810439   -0.11481623    -0.00047294936
    128000   0.012878965   -0.14383014     0.009079667   -0.11544449    -0.00022248265
    129000   0.013588199   -0.14804077     0.0093091585  -0.11836246     0.00065198181
    130000   0.013632079   -0.14999806     0.0096729409  -0.11989019    -5.0308319e-05
    131000   0.013750755   -0.15016417     0.0091012968  -0.12045005    -8.8462614e-05
    132000   0.01338955    -0.15149996     0.0099347894  -0.1214938     -0.0026255916 
    133000   0.014236313   -0.15300747     0.0093641795  -0.1223026      0.001650872  
    134000   0.013771211   -0.15306879     0.0092520463  -0.12317326     0.0015072085 
    135000   0.013923824   -0.15300842     0.0092476478  -0.12288852    -0.00063591863
    136000   0.015096809   -0.15719822     0.010308506   -0.12425911    -0.0010094275 
    137000   0.01468261    -0.15914635     0.0096046417  -0.12753201     0.0015438206 
    138000   0.015332349   -0.16177068     0.0096025724  -0.12918442     0.0021670163 
    139000   0.014585174   -0.16491327     0.010875394   -0.13217423     0.00033636069
    140000   0.014272155   -0.16870443     0.010300795   -0.13700921     0.00072274496
    141000   0.014542991   -0.16973947     0.010942222   -0.13699683    -0.0004060064 
    142000   0.016054339   -0.17633016     0.010917722   -0.14134647     0.00054018612
    143000   0.014978853   -0.17835274     0.010653474   -0.14524548     0.0032974773 
    144000   0.014575097   -0.17977942     0.010269757   -0.14766112     0.00028641121
    145000   0.015502366   -0.18182364     0.010151893   -0.1484332      0.00072944483
    146000   0.015468637   -0.18214297     0.010070248   -0.14888474     0.00021969119
    147000   0.014923177   -0.18320371     0.010935227   -0.14989816    -0.00019865131
    148000   0.015485035   -0.18325964     0.010351254   -0.14969581     0.0018502432 
    149000   0.015762969   -0.1854783      0.010372041   -0.15147706     0.0029291009 
    150000   0.015262796   -0.18775702     0.010564048   -0.15431354     0.00096052267
    151000   0.016502229   -0.19289841     0.011295494   -0.15686554    -0.00052757915
    152000   0.015975887   -0.19525601     0.011531379   -0.15977626    -0.00020676038
    153000   0.016476839   -0.19731937     0.010869103   -0.16175096     6.0060756e-05
    154000   0.016503778   -0.20057495     0.010826885   -0.16500837     0.0029006776 
    155000   0.015434652   -0.20064074     0.010364612   -0.16713909     0.0011046147 
    156000   0.016477544   -0.20199078     0.010745672   -0.16654474     0.0029409374 
    157000   0.015792848   -0.20214434     0.01083717    -0.16763318    -0.001333785  
    158000   0.015943044   -0.20338197     0.011067944   -0.16841489     0.00088747502
    159000   0.016195118   -0.20492875     0.010817104   -0.16983464    -0.0007681168 
    160000   0.015726287   -0.2060822      0.010905203   -0.17160279     0.0020121032 
    161000   0.016412889   -0.20679817     0.010818323   -0.17137639    -0.0025676206 
    162000   0.017371451   -0.21043187     0.011941664   -0.17244984     0.00086372854
    163000   0.01710178    -0.21208694     0.011387513   -0.17506331     0.005330089  
    164000   0.017577439   -0.21523384     0.011632675   -0.17725201     0.0017624606 
    165000   0.016803151   -0.21557835     0.011376331   -0.17901356     0.0029154422 
    166000   0.016713637   -0.21598925     0.011497531   -0.17943744     0.0049026029 
    167000   0.01717307    -0.21720831     0.012216911   -0.17924841    -5.7118179e-05
    168000   0.017425942   -0.21975499     0.01181236    -0.18182058    -0.0008796433 
    169000   0.018259652   -0.22300686     0.013288911   -0.18234614    -0.0012608598 
    170000   0.018884054   -0.22841321     0.012078642   -0.18802676     0.0013166432 
    171000   0.018211715   -0.23085154     0.012224572   -0.19132703     0.0036160785 
    172000   0.018019011   -0.23323755     0.011863564   -0.19436291     0.0013142232 
    173000   0.018478601   -0.23594171     0.012387191   -0.1958545      0.0025353753 
    174000   0.019309915   -0.24025314     0.013742846   -0.1975641      0.0010179731 
    175000   0.018610772   -0.24230556     0.013091335   -0.20131608     0.0019307204 
    176000   0.017938363   -0.24289694     0.012467679   -0.20353908     0.0018256842 
    177000   0.018240111   -0.24297328     0.012047335   -0.20358343     0.0040611566 
    178000   0.017949874   -0.24317555     0.012265848   -0.20400226     0.0028642484 
    179000   0.018559814   -0.24467225     0.012319516   -0.20453097     0.003530029  
    180000   0.018505918   -0.24482423     0.012592519   -0.20449075    -0.00093024195
    181000   0.018292738   -0.24476084     0.012719613   -0.20461982     0.0030244899 
    182000   0.018185471   -0.24456925     0.012643684   -0.20466496     0.0016444048 
    183000   0.017911758   -0.2447534      0.011970755   -0.20593235     0.00090132606
    184000   0.018675953   -0.2485372      0.012884454   -0.20765689     0.0012733129 
    185000   0.018354448   -0.24890673     0.012584037   -0.20880878     0.0040096297 
    186000   0.018517559   -0.24965728     0.012924192   -0.20897467     0.0013193882 
    187000   0.018439126   -0.25067403     0.013227949   -0.20980523    -0.00011068297
    188000   0.019415765   -0.2514874      0.0132999     -0.20908264     0.001718903  
    189000   0.018977225   -0.2520795      0.013588735   -0.21004329     0.0010613898 
    190000   0.019257167   -0.25493343     0.012724968   -0.21334135     0.0030966102 
    191000   0.020079118   -0.25760768     0.013382079   -0.21412636    -9.5853782e-05
    192000   0.019858512   -0.25859704     0.013447874   -0.21538061     0.00096237137
    193000   0.019100638   -0.26040803     0.013435794   -0.21833977     0.0070556802 
    194000   0.019879298   -0.26159057     0.013719989   -0.21807087     0.0033821334 
    195000   0.019869262   -0.26189253     0.013549479   -0.21855839     0.00091613547
    196000   0.019449136   -0.26294751     0.013994998   -0.21979763     0.0016216911 
    197000   0.020408878   -0.26607077     0.013322378   -0.22215483     0.0029456269 
    198000   0.020921082   -0.26974        0.013955289   -0.22442334    -0.0010935249 
    199000   0.019556379   -0.26993481     0.013076007   -0.22754316     0.0019439993 
    200000   0.020469512   -0.27244966     0.013748806   -0.2280164      0.0012983646 
    201000   0.021781662   -0.27708804     0.015229039   -0.22920759     0.00035483881
    202000   0.021712404   -0.27873098     0.014382946   -0.23180044     0.00065098104
    203000   0.022887506   -0.28593389     0.015317361   -0.23630742     0.0019276001 
    204000   0.022623627   -0.28792615     0.014112951   -0.23989966     0.00094880292
    205000   0.020784073   -0.28858716     0.014525378   -0.24290579     0.0030038232 
    206000   0.021529641   -0.29246914     0.014758052   -0.24543746    -0.0031293421 
    207000   0.021486609   -0.29395433     0.013956887   -0.24778832     0.0019000899 
    208000   0.022486866   -0.29694044     0.015192917   -0.24803899     0.00072528829
    209000   0.021446415   -0.29894719     0.015022415   -0.25177591     0.0033501889 
    210000   0.021367527   -0.3003227      0.01412729    -0.2541648      0.00213095   
    211000   0.021072462   -0.30065971     0.014427448   -0.25464397     0.0019421535 
    212000   0.021757994   -0.30362155     0.015995358   -0.25501026    -0.002219559  
    213000   0.022709924   -0.30823297     0.015529602   -0.25866046     0.00090537312
    214000   0.021642799   -0.30857682     0.015542251   -0.26059131     0.0024104642 
    215000   0.02226404    -0.30999628     0.014971652   -0.26165012     0.0014454572 
    216000   0.021669534   -0.31005889     0.014341775   -0.26323378    -0.0019136242 
    217000   0.022338283   -0.31295547     0.015274415   -0.26419525     0.0038534243 
    218000   0.022893955   -0.3174454      0.016697338   -0.26642929     0.0030470504 
    219000   0.023220606   -0.31970361     0.015636324   -0.26925885     0.0051133912 
    220000   0.02328918    -0.32301843     0.015310788   -0.27279641     0.0034387204 
    221000   0.024963219   -0.32511606     0.014789148   -0.27290625     0.0044551    
    222000   0.022055944   -0.32468344     0.0160687     -0.27555217     0.0028910399 
    223000   0.023382413   -0.32640912     0.016437312   -0.27492082     0.0012749018 
    224000   0.02334455    -0.32860095     0.015511766   -0.27809495     0.0022035385 
    225000   0.022964841   -0.33007367     0.016119132   -0.2795295      0.00081223331
    226000   0.023181257   -0.33307716     0.015609658   -0.28271805     0.0024109821 
    227000   0.022984886   -0.33336916     0.015608668   -0.28330541    -0.0022667893 
    228000   0.023499307   -0.33769283     0.01618604    -0.28628057     0.001523978  
    229000   0.024650982   -0.34237465     0.016593508   -0.28882852     0.001493343  
    230000   0.024647094   -0.34478952     0.015964534   -0.29187819     0.0011098397 
    231000   0.023759637   -0.34557137     0.016534944   -0.29341997     0.0027266321 
    232000   0.024120219   -0.34921898     0.016629072   -0.29643292     0.0078896944 
    233000   0.023228894   -0.35111654     0.017285509   -0.29901017     0.0061474141 
    234000   0.025324937   -0.35354666     0.017247387   -0.29833638     0.0039730007 
    235000   0.024851002   -0.35504602     0.017252196   -0.30054137     0.0012150974 
    236000   0.023861785   -0.35482295     0.01661021    -0.30244315     0.003404089  
    237000   0.023973144   -0.35480352     0.016512639   -0.30235437     0.00021115858
    238000   0.023276608   -0.35511322     0.01624988    -0.30397095     0.003426427  
    239000   0.023659902   -0.35636021     0.017178648   -0.30371461     0.0049450246 
    240000   0.024754611   -0.3595442      0.016393245   -0.306043       0.00082344601
    241000   0.024757508   -0.35944097     0.017370758   -0.3049579      0.0015166171 
    242000   0.0245179     -0.36329954     0.017837129   -0.30870928     0.002651237  
    243000   0.025512285   -0.36825794     0.017367468   -0.31264673     0.011460698  
    244000   0.025708306   -0.36963549     0.017741383   -0.31335653     0.0068782594 
    245000   0.026677231   -0.37107338     0.01603596    -0.31504739     0.006235631  
    246000   0.02525188    -0.37397804     0.017909932   -0.31821473     0.0041112757 
    247000   0.025892135   -0.37411981     0.016512405   -0.31879427     0.0080441784 
    248000   0.025516792   -0.37598592     0.018040224   -0.3196952      0.0078628908 
    249000   0.02497463    -0.37732659     0.017160504   -0.32272831     0.0061133456 
    250000   0.026325784   -0.37955701     0.017814613   -0.3222792      0.0023256137 
    251000   0.026291419   -0.3822596      0.017632578   -0.32521533     0.00052180513
    252000   0.027459943   -0.38664704     0.017901145   -0.32758255     0.0055195741 
    253000   0.027618189   -0.3904437      0.018374605   -0.33066854    -0.0015497709 
    254000   0.025895768   -0.39095884     0.017916834   -0.33422342     0.00038100252
    255000   0.026375824   -0.39100845     0.018055621   -0.33341462     0.0031851008 
    256000   0.026742496   -0.39149829     0.017958458   -0.33345197     0.001762166  
    257000   0.025918815   -0.39149466     0.018034222   -0.3346073      0.004192847  
    258000   0.025844074   -0.39444707     0.018806866   -0.33689911     0.0042081767 
    259000   0.025689506   -0.39554703     0.018330167   -0.33870746    -0.00104076   
    260000   0.026048616   -0.39534076     0.017891156   -0.33840189     0.0054301719 
    261000   0.026661505   -0.39712442     0.017553408   -0.33960455    -0.001365302  
    262000   0.02620626    -0.3973721      0.01767742    -0.34041066     0.0053742871 
    263000   0.025596764   -0.39760788     0.018285422   -0.34095208     0.0085710634 
    264000   0.027474609   -0.39829464     0.019004299   -0.33810502     0.0061632747 
    265000   0.026317418   -0.39887277     0.017808559   -0.34161356     0.004267688  
    266000   0.026568025   -0.40144264     0.017624392   -0.34399192    -0.00086913222
    267000   0.026943049   -0.40432259     0.018890042   -0.34504405     0.003138647  
    268000   0.02756661    -0.40671463     0.018729161   -0.34666223     0.0046911015 
    269000   0.026958271   -0.40701236     0.019178228   -0.34742282     0.0027105349 
    270000   0.027462886   -0.40657147     0.018543392   -0.34686032     0.0039760281 
    271000   0.026561658   -0.40670378     0.018550108   -0.34833689     0.0040016805 
    272000   0.02583353    -0.40685766     0.018529415   -0.34960295     0.0030328941 
    273000   0.029671725   -0.41029109     0.017893326   -0.34791889     0.0047578355 
    274000   0.027446043   -0.4113288      0.018378154   -0.35180814     0.0054156301 
    275000   0.028788611   -0.41541116     0.020921421   -0.35133469     0.0016263774 
    276000   0.028970401   -0.41754005     0.021709051   -0.35240343     0.0047203409 
    277000   0.028199232   -0.41863195     0.019604544   -0.35675585     0.0039241409 
    278000   0.02861123    -0.41893642     0.018883051   -0.35716421     0.0061749936 
    279000   0.027628062   -0.41940718     0.020531214   -0.35746061     0.00053841223
    280000   0.028521859   -0.42070585     0.018927389   -0.35902328     0.0030889704 
    281000   0.028074752   -0.42039833     0.019379308   -0.35893406     0.0017879031 
    282000   0.028179781   -0.42300805     0.019114163   -0.36165149     0.0067001982 
    283000   0.029023486   -0.42459691     0.020218924   -0.36087085     0.0014885257 
    284000   0.029322043   -0.42639534     0.019302466   -0.36313819     0.0043535011 
    285000   0.02759078    -0.42686356     0.019938963   -0.36556512     0.00010066507
    286000   0.028167193   -0.4269728      0.020366728   -0.36438254     0.0052119319 
    287000   0.027553415   -0.42771333     0.019787835   -0.36662203    -0.0027507244 
    288000   0.028409209   -0.42959749     0.020115087   -0.36689608     0.0018164331 
    289000   0.029732806   -0.43258602     0.020973181   -0.36704241     0.0072658445 
    290000   0.029232567   -0.43397361     0.019795996   -0.37035705     0.0066856122 
    291000   0.028577005   -0.43415466     0.019050089   -0.37226672     0.0066208461 
    292000   0.029568783   -0.4362332      0.019946581   -0.37196206    -0.0025103791 
    293000   0.028511115   -0.43781038     0.020905819   -0.37416548     0.00052795362
    294000   0.028877317   -0.43792507     0.020385368   -0.37425167     0.0010473649 
    295000   0.031102165   -0.43899209     0.020955144   -0.3714138      0.0015841607 
    296000   0.030981705   -0.44077905     0.02092906    -0.37340741     0.0068479087 
    297000   0.031183766   -0.44354368     0.021954542   -0.37484367     0.006076083  
    298000   0.031180654   -0.44634283     0.020441055   -0.37916097     0.0063829442 
    299000   0.030551977   -0.44711296     0.020868882   -0.38044568     0.0025967284 
    300000   0.030321492   -0.44915098     0.021872244   -0.38182584     0.0091781413 
    301000   0.03056159    -0.44872099     0.020763599   -0.38214458     0.0020422389 
    302000   0.031088758   -0.44952984     0.021641563   -0.38128522     0.0063508406 
    303000   0.031092381   -0.45081154     0.020281663   -0.3839214      0.0014846483 
    304000   0.030190412   -0.45216379     0.021008238   -0.38589915     0.0057860624 
    305000   0.030143767   -0.45202879     0.020018773   -0.38682353     0.003431217  
    306000   0.029506848   -0.45408138     0.022019735   -0.38782993     0.0077987818 
    307000   0.031786067   -0.45654593     0.022944485   -0.3859531      0.0093849847 
    308000   0.031611934   -0.45828314     0.021833495   -0.38906234     0.0058160035 
    309000   0.031611029   -0.4577712      0.022772777   -0.38761247     0.006531952  
    310000   0.031893832   -0.45980796     0.022782895   -0.38921518     0.0054655358 
    311000   0.032272897   -0.46055556     0.021852273   -0.39032517     0.006611393  
    312000   0.031684532   -0.46085109     0.022271489   -0.39108347     0.0024171881 
    313000   0.032071224   -0.46406553     0.023345611   -0.39264412     0.0044043298 
    314000   0.031771343   -0.46669045     0.024139813   -0.39492437    -0.0035562486 
    315000   0.032062218   -0.46767249     0.021662044   -0.39794815     0.00020302145
    316000   0.032965897   -0.46930829     0.021932263   -0.39795908     0.00013981221
    317000   0.031960863   -0.47119494     0.022601247   -0.40068333     0.0067115086 
    318000   0.032866339   -0.4715544      0.021796861   -0.40048984     0.0053866407 
    319000   0.032967622   -0.47353099     0.023314504   -0.40079696     0.00052013713
    320000   0.033938236   -0.47854381     0.023827764   -0.40384154     0.0009339086 
    321000   0.03340458    -0.4798245      0.022460909   -0.40728905     0.0020554771 
    322000   0.033038478   -0.48222208     0.021741675   -0.41095466    -0.010874602  
    323000   0.033276785   -0.48220196     0.022534356   -0.40978463     0.00091233728
    324000   0.03435763    -0.48299112     0.021905409   -0.40958252     0.0018692855 
    325000   0.033642852   -0.48263823     0.02323774    -0.40896877     0.00047875189
    326000   0.031740841   -0.4822478      0.02295912    -0.41170814     0.0096312988 
    327000   0.032074966   -0.48281263     0.022669663   -0.41206155    -0.0022974246 
    328000   0.032546338   -0.48281233     0.021935571   -0.41208875     0.0018640039 
    329000   0.034435275   -0.48540251     0.023604457   -0.41017847     0.00049650946
    330000   0.03540026    -0.48813212     0.02342868    -0.41163731     0.005933207  
    331000   0.034397913   -0.48972637     0.023494481   -0.41466831     0.0044701698 
    332000   0.035238289   -0.49406858     0.024802266   -0.41644298     0.0018410664 
    333000   0.034312342   -0.49567099     0.024036072   -0.42019961    -0.0015739662 
    334000   0.035392813   -0.49766884     0.023976541   -0.42063733     0.0049770587 
    335000   0.035320232   -0.50035865     0.02418658    -0.42322591     0.0067390966 
    336000   0.03372548    -0.50128389     0.023524124   -0.42720418    -0.002725381  
    337000   0.034574827   -0.50149369     0.023961603   -0.42570331     0.0032012541 
    338000   0.035859375   -0.50268788     0.025098782   -0.42383473    -0.0034471664 
    339000   0.032888673   -0.50256041     0.024336647   -0.42892258     0.0056552434 
    340000   0.033992016   -0.50320308     0.022556648   -0.4296913     -0.0075690137 
    341000   0.034673086   -0.50294806     0.023897956   -0.42707403     0.0013920589 
    342000   0.03483199    -0.50304927     0.023482772   -0.42735222     0.0081278274 
    343000   0.034601776   -0.5058535      0.023639564   -0.43034476    -0.0011300966 
    344000   0.035358206   -0.50629481     0.024274748   -0.42901698     0.0022947353 
    345000   0.034257211   -0.50661956     0.024048359   -0.43121854     0.00289884   
    346000   0.036164434   -0.50716619     0.024142489   -0.42881205     0.0015952553 
    347000   0.035994376   -0.50886549     0.024127008   -0.43078175     0.011007243  
    348000   0.035124894   -0.5086555      0.023810786   -0.43219136     0.0032190048 
    349000   0.035942418   -0.5115927      0.024926232   -0.43278763    -0.0038481851 
    350000   0.035331878   -0.51191556     0.024668804   -0.43428313     0.0072676421 
    351000   0.035798525   -0.51168479     0.023900656   -0.43412099     0.009145004  
    352000   0.034234979   -0.51172939     0.02429615    -0.4361139     -0.003041096  
    353000   0.035190661   -0.51294684     0.0237571     -0.43643781     0.0074082933 
    354000   0.035816946   -0.51289294     0.02509507    -0.43410711    -0.0037322185 
    355000   0.036239306   -0.51487644     0.025739798   -0.43481276     0.0055984019 
    356000   0.036349454   -0.51563799     0.025117461   -0.43603153    -0.0025150261 
    357000   0.034751303   -0.51643205     0.025940043   -0.43839868     0.0055592048 
    358000   0.036412745   -0.51676565     0.023802773   -0.438379       0.014615241  
    359000   0.036053937   -0.51867155     0.025948449   -0.43867708     0.0042296639 
    360000   0.037398913   -0.5193413      0.024639546   -0.43863958     0.00019095477
    361000   0.038033329   -0.51897851     0.025633228   -0.4363321     -0.0019198688 
    362000   0.036712393   -0.52033739     0.02523405    -0.44007028     0.0059132399 
    363000   0.036638276   -0.52062439     0.025962247   -0.43974018     0.016591578  
    364000   0.036880666   -0.52317067     0.025114546   -0.44277082     0.0092247091 
    365000   0.036767261   -0.52383285     0.02468865    -0.44402889    -0.0014659444 
    366000   0.03783584    -0.52276794     0.025701899   -0.4403489     -0.0027370209 
    367000   0.039157071   -0.52469278     0.025426805   -0.44056826     0.0050237934 
    368000   0.037664276   -0.52431449     0.025726337   -0.44212819     0.00098673769
    369000   0.037225514   -0.52421399     0.026366648   -0.4420451      0.006563833  
    370000   0.036879454   -0.52674971     0.025579041   -0.44588718     0.0043942828 
    371000   0.037164238   -0.52681293     0.024966452   -0.44613608    -0.001445457  
    372000   0.038099429   -0.52748405     0.024731881   -0.44563989    -0.0038029573 
    373000   0.037808054   -0.52768559     0.026289559   -0.44472053     0.0073598038 
    374000   0.036680392   -0.5274757      0.025488924   -0.44700168     0.0082293933 
    375000   0.038008962   -0.52827042     0.026007196   -0.44528656     0.0025008622 
    376000   0.036788474   -0.52819511     0.026064583   -0.44698342     0.0051706498 
    377000   0.037182007   -0.52842197     0.025887095   -0.44679784     0.00047905208
    378000   0.038732183   -0.52940274     0.026414903   -0.44492705     0.0036085908 
    379000   0.039176448   -0.53136226     0.026192997   -0.44644251     0.0036440727 
    380000   0.038613363   -0.53377475     0.025372632   -0.45051944     0.0046460323 
    381000   0.038589469   -0.53437357     0.027029005   -0.44949771     0.0023901039 
    382000   0.03925676    -0.53754238     0.027031143   -0.45166408     0.0098852526 
    383000   0.038869218   -0.53697786     0.026023128   -0.45268852     0.01109052   
    384000   0.038177426   -0.53913068     0.027713      -0.45418849     0.010963276  
    385000   0.039708909   -0.53876114     0.025946818   -0.45328939     0.0056334344 
    386000   0.039034556   -0.54054798     0.02765217    -0.45438175     0.0040815446 
    387000   0.038953049   -0.54273925     0.027954898   -0.45639248     0.0054345362 
    388000   0.037921945   -0.54369431     0.026414735   -0.46043335     0.0049710551 
    389000   0.037811682   -0.54459031     0.027500074   -0.4604093      0.010686539  
    390000   0.040357736   -0.54342658     0.026708427   -0.4562206      0.016727732  
    391000   0.038696424   -0.54194638     0.027914008   -0.45602519     0.011322375  
    392000   0.037958766   -0.54235567     0.025996199   -0.45945806     0.017621312  
    393000   0.0390834     -0.54239936     0.026113213   -0.45769887     0.014468906  
    394000   0.03957483    -0.54438488     0.027353824   -0.45770711     0.011409401  
    395000   0.038762846   -0.54463003     0.028649226   -0.45787405     0.017631094  
    396000   0.038930248   -0.54524531     0.028664429   -0.45822318     0.013815804  
    397000   0.041654757   -0.54721673     0.028227442   -0.45654747     0.019856092  
    398000   0.041092379   -0.54787582     0.027732424   -0.45854459     0.015865513  
    399000   0.039064225   -0.55025084     0.02858065    -0.46311165     0.010128146  
    400000   0.040679203   -0.55103565     0.028409531   -0.46164668     0.014559991  
    401000   0.041454508   -0.55310848     0.028017931   -0.4629489      0.015124647  
    402000   0.041086229   -0.55281325     0.028390111   -0.46283356     0.010142698  
    403000   0.040673585   -0.55427618     0.027880891   -0.46542427     0.0086856317 
    404000   0.040019671   -0.55706393     0.02748043    -0.46959272     0.0022997606 
    405000   0.043521475   -0.55899093     0.027114456   -0.46663637     0.013820243  
    406000   0.042028157   -0.55876792     0.029089617   -0.46667674     0.0077985878 
    407000   0.041504132   -0.55907418     0.028294332   -0.46856381     0.0018674658 
    408000   0.041444928   -0.55873532     0.028067802   -0.46854024     0.0046034038 
    409000   0.041586474   -0.55979345     0.030309541   -0.46714444     0.0069011742 
    410000   0.042535338   -0.56158591     0.029603094   -0.46822097     0.010023673  
    411000   0.041531748   -0.56169928     0.030036448   -0.4694054      0.0056835871 
    412000   0.040925106   -0.56171671     0.028773972   -0.47159468     0.0065536409 
    413000   0.04088083    -0.56181531     0.027411907   -0.47312172     0.0010933962 
    414000   0.041988335   -0.56452166     0.029650271   -0.47192952     0.0021228852 
    415000   0.04274025    -0.56425123     0.030264804   -0.46991741     0.0054341852 
    416000   0.040344462   -0.5669726      0.028259261   -0.47823569     0.0046586898 
    417000   0.041045428   -0.56646004     0.030091786   -0.47483983     0.0090952332 
    418000   0.042412639   -0.56623721     0.028031436   -0.47462786     0.013991622  
    419000   0.042983709   -0.56773118     0.029863353   -0.47343387     0.018197881  
    420000   0.042891385   -0.57175536     0.030831443   -0.47662835     0.029877255  
    421000   0.044437517   -0.57266624     0.028413979   -0.47763899     0.0092516975 
    422000   0.044262512   -0.57458359     0.030332435   -0.47790022     0.017139587  
    423000   0.04438487    -0.5748437      0.029413949   -0.4788954      0.015499829  
    424000   0.043368083   -0.57629577     0.030050445   -0.48123517     0.014456432  
    425000   0.042897251   -0.57630311     0.030372048   -0.4816267      0.0059444932 
    426000   0.043251942   -0.57723224     0.030329181   -0.482067       0.0016779882 
    427000   0.043898032   -0.57820266     0.029520903   -0.48287719     0.0083923625 
    428000   0.046188535   -0.58074001     0.029120512   -0.4823814      0.0037734058 
    429000   0.042854802   -0.58243169     0.03164993    -0.48654103     0.006861577  
    430000   0.043735499   -0.58223845     0.031511025   -0.4851665      0.0019353417 
    431000   0.045442224   -0.58469325     0.031225433   -0.48534845     0.0093671756 
    432000   0.043464619   -0.58351093     0.031721091   -0.48663497    -0.0018665431 
    433000   0.044976455   -0.58540669     0.029740932   -0.4882446      0.0052579038 
    434000   0.0425343     -0.5859033      0.030390771   -0.49175224     0.0087055857 
    435000   0.042130216   -0.58581334     0.02865735    -0.49400143    -0.0010110115 
    436000   0.042921869   -0.58625404     0.029328079   -0.49258469     0.006289522  
    437000   0.043479915   -0.58596405     0.030759158   -0.4900271      0.0099385497 
    438000   0.044030806   -0.58698261     0.030160133   -0.49081888     0.0057711433 
    439000   0.04432568    -0.58901099     0.029807826   -0.49275754     0.0079513864 
    440000   0.045290053   -0.58890088     0.02970157    -0.49130806     0.0068984984 
    441000   0.044638546   -0.58976601     0.03170643    -0.49114496    -0.0021020066 
    442000   0.042896526   -0.59180197     0.031460992   -0.4960377      0.0028871868 
    443000   0.044319505   -0.59272668     0.03165715    -0.49463316     0.013176636  
    444000   0.043270232   -0.59274166     0.031401414   -0.49647677     0.013892614  
    445000   0.043648717   -0.59246578     0.029449373   -0.49758558     0.006510097  
    446000   0.044159521   -0.59161319     0.030806994   -0.49460965     0.012270955  
    447000   0.045617247   -0.59267446     0.030386625   -0.49390611     0.013092932  
    448000   0.044036931   -0.59165644     0.030082568   -0.49556109     0.016964284  
    449000   0.045912416   -0.59235321     0.032302037   -0.49122698     0.0097901044 
    450000   0.044600926   -0.59288691     0.032484656   -0.49354402     0.024178925  
    451000   0.046994919   -0.59364767     0.031154796   -0.49204597     0.0072155206 
    452000   0.046385085   -0.5961173      0.032205164   -0.4943794      0.017932771  
    453000   0.045550173   -0.59576678     0.032011354   -0.49547425     0.010527977  
    454000   0.04562558    -0.59704498     0.031947727   -0.49670304     0.0081439574 
    455000   0.046128377   -0.59728256     0.031427044   -0.49670759     0.021079421  
    456000   0.046088069   -0.59729713     0.030742341   -0.49746729     0.00087556838
    457000   0.044627721   -0.60180955     0.032690552   -0.50222061     0.0059732135 
    458000   0.048520411   -0.60090432     0.032460693   -0.49570996     0.0013139657 
    459000   0.045730297   -0.60074249     0.032064126   -0.50012717     0.008287028  
    460000   0.04587746    -0.60128192     0.032981262   -0.49952886     0.0084145478 
    461000   0.046429425   -0.60212864     0.033593689   -0.49893574     0.015456275  
    462000   0.047152063   -0.60287725     0.031877201   -0.50031759     0.010952621  
    463000   0.046265291   -0.60333167     0.033010059   -0.50096845     0.021071056  
    464000   0.047121805   -0.60405143     0.031184849   -0.50222948     0.022186458  
    465000   0.046286047   -0.60314501     0.03219048    -0.50157025     0.021493895  
    466000   0.047654697   -0.60397477     0.034092828   -0.49844601     0.008224976  
    467000   0.047293861   -0.60456108     0.035974521   -0.49769153     0.011824132  
    468000   0.047644599   -0.6025136      0.033593559   -0.49749925     0.010983577  
    469000   0.047049424   -0.60251406     0.035003916   -0.49698154     0.021851842  
    470000   0.047040406   -0.60271103     0.031919485   -0.50027646     0.011579301  
    471000   0.049186916   -0.60289718     0.032824664   -0.49633974     0.014820154  
    472000   0.048050553   -0.60532671     0.034474356   -0.49882302     0.012699337  
    473000   0.049346239   -0.6085498      0.034201787   -0.50037641     0.0081831066 
    474000   0.048467431   -0.60812821     0.032395213   -0.50307876     0.0058634955 
    475000   0.048314167   -0.60942549     0.032757925   -0.50424308     0.014610544  
    476000   0.047730783   -0.61147846     0.03319025    -0.50673823    -0.0034386737 
    477000   0.04923145    -0.61360108     0.035047222   -0.50475433     0.0070913115 
    478000   0.050109418   -0.61579874     0.033665005   -0.5070181      0.0028445516 
    479000   0.05043404    -0.61602111     0.034126294   -0.50629256     0.014357359  
    480000   0.049970442   -0.61828876     0.033192902   -0.51018856     0.012242335  
    481000   0.049542609   -0.618583       0.033784575   -0.51053246     0.0099453405 
    482000   0.048434035   -0.61941276     0.03353678    -0.5132718      0.012049756  
    483000   0.049656412   -0.62032724     0.035327156   -0.51056352     0.0032359717 
    484000   0.04875679    -0.62067772     0.033566292   -0.51402342     0.01010909   
    485000   0.050795104   -0.62369206     0.035108133   -0.51244043     0.0072444792 
    486000   0.049643533   -0.62478321     0.03657478    -0.51379117     0.0060207559 
    487000   0.050779524   -0.62863385     0.037067573   -0.51544614     0.016463466  
    488000   0.049208477   -0.62918104     0.035878892   -0.51953705     0.017397828  
    489000   0.04774245    -0.62914385     0.032567933   -0.52500844     0.011071482  
    490000   0.050098108   -0.62915974     0.033732176   -0.52032888     0.0084763994 
    491000   0.049468696   -0.62929994     0.033181162   -0.52196361     0.0029742623 
    492000   0.049501617   -0.62956626     0.035902585   -0.51945915     0.0030291612 
    493000   0.051608409   -0.62980283     0.03360439    -0.51883577     0.013005842  
    494000   0.049151086   -0.63013436     0.036544016   -0.51991128     0.0024914557 
    495000   0.048593344   -0.63035798     0.035354463   -0.52216052    -0.0047549114 
    496000   0.049861906   -0.63065165     0.03571807    -0.52018897     0.0064401984 
    497000   0.051158129   -0.63184        0.036034905   -0.51911741    -0.00056341183
    498000   0.050673695   -0.6314765      0.037859694   -0.51765531     0.010652124  
    499000   0.051148864   -0.63107303     0.035917484   -0.51848174     0.014880524  
    500000   0.050493806   -0.63094086     0.035369723   -0.5198793      0.0059610213 
Loop time of 124.671 on 8 procs for 500000 steps with 1550 atoms

Performance: 346512.588 tau/day, 4010.562 timesteps/s, 6.216 Matom-step/s
92.2% CPU use with 8 MPI tasks x 1 OpenMP threads

MPI task timing breakdown:
Section |  min time  |  avg time  |  max time  |%varavg| %total
---------------------------------------------------------------
Pair    | 14.043     | 15.221     | 16.952     |  26.5 | 12.21
Bond    | 4.9454     | 5.3241     | 5.7977     |  13.2 |  4.27
Neigh   | 0.044897   | 0.045292   | 0.045605   |   0.1 |  0.04
Comm    | 11.969     | 14.183     | 15.817     |  36.3 | 11.38
Output  | 0.39032    | 0.41046    | 0.43214    |   2.2 |  0.33
Modify  | 87.824     | 88.025     | 88.29      |   1.4 | 70.61
Other   |            | 1.463      |            |       |  1.17

Nlocal:         193.75 ave         213 max         179 min
Histogram: 3 0 0 1 0 2 0 0 1 1
Nghost:        609.375 ave         667 max         543 min
Histogram: 1 1 0 1 1 0 0 2 1 1
Neighs:              0 ave           0 max           0 min
Histogram: 8 0 0 0 0 0 0 0 0 0
FullNghs:       3155.5 ave        3884 max        2604 min
Histogram: 2 1 1 0 0 2 0 0 1 1

Total # of neighbors = 25244
Ave neighs/atom = 16.286452
Ave special neighs/atom = 2.1612903
Neighbor list builds = 177
Dangerous builds = 0

unfix ThermoLng

# Now we let the system to create the polymeric network
fix ThermoLng all langevin ${temp} ${temp} ${damp} ${seed3} tally yes zero no # Brownian Dynamics: langevin + nve
fix ThermoLng all langevin 0.05 ${temp} ${damp} ${seed3} tally yes zero no 
fix ThermoLng all langevin 0.05 0.05 ${damp} ${seed3} tally yes zero no 
fix ThermoLng all langevin 0.05 0.05 1 ${seed3} tally yes zero no 
fix ThermoLng all langevin 0.05 0.05 1 2010 tally yes zero no 
run ${steps}
run 5000000
WARNING: Using a manybody potential with bonds/angles/dihedrals and special_bond exclusions (src/pair.cpp:250)
Hybrid pair style last /omp style table/omp
Last active /omp style is angle_style harmonic/omp
Per MPI rank memory allocation (min/avg/max) = 24.03 | 24.04 | 24.04 Mbytes
   Step          Temp          E_pair         E_mol          TotEng         Press     
    500000   0.050493806   -0.63094086     0.035369723   -0.5198793      0.00068438568
    501000   0.04864942    -0.63160077     0.036891284   -0.52178243     0.004706289  
    502000   0.050682692   -0.63295552     0.033504742   -0.52347579     0.0082105923 
    503000   0.050563067   -0.63155223     0.036165861   -0.5195907      0.012553669  
    504000   0.052148649   -0.63328066     0.036337754   -0.5187704      0.015186073  
    505000   0.051224359   -0.63420685     0.035696952   -0.52172293     0.015649831  
    506000   0.05218955    -0.63479923     0.036649284   -0.51991613     0.011346181  
    507000   0.050468563   -0.63480915     0.034775307   -0.52437984     0.01373323   
    508000   0.050384274   -0.63525578     0.034077486   -0.52565064     0.0053616976 
    509000   0.050382188   -0.637326       0.035875662   -0.52592581     0.0043070688 
    510000   0.049092773   -0.63878948     0.032838126   -0.53235971    -0.0049576895 
    511000   0.049558372   -0.64081321     0.035477803   -0.53104581     6.0487629e-05
    512000   0.048652899   -0.64239963     0.035751992   -0.53371537     0.0008516134 
    513000   0.050664251   -0.64272615     0.034831652   -0.53194715     0.0084601169 
    514000   0.047880751   -0.64443428     0.034664569   -0.53799492     0.0086819415 
    515000   0.050213415   -0.64497447     0.03456655    -0.53513639     0.0067980116 
    516000   0.049778394   -0.6459202      0.034385473   -0.53691531     0.0011960105 
    517000   0.050702346   -0.64614545     0.036190825   -0.53395017     0.0086108053 
    518000   0.053081051   -0.64690738     0.037548331   -0.52978884     0.018096313  
    519000   0.051471289   -0.64767107     0.036345367   -0.53416858     0.013073688  
    520000   0.051638172   -0.64776332     0.037065801   -0.53329023     0.017197492  
    521000   0.050149405   -0.6466983      0.036598935   -0.53492379     0.015774958  
    522000   0.049822376   -0.64836027     0.035839182   -0.53783574     0.018961895  
    523000   0.052168161   -0.64970658     0.033779518   -0.53772531     0.019570882  
    524000   0.050109089   -0.64826769     0.034878235   -0.53827432     0.016559977  
    525000   0.051052656   -0.64889336     0.035780119   -0.53658367     0.017629654  
    526000   0.050903279   -0.65008359     0.034556483   -0.53922145     0.014061219  
    527000   0.051046749   -0.65119746     0.036947564   -0.53772917     0.02529272   
    528000   0.050732927   -0.65006638     0.037051637   -0.53696445     0.026030211  
    529000   0.051749237   -0.65073418     0.034342992   -0.53881742     0.021407991  
    530000   0.052030809   -0.65227911     0.035827664   -0.53845558     0.030728317  
    531000   0.050508333   -0.65192765     0.036156824   -0.5400572      0.020514982  
    532000   0.052545392   -0.65239829     0.037102059   -0.53652899     0.010643636  
    533000   0.050143824   -0.65231316     0.034239599   -0.54290635     0.0033087204 
    534000   0.050841608   -0.65307044     0.036229257   -0.54062798     0.016464688  
    535000   0.050806758   -0.65333194     0.036607863   -0.54056311     0.020000214  
    536000   0.050767644   -0.65339914     0.037101587   -0.54019521     0.0085998454 
    537000   0.050571639   -0.65564325     0.037905207   -0.54192952    -0.004122674  
    538000   0.051632411   -0.65562765     0.036992766   -0.54123623    -0.0025497528 
    539000   0.051068481   -0.65750278     0.035813488   -0.54513599     0.005303126  
    540000   0.05074415    -0.65954806     0.035687286   -0.54779365     0.0070752297 
    541000   0.048673839   -0.66207348     0.03668447    -0.55242536     0.016190769  
    542000   0.052249321   -0.66178487     0.035089136   -0.54837232     0.011434478  
    543000   0.051633236   -0.66158366     0.03584161    -0.54834216     0.025482837  
    544000   0.050054594   -0.66202677     0.035739259   -0.55125406     0.0068904035 
    545000   0.052129824   -0.66363096     0.036561325   -0.54892535     0.013424834  
    546000   0.050210544   -0.66280052     0.036847185   -0.55068611     0.0076968547 
    547000   0.050502042   -0.66327867     0.037065038   -0.55050944     0.019249574  
    548000   0.051808624   -0.66379049     0.034882554   -0.55124514     0.0015307048 
    549000   0.05002356    -0.66370858     0.033738003   -0.55498365     0.0062199623 
    550000   0.051353949   -0.66433263     0.034279669   -0.55307173     0.0036492709 
    551000   0.050081612   -0.66685211     0.036457887   -0.55532027     0.020792174  
    552000   0.04999452    -0.66615964     0.035630283   -0.55558596     0.003874863  
    553000   0.052012109   -0.66693695     0.035170704   -0.55379842     0.02023229   
    554000   0.051968761   -0.6675807      0.036229005   -0.55344884     0.014211589  
    555000   0.050566746   -0.66821028     0.035126236   -0.55728286     0.024294082  
    556000   0.051366857   -0.66853        0.035839256   -0.55569017     0.014477199  
    557000   0.050046      -0.66814439     0.033457216   -0.5596666      0.011674665  
    558000   0.050971774   -0.66889823     0.036725935   -0.55576397     0.015985825  
    559000   0.05191797    -0.66918843     0.036677928   -0.55468379     0.016635076  
    560000   0.050962537   -0.67035078     0.036478002   -0.55747829     0.015719411  
    561000   0.049807207   -0.66969225     0.035640641   -0.55938899     0.0041268772 
    562000   0.051933697   -0.66975899     0.034133657   -0.55777505     0.011197974  
    563000   0.050647143   -0.66889074     0.033788468   -0.55918057     0.011478875  
    564000   0.049279593   -0.66942698     0.033498227   -0.56205706    -0.00059347803
    565000   0.050852699   -0.6694734      0.034861089   -0.55838247     0.0017859696 
    566000   0.050130746   -0.67152479     0.036014702   -0.56036249     0.0040552118 
    567000   0.050679736   -0.67114385     0.03606024    -0.55911305     0.01504694   
    568000   0.05218409    -0.67294802     0.035198744   -0.55952364     0.0063144325 
    569000   0.052314119   -0.67272407     0.035306897   -0.55899662     0.011143699  
    570000   0.051071857   -0.67394599     0.035926707   -0.56146092    -0.0051014012 
    571000   0.050004675   -0.67548092     0.036387495   -0.5641348      0.011204453  
    572000   0.050241987   -0.67518752     0.034705813   -0.56516735     0.0073164815 
    573000   0.051316705   -0.67497554     0.034525054   -0.56352509     0.003190126  
    574000   0.053683571   -0.67578695     0.035584862   -0.55972869     0.0062667672 
    575000   0.049303079   -0.67423854     0.036709263   -0.56362237     0.019937548  
    576000   0.049782924   -0.67527419     0.035672798   -0.56497518     0.0060057793 
    577000   0.051827485   -0.67439172     0.035318845   -0.5613818      0.014184032  
    578000   0.052449934   -0.67458678     0.036130722   -0.55983191     0.020877411  
    579000   0.050620712   -0.67509798     0.034693046   -0.56452286     0.0097174881 
    580000   0.050342092   -0.67580723     0.035230544   -0.56511227     0.010146277  
    581000   0.048703484   -0.67535252     0.034875744   -0.56746868     0.015114783  
    582000   0.050764106   -0.67689213     0.034991763   -0.56580334     0.0080490634 
    583000   0.049250648   -0.67588764     0.035001264   -0.56705806     0.0032121605 
    584000   0.050094938   -0.67689548     0.034713371   -0.56708818     0.011884537  
    585000   0.050157454   -0.67596939     0.0356454     -0.56513635     0.0079264784 
    586000   0.049683601   -0.67744454     0.035600175   -0.56736705     0.021728399  
    587000   0.048960547   -0.67667263     0.034344085   -0.56893511     0.020575452  
    588000   0.050483744   -0.67768071     0.035948502   -0.56605545     0.019036318  
    589000   0.048411688   -0.67720988     0.036903163   -0.56773604     0.010407557  
    590000   0.050488735   -0.67991735     0.035870502   -0.56836261     0.0025641835 
    591000   0.050903231   -0.68280619     0.036711994   -0.56978861     0.013183834  
    592000   0.050959254   -0.68274874     0.036804803   -0.56955437     0.013451312  
    593000   0.051626415   -0.6836592      0.036104273   -0.57016527     0.012055323  
    594000   0.0516623     -0.68463496     0.036929537   -0.57026197     0.019885423  
    595000   0.05047449    -0.6827897      0.034705766   -0.57242105     0.018056278  
    596000   0.050353121   -0.68322043     0.036402407   -0.57133707     0.018358724  
    597000   0.052088413   -0.68468633     0.033669836   -0.57293428     0.015494707  
    598000   0.051027861   -0.68425036     0.035106355   -0.5726516      0.013066265  
    599000   0.051178857   -0.68570005     0.03688711    -0.57209419     0.028679355  
    600000   0.054366513   -0.6871403      0.036520936   -0.56912221     0.011979695  
    601000   0.05212706    -0.68841787     0.038855631   -0.5714221      0.010842797  
    602000   0.051758952   -0.6880638      0.03503854    -0.57543692     0.013599336  
    603000   0.049797161   -0.68853155     0.034960933   -0.57892307     0.015016441  
    604000   0.049500861   -0.68976621     0.035364205   -0.58019861     0.0095439033 
    605000   0.051057904   -0.69039647     0.034828428   -0.5790306      0.0020117127 
    606000   0.050902992   -0.68876249     0.036426722   -0.57603054     0.017236748  
    607000   0.052830206   -0.68950831     0.034820807   -0.57549332     0.010431093  
    608000   0.051547086   -0.68872565     0.036220474   -0.57523443     0.011240279  
    609000   0.049260048   -0.68934412     0.035674241   -0.57982748     0.019094232  
    610000   0.050922305   -0.68939324     0.033327863   -0.5797312      0.016738603  
    611000   0.050833702   -0.69043822     0.035486036   -0.57875082     0.016333721  
    612000   0.050626827   -0.69074509     0.036819202   -0.57803464     0.016439605  
    613000   0.051040643   -0.69089136     0.035239505   -0.57914028     0.020270666  
    614000   0.050212104   -0.69128072     0.035303167   -0.58070799     0.022539056  
    615000   0.051487437   -0.69203071     0.036280402   -0.57856898     0.0091207173 
    616000   0.051579596   -0.6937861      0.037768771   -0.57869785     0.01868168   
    617000   0.051371288   -0.69344366     0.035679744   -0.5807567      0.017428695  
    618000   0.049554507   -0.69287569     0.036223661   -0.58236822     0.024410745  
    619000   0.049418953   -0.6933938      0.036160629   -0.58315257     0.016269686  
    620000   0.050256167   -0.69284977     0.034679458   -0.5828347     -0.00059905808
    621000   0.050281977   -0.69269961     0.0358818     -0.58144351     0.0063438976 
    622000   0.051371856   -0.69258726     0.036274614   -0.57930458    -0.00071718852
    623000   0.050971971   -0.6936593      0.036718281   -0.58053239     0.014730181  
    624000   0.050783824   -0.69426295     0.034167889   -0.58396847     0.0060763855 
    625000   0.050458095   -0.69308275     0.035064123   -0.58238032    -0.00073992031
    626000   0.050017503   -0.69399351     0.037603079   -0.58141258     0.0014173033 
    627000   0.051524102   -0.69360921     0.035539501   -0.58083342     0.0056864913 
    628000   0.048887757   -0.69377097     0.036687663   -0.58379899     0.0029391897 
    629000   0.049152091   -0.69363138     0.035289413   -0.5846614      0.002701549  
    630000   0.050423507   -0.6938401      0.036283837   -0.5819698     -0.0062008014 
    631000   0.050975877   -0.69320254     0.03638886    -0.5803992      0.0076792507 
    632000   0.049947946   -0.6930051      0.035733188   -0.58239833    -0.0085328314 
    633000   0.050508845   -0.69340864     0.035132682   -0.58256157    -0.00026990065
    634000   0.052284932   -0.69270632     0.036726999   -0.57760252     0.0074488096 
    635000   0.052366412   -0.69373586     0.035672767   -0.57956416     0.0011794904 
    636000   0.049382481   -0.69332285     0.035459386   -0.58383753    -0.0030747773 
    637000   0.051048748   -0.69205725     0.035682082   -0.57985144     0.016643336  
    638000   0.051808606   -0.69434422     0.03447081    -0.58221064     0.0042252356 
    639000   0.049814256   -0.69475478     0.036621063   -0.58346054     0.0042282394 
    640000   0.050257697   -0.69453118     0.035685239   -0.58350803     0.018032155  
    641000   0.049380388   -0.69395361     0.037214936   -0.58271588     0.0061457576 
    642000   0.052108124   -0.6956417      0.033849143   -0.5836808     -0.0010606697 
    643000   0.05142005    -0.69595067     0.034666468   -0.58420389     0.019737812  
    644000   0.050795018   -0.69695568     0.034678585   -0.58613372     0.013708626  
    645000   0.050308798   -0.69622266     0.036010174   -0.58479797     0.020911541  
    646000   0.049787056   -0.69617191     0.035130227   -0.58640928     0.018423322  
    647000   0.049957201   -0.69623893     0.036050238   -0.58530124     0.0096555821 
    648000   0.050078561   -0.69598378     0.035152599   -0.5857618      0.012436855  
    649000   0.049496274   -0.69660711     0.036274878   -0.58613572     0.010229316  
    650000   0.050493533   -0.69485655     0.035139353   -0.58402576     0.013813278  
    651000   0.049537229   -0.69644307     0.035401691   -0.58678347     0.013236679  
    652000   0.052164351   -0.69715734     0.036154704   -0.58280659     0.0040821488 
    653000   0.051971073   -0.69688003     0.037296911   -0.5816768      0.0015520693 
    654000   0.050590457   -0.69712236     0.037944962   -0.58334067     0.0098187773 
    655000   0.050473784   -0.69938795     0.036894324   -0.58683179     0.014735434  
    656000   0.050541011   -0.69969336     0.035805636   -0.58812512     0.013194709  
    657000   0.049948001   -0.70011432     0.035038395   -0.59020226     0.0094512383 
    658000   0.051283279   -0.6984663      0.034279639   -0.58731137    -0.0070594528 
    659000   0.050933644   -0.69835028     0.03377972    -0.58821938     0.0045480394 
    660000   0.050521682   -0.69906443     0.033896413   -0.58943438     0.013700708  
    661000   0.050851918   -0.69895704     0.036403969   -0.58632441     0.012286856  
    662000   0.050101057   -0.69963913     0.039332134   -0.58520389    -0.0018311745 
    663000   0.050249227   -0.70035089     0.034524998   -0.59050068     0.0048844481 
    664000   0.050431334   -0.70082544     0.033499184   -0.59172806     0.0028712994 
    665000   0.047946338   -0.69928208     0.034621737   -0.59278724    -0.0092928651 
    666000   0.049266048   -0.6992544      0.034846363   -0.59055665    -0.00091027207
    667000   0.050366262   -0.70074276     0.034698705   -0.59054341     0.012578067  
    668000   0.050032674   -0.69924816     0.034872692   -0.58937487     0.012678692  
    669000   0.05139364    -0.69833794     0.036216555   -0.58508066     0.0077731512 
    670000   0.050965355   -0.6999859      0.035516921   -0.58807027     0.0093455898 
    671000   0.050520871   -0.69983699     0.036110257   -0.58799432     0.0048270686 
    672000   0.05185105    -0.69855983     0.034429229   -0.58640421     0.018788586  
    673000   0.05050569    -0.70039613     0.035194651   -0.58949182     0.018176775  
    674000   0.049406775   -0.69946726     0.035386248   -0.59001866     0.013340904  
    675000   0.051003277   -0.69963686     0.03454602    -0.58863528     0.001766092  
    676000   0.050629516   -0.69958781     0.034854168   -0.58883837     0.010954807  
    677000   0.051740812   -0.70142946     0.035347293   -0.58852102     0.0019160197 
    678000   0.05133355    -0.70147464     0.034461494   -0.5900625      0.012606259  
    679000   0.052237065   -0.70215529     0.035965578   -0.58788467    -0.0034040513 
    680000   0.051930961   -0.70107146     0.036368824   -0.58685645     0.00019157561
    681000   0.050949613   -0.70099709     0.035380515   -0.58924146    -0.00057847343
    682000   0.050014253   -0.70095332     0.035823082   -0.59015726     0.0094585873 
    683000   0.051489496   -0.70189698     0.034583221   -0.59012935     0.019529338  
    684000   0.051241112   -0.70265619     0.036206161   -0.58963795     0.008534619  
    685000   0.051875122   -0.70109213     0.035401733   -0.58792792     0.020391626  
    686000   0.05032166    -0.70131236     0.036234385   -0.58964418     0.002309693  
    687000   0.051038466   -0.70249312     0.035842054   -0.59014276     0.012228317  
    688000   0.051051775   -0.7023607      0.037474737   -0.58835771     0.00093567913
    689000   0.050780016   -0.70423131     0.036626832   -0.59148359    -0.0031547193 
    690000   0.050246291   -0.70309902     0.034522318   -0.59325589     0.0079161037 
    691000   0.049091144   -0.70363003     0.036124896   -0.59391593     0.010005662  
    692000   0.050611914   -0.70465001     0.034706647   -0.59407447     0.011379634  
    693000   0.049273071   -0.70367394     0.035364995   -0.59444702     0.00084917489
    694000   0.049309215   -0.70464676     0.03561237    -0.59511828     0.01061316   
    695000   0.04970763    -0.7046368      0.035003052   -0.5951204      0.0096724642 
    696000   0.052775912   -0.70663989     0.034553007   -0.59297409     0.010157788  
    697000   0.050629404   -0.70776336     0.036531859   -0.59533639     0.018942994  
    698000   0.051039709   -0.7068733      0.035497532   -0.59486559     0.025925454  
    699000   0.049517214   -0.706866       0.035572796   -0.5970653     -0.0039820041 
    700000   0.050495406   -0.70655543     0.034024548   -0.59683664     0.011774794  
    701000   0.051225443   -0.70717379     0.034884104   -0.59550109     0.0048776136 
    702000   0.048957088   -0.70840272     0.035692399   -0.59932206     0.00016979652
    703000   0.05130234    -0.709822       0.035452361   -0.59746578     0.0037661985 
    704000   0.050169687   -0.70908044     0.036395771   -0.59747869     0.0012067368 
    705000   0.051625843   -0.71139732     0.034890475   -0.59911804     0.015046603  
    706000   0.048735936   -0.71217985     0.036383146   -0.60273996     0.018690222  
    707000   0.049271963   -0.71286086     0.034938378   -0.60406222     0.011771805  
    708000   0.050351128   -0.71308009     0.034276987   -0.60332514     0.019217736  
    709000   0.050914594   -0.71219604     0.032433116   -0.60344031     0.032390421  
    710000   0.049422232   -0.71232446     0.033622329   -0.60461661     0.01536639   
    711000   0.050483333   -0.71594098     0.034835707   -0.60542913    -0.013115482  
    712000   0.050423634   -0.71649042     0.034809813   -0.60609395    -0.0023377029 
    713000   0.049731543   -0.71584618     0.035962502   -0.60533449     0.011750567  
    714000   0.049188604   -0.7158697      0.034285683   -0.60784871     0.012671031  
    715000   0.052269126   -0.71564023     0.034735919   -0.6025512     -0.0014996028 
    716000   0.050757713   -0.71632256     0.035417251   -0.60481786    -0.0029164095 
    717000   0.050400388   -0.71610207     0.033806967   -0.6067433     -0.0025226799 
    718000   0.049731541   -0.71574134     0.03453248    -0.60665967     0.011308028  
    719000   0.049821565   -0.71442859     0.035505507   -0.60423895     0.014873313  
    720000   0.051148437   -0.7159245      0.033360909   -0.60589043     0.0073859917 
    721000   0.049996604   -0.71590834     0.035633619   -0.6053282     -0.0041137672 
    722000   0.051218715   -0.71552817     0.034277023   -0.60447264     0.012644944  
    723000   0.050423921   -0.71561625     0.033919994   -0.60610918     0.016554237  
    724000   0.049635771   -0.7169176      0.035499575   -0.6070124      0.030411487  
    725000   0.049773097   -0.71579296     0.035395296   -0.60578619     0.020591397  
    726000   0.050830147   -0.71472138     0.035170124   -0.60335523     0.012873409  
    727000   0.050728833   -0.7162281      0.035086888   -0.60509705     0.026766099  
    728000   0.051445305   -0.71663542     0.036782227   -0.60273502     0.018239222  
    729000   0.051121011   -0.71682811     0.036252089   -0.60394398     0.001356527  
    730000   0.051104234   -0.71670425     0.034507474   -0.60558988     0.00016028479
    731000   0.050578308   -0.71837126     0.035965224   -0.60658752     0.014447213  
    732000   0.048829322   -0.71777217     0.035706588   -0.60886885     0.0063023321 
    733000   0.050208288   -0.71810768     0.035271216   -0.60757262     0.023124387  
    734000   0.050784175   -0.71912153     0.036941033   -0.60605338     0.020095917  
    735000   0.049471389   -0.71988722     0.034842613   -0.6108854      0.01337069   
    736000   0.048295463   -0.72006654     0.035204389   -0.6124657      0.020696785  
    737000   0.049098965   -0.72093238     0.03562362    -0.61170783     0.016153284  
    738000   0.051631909   -0.72445049     0.034974557   -0.61207803     0.020674081  
    739000   0.052869303   -0.72316091     0.036292136   -0.60761599     0.018762842  
    740000   0.049770164   -0.72368532     0.035565054   -0.61351319     0.019379901  
    741000   0.049670719   -0.72453842     0.035510279   -0.61457013     0.024912027  
    742000   0.047721628   -0.72358798     0.034470789   -0.61758093     0.018020603  
    743000   0.049860363   -0.72440895     0.036014349   -0.6136523      0.013940555  
    744000   0.052060155   -0.72431551     0.035308533   -0.61096713     0.015517309  
    745000   0.048476559   -0.72327605     0.037293692   -0.61331444     0.012482615  
    746000   0.049459449   -0.72439638     0.035830699   -0.61442437     0.01175167   
    747000   0.050055555   -0.72496364     0.034984367   -0.61494438     0.019094308  
    748000   0.051269226   -0.72371542     0.036563229   -0.61029797     0.00810976   
    749000   0.051777202   -0.72375418     0.03494939    -0.61118909     0.013010571  
    750000   0.051138554   -0.72511772     0.035634717   -0.61282466     0.011183402  
    751000   0.049948154   -0.72561816     0.037671673   -0.6130726      0.013232969  
    752000   0.051241881   -0.72514243     0.037638878   -0.61069032     0.0067454704 
    753000   0.050844252   -0.72665756     0.036599436   -0.61384095     0.006018698  
    754000   0.050874646   -0.72640039     0.034962294   -0.61517536     0.018710459  
    755000   0.050750147   -0.72650855     0.036727124   -0.61370531     0.0093696606 
    756000   0.04953631    -0.72657289     0.035175512   -0.61714085     0.0042263293 
    757000   0.051464069   -0.72627935     0.035401831   -0.61373122     0.01452281   
    758000   0.050129833   -0.72652715     0.03503898    -0.61634194     0.0081098563 
    759000   0.048605061   -0.72605476     0.035419088   -0.61777511    -0.0058687891 
    760000   0.048936949   -0.72585272     0.03473524    -0.61775941     0.0056126065 
    761000   0.049473129   -0.72710451     0.034484236   -0.61845846     0.030860774  
    762000   0.051638662   -0.72722241     0.034985355   -0.61482904     0.014314766  
    763000   0.050319087   -0.72675565     0.036322459   -0.61500326     0.01338481   
    764000   0.049877197   -0.72716343     0.035923767   -0.61647214     0.016971206  
    765000   0.051050557   -0.72732493     0.035767195   -0.6150313      0.0084381065 
    766000   0.050802886   -0.72694299     0.035073936   -0.61571389     0.012787233  
    767000   0.051089487   -0.7270463      0.034378377   -0.61608314     0.016591862  
    768000   0.048829858   -0.72599323     0.036146124   -0.61664958     0.015147354  
    769000   0.050503641   -0.72653002     0.034424631   -0.6163988      0.022948565  
    770000   0.048858388   -0.72646406     0.035741988   -0.61748177     0.019482505  
    771000   0.047947288   -0.72653426     0.034108454   -0.62055127     0.00076812481
    772000   0.049395684   -0.72903151     0.033599412   -0.62138637     0.0069548727 
    773000   0.049229376   -0.73018248     0.036510588   -0.61987547     0.0060630864 
    774000   0.051838344   -0.73100513     0.036416009   -0.61688177     0.0080396483 
    775000   0.051031453   -0.72922058     0.036388618   -0.61633417     0.010051804  
    776000   0.049946675   -0.72985198     0.037308457   -0.61767185     0.0049949758 
    777000   0.051340026   -0.7316281      0.035819845   -0.6188479      0.0053248965 
    778000   0.051276802   -0.73162108     0.035349069   -0.61940643    -0.00019230128
    779000   0.049345937   -0.7335065      0.035341024   -0.62419432     0.0082363402 
    780000   0.050522342   -0.73327272     0.034412178   -0.62312592     0.0063841045 
    781000   0.050167952   -0.7331222      0.035743655   -0.62217517     0.005955174  
    782000   0.049389718   -0.73395294     0.034290063   -0.6256261      0.015451906  
    783000   0.050851058   -0.73344415     0.035851656   -0.62136511     0.013494374  
    784000   0.051134188   -0.73375168     0.036533985   -0.6205659      0.00022250157
    785000   0.051134855   -0.73514107     0.035850293   -0.62263798     0.019593375  
    786000   0.050105219   -0.73312719     0.036296813   -0.62172104     0.0092867157 
    787000   0.050996409   -0.73350263     0.035685723   -0.62137165     0.0066996958 
    788000   0.049953858   -0.7340708      0.035902093   -0.62328627     0.012442246  
    789000   0.049947048   -0.73458382     0.036849094   -0.62286249    -0.0033736348 
    790000   0.051250792   -0.73289383     0.036082213   -0.61998503     0.0070113514 
    791000   0.05270126    -0.73414747     0.036777241   -0.61836934     0.0068966591 
    792000   0.050986898   -0.73348747     0.03492593    -0.62213054     0.011662993  
    793000   0.050956182   -0.73637938     0.034898361   -0.62509605     0.0027595137 
    794000   0.04906099    -0.7365117      0.035209642   -0.62775805     0.0039561318 
    795000   0.051627443   -0.73534945     0.035211472   -0.62274678     6.0813124e-05
    796000   0.051042626   -0.73727102     0.038524281   -0.62223219     0.014492938  
    797000   0.050711118   -0.73741571     0.035773802   -0.6256243      0.01627902   
    798000   0.051352394   -0.74034104     0.036999008   -0.62636313    -0.0016696098 
    799000   0.052272468   -0.74171869     0.037827342   -0.62553323     0.0030139341 
    800000   0.052316837   -0.74160142     0.035943872   -0.62723292     0.01182717   
    801000   0.050181506   -0.74219916     0.036547254   -0.63042821     0.021548052  
    802000   0.050063277   -0.74353676     0.035654274   -0.63283602     0.015322218  
    803000   0.04902553    -0.74393718     0.033854697   -0.63659163     0.0079862464 
    804000   0.049936558   -0.74264914     0.035787523   -0.6320051      0.010682411  
    805000   0.051547827   -0.7429623      0.036928905   -0.62876154     0.0026911164 
    806000   0.049812884   -0.74408244     0.033849421   -0.6355619      0.011283089  
    807000   0.050920161   -0.74394021     0.034324484   -0.63328476     0.0014936547 
    808000   0.05143467    -0.74394418     0.037100176   -0.62974177     0.0061864157 
    809000   0.050085885   -0.74394323     0.037148437   -0.63171444     0.015952251  
    810000   0.049862671   -0.74312793     0.03523504    -0.63314714     0.018873207  
    811000   0.051610539   -0.74237751     0.036538793   -0.62847286     0.024563818  
    812000   0.051211551   -0.74398258     0.036801939   -0.63041287     0.012153061  
    813000   0.051723614   -0.74477399     0.035711322   -0.63152731     0.012310871  
    814000   0.05110646    -0.74377163     0.03524752    -0.63191388     0.011695362  
    815000   0.050078703   -0.74382668     0.037013219   -0.63174387     0.0060058717 
    816000   0.049036359   -0.7432455      0.035590787   -0.63414763     0.0028119959 
    817000   0.050622733   -0.74450643     0.034849412   -0.63377191     0.018075146  
    818000   0.050515664   -0.74369085     0.034694772   -0.63327146     0.011171606  
    819000   0.050015551   -0.74367271     0.035002139   -0.63369565     0.01263966   
    820000   0.04908011    -0.74429722     0.034783039   -0.63594151     0.0067379311 
    821000   0.051255429   -0.74373491     0.033422707   -0.63347867     0.0058074985 
    822000   0.048846607   -0.74342831     0.036081513   -0.63412416    -0.00119031   
    823000   0.051222341   -0.74567204     0.035685859   -0.63320223     0.014938706  
    824000   0.051946802   -0.74610714     0.036759559   -0.63147765     0.0047687824 
    825000   0.051556961   -0.74808362     0.03747746    -0.63332061     0.0093640101 
    826000   0.052401533   -0.7490389      0.035048164   -0.63543915    -0.0063086506 
    827000   0.051239733   -0.74921524     0.036509787   -0.63589544     0.011070828  
    828000   0.050390198   -0.75054652     0.036234724   -0.63877526    -0.014349481  
    829000   0.048389192   -0.74900521     0.034141813   -0.64232643     0.0063898522 
    830000   0.050345078   -0.74964728     0.035871      -0.63830739     0.013149938  
    831000   0.048598829   -0.7493835      0.03729683    -0.63923545    -0.0046527061 
    832000   0.051426774   -0.74932004     0.036130457   -0.63609919     0.0017375292 
    833000   0.050470814   -0.74858099     0.03544962    -0.63747399     0.013667806  
    834000   0.049075964   -0.74944348     0.03623671    -0.63964032    -0.0021061832 
    835000   0.049686137   -0.74866618     0.034764065   -0.63942099     0.0050037656 
    836000   0.051359245   -0.74950673     0.035670251   -0.63684732     0.0085943759 
    837000   0.051674122   -0.75016059     0.035351852   -0.63734756     0.0038001681 
    838000   0.050438026   -0.75107912     0.035302216   -0.64016868     0.018017929  
    839000   0.049677114   -0.75086118     0.037092672   -0.63930091     0.025713077  
    840000   0.050595509   -0.75053951     0.036763794   -0.63793141     0.013189491  
    841000   0.051855276   -0.75045813     0.036125964   -0.63659943     0.0039831109 
    842000   0.049394505   -0.75191254     0.036901913   -0.64096667    -0.00073983226
    843000   0.051332309   -0.7519148      0.036311542   -0.63865447     0.0090486795 
    844000   0.05048398    -0.75118848     0.035522735   -0.63998863    -0.002110671  
    845000   0.050265632   -0.75121863     0.033935513   -0.64193331     0.011100746  
    846000   0.050644988   -0.75224651     0.035351938   -0.64097611     0.0027705035 
    847000   0.049940971   -0.75252929     0.03561287    -0.64205329     0.0082945328 
    848000   0.052149371   -0.75362013     0.034804023   -0.64064252     0.021031086  
    849000   0.050892555   -0.75564429     0.03493837    -0.64441633     0.015227136  
    850000   0.050888148   -0.75489077     0.034681889   -0.6439259      0.015312133  
    851000   0.052023993   -0.75611353     0.034484796   -0.64364309     0.0098687806 
    852000   0.050341709   -0.75671238     0.036134005   -0.64511453     0.0077535766 
    853000   0.04917122    -0.7567268      0.036230748   -0.64678681     0.011427857  
    854000   0.048867242   -0.75689968     0.036052699   -0.64759341     0.00591105   
    855000   0.051796753   -0.75510445     0.035734221   -0.64172522     0.011613544  
    856000   0.05228694    -0.75651077     0.037366952   -0.64076401     0.0080702633 
    857000   0.05016799    -0.75629141     0.037015721   -0.64407225     0.0047220183 
    858000   0.049857276   -0.75576776     0.037772972   -0.64325712    -0.0029463403 
    859000   0.051626883   -0.75715528     0.03557804    -0.64418688     0.005964708  
    860000   0.050975525   -0.75729215     0.035923701   -0.64495449    -0.0036214788 
    861000   0.050863437   -0.75726276     0.034870284   -0.64614654     0.00078418154
    862000   0.050912089   -0.75708556     0.035193177   -0.64557352     0.0043628853 
    863000   0.049313266   -0.75668786     0.034801054   -0.64796463     0.0070747808 
    864000   0.049532631   -0.75687951     0.035191137   -0.64743736     0.0044610263 
    865000   0.049780854   -0.75693225     0.036750808   -0.64555833     0.011036006  
    866000   0.052225479   -0.75686828     0.034483776   -0.64409683     0.0088476049 
    867000   0.04833559    -0.75723693     0.034439181   -0.65034114     0.0063082922 
    868000   0.050996523   -0.7577168      0.034769906   -0.64650146    -0.0022505756 
    869000   0.049267417   -0.756692       0.035446476   -0.64739208     0.0017615191 
    870000   0.050224237   -0.75637647     0.03651762    -0.6445711     -0.0062710349 
    871000   0.05112692    -0.75826237     0.03537564    -0.64624582     0.010067181  
    872000   0.051398129   -0.75867879     0.03549125    -0.64614009     0.0088186771 
    873000   0.05133063    -0.75940444     0.037471719   -0.64498646     0.0093928037 
    874000   0.050024791   -0.75841396     0.038497859   -0.64492733     0.021503134  
    875000   0.049633266   -0.75861473     0.037711161   -0.6465017      0.015695257  
    876000   0.050471824   -0.75964405     0.035955328   -0.64802983     0.0092182936 
    877000   0.047831447   -0.75914081     0.036555135   -0.6508848      0.0063146781 
    878000   0.049338557   -0.75957738     0.035137334   -0.65047996     0.003722334  
    879000   0.052635867   -0.75863839     0.035197052   -0.64453848     0.014807973  
    880000   0.050637127   -0.75913202     0.035138708   -0.64808663     0.010768255  
    881000   0.050396539   -0.75894693     0.036444405   -0.64695648    -0.0033976894 
    882000   0.048693108   -0.75808003     0.034981543   -0.65010595     0.00023258779
    883000   0.049816564   -0.7597139      0.0371495     -0.64788776    -0.0022627523 
    884000   0.049316435   -0.75860441     0.036880329   -0.64779716    -0.0055542717 
    885000   0.051201051   -0.76032938     0.034138358   -0.64943899    -0.0012096114 
    886000   0.050864729   -0.75993167     0.036289847   -0.64739395     0.0091376593 
    887000   0.051325563   -0.76068126     0.036074414   -0.64766818     0.0029802385 
    888000   0.052249394   -0.76190016     0.037172454   -0.64640418     0.014658593  
    889000   0.049661764   -0.76198882     0.035157723   -0.65238652     0.003542024  
    890000   0.052155353   -0.76054032     0.036176564   -0.6461812      0.00012579895
    891000   0.051565488   -0.76056722     0.03693486    -0.64633403     0.013534665  
    892000   0.050235457   -0.75940598     0.036142808   -0.6479586      0.0034622547 
    893000   0.048158212   -0.75996236     0.035938175   -0.65183347     0.013218023  
    894000   0.04977098    -0.76004968     0.035433663   -0.65000771    -0.0010141332 
    895000   0.050685522   -0.76044433     0.036119158   -0.64834594    -0.0012421421 
    896000   0.051424528   -0.76002677     0.034133701   -0.64880604     0.0018082903 
    897000   0.050565405   -0.7606823      0.034737508   -0.65014562    -0.0021665665 
    898000   0.051059912   -0.76037619     0.03580675    -0.64802899     0.0053959443 
    899000   0.052220979   -0.76140371     0.036445254   -0.64667753    -0.0027641929 
    900000   0.049676512   -0.76109461     0.036089804   -0.65053811    -0.0015846551 
    901000   0.049575213   -0.76080005     0.035401499   -0.65108371    -0.0043303224 
    902000   0.050172521   -0.76185603     0.035607155   -0.65103865     0.0013627469 
    903000   0.049520568   -0.76352191     0.036335292   -0.65295369    -0.0014713334 
    904000   0.051687822   -0.7636         0.035371314   -0.65074697     0.0010190396 
    905000   0.049112612   -0.76284054     0.034328487   -0.65489066     0.014214883  
    906000   0.049465896   -0.76177458     0.035709725   -0.65191388    -0.0071980884 
    907000   0.052755743   -0.76334568     0.0361382     -0.64812492     0.00094887853
    908000   0.05142953    -0.76277102     0.036077892   -0.6495986      0.0042195672 
    909000   0.050016593   -0.7641746      0.037145409   -0.6520527      0.01632143   
    910000   0.051323312   -0.76527152     0.035651794   -0.65268443     0.013120908  
    911000   0.051648401   -0.7650719      0.035239628   -0.65240965     0.0146928    
    912000   0.051872352   -0.764549       0.035120594   -0.65167008     0.0088223313 
    913000   0.051136407   -0.76544646     0.034878871   -0.65391246    -0.003001734  
    914000   0.050424013   -0.76455763     0.035275788   -0.65369462     0.011682227  
    915000   0.051031561   -0.76428631     0.035416666   -0.65237169     0.010817797  
    916000   0.052411856   -0.76528499     0.035701458   -0.65101647    -0.0004421702 
    917000   0.049562441   -0.76464253     0.035917948   -0.65442889     0.0060128146 
    918000   0.049971408   -0.76475862     0.034655796   -0.65519407    -0.0012588801 
    919000   0.050910904   -0.7650896      0.036751412   -0.6520211      0.014432078  
    920000   0.053228387   -0.76853479     0.036614929   -0.65212879     0.0171888    
    921000   0.051006812   -0.76715587     0.036647889   -0.65404713     0.01652288   
    922000   0.050497947   -0.77003798     0.035373303   -0.65896663     0.010425302  
    923000   0.051649702   -0.76968895     0.03396118    -0.6583032      0.017775815  
    924000   0.050532932   -0.76858796     0.034730021   -0.65810744    -0.0011736541 
    925000   0.051077143   -0.76912589     0.035356249   -0.65720335     0.013736305  
    926000   0.050248538   -0.76874486     0.035060086   -0.65836059     0.0048602884 
    927000   0.051355162   -0.76958445     0.035378557   -0.65722285    -0.00028223477
    928000   0.050076417   -0.76864742     0.034787697   -0.65879356     0.011051042  
    929000   0.051146165   -0.77130746     0.036683027   -0.65795469     0.022712322  
    930000   0.049962688   -0.77126676     0.036451315   -0.65991977    -0.0020393031 
    931000   0.050001386   -0.7702739      0.034666415   -0.66065379     0.0039449222 
    932000   0.049721023   -0.77018351     0.037425685   -0.65822441     0.01619423   
    933000   0.048772989   -0.76967826     0.037424579   -0.65914139     0.0096035473 
    934000   0.049264538   -0.76876765     0.03599558    -0.65892294     0.011308118  
    935000   0.050026927   -0.7685604      0.036179971   -0.65738845     0.032116852  
    936000   0.05034019    -0.76934009     0.034401237   -0.65947728     0.0091687199 
    937000   0.050811963   -0.76952676     0.036612811   -0.65674518     0.010974541  
    938000   0.049810743   -0.77023401     0.03480984    -0.66075626     0.012862397  
    939000   0.050429992   -0.76910505     0.035343824   -0.65816504     0.0016974624 
    940000   0.050632194   -0.77054644     0.036160569   -0.65848657    -0.007010022  
    941000   0.051985249   -0.7705649      0.0373499     -0.65528743     0.0018414419 
    942000   0.050862889   -0.77088265     0.037719701   -0.65691784     0.0061862801 
    943000   0.048433692   -0.77220372     0.037884474   -0.66171558     0.0031532781 
    944000   0.049339018   -0.77207988     0.037079932   -0.66103917     0.0034647704 
    945000   0.049831749   -0.77145613     0.037056007   -0.65970073     0.0029953854 
    946000   0.050383545   -0.77208554     0.037147136   -0.65941185     0.017229169  
    947000   0.05134208    -0.77190225     0.034991005   -0.65994781     0.0078540634 
    948000   0.050149329   -0.77222767     0.039018182   -0.65803402    -0.010087951  
    949000   0.050067365   -0.77199776     0.036183006   -0.66076216     0.0084428851 
    950000   0.047762995   -0.77176644     0.034588189   -0.66557998     0.020544197  
    951000   0.049187052   -0.77074246     0.034227519   -0.66278196     0.0085380962 
    952000   0.048533338   -0.77284524     0.035855682   -0.66423652     0.0075078699 
    953000   0.050625295   -0.77257525     0.03648559    -0.66020071     0.010017442  
    954000   0.049036652   -0.77105064     0.037037849   -0.66050526     0.0031448244 
    955000   0.049504534   -0.7713013      0.037689932   -0.65940247     0.013875507  
    956000   0.050850263   -0.77173659     0.03739366    -0.65811675     0.025523598  
    957000   0.050960725   -0.77123424     0.034202506   -0.66063996     0.010675214  
    958000   0.05150456    -0.77096501     0.038246644   -0.65551137     0.0068320164 
    959000   0.052008642   -0.77062417     0.037753039   -0.6549085      0.0092105811 
    960000   0.051462612   -0.772187       0.036223137   -0.65881975     0.0029998756 
    961000   0.049753652   -0.77198743     0.037924043   -0.65948106     0.0012507736 
    962000   0.050837734   -0.77178873     0.039303678   -0.65627764     0.0080830561 
    963000   0.049066329   -0.77055483     0.038293118   -0.65870971     0.0081012774 
    964000   0.052184915   -0.77204062     0.035544666   -0.65826908     0.011791691  
    965000   0.052140302   -0.77251705     0.036539711   -0.65781734     0.0088711863 
    966000   0.050103462   -0.77372872     0.035917978   -0.66270404     0.0070533869 
    967000   0.049768955   -0.77400612     0.036635876   -0.66276497     0.0091958319 
    968000   0.051386438   -0.77395077     0.03606732    -0.66085352    -0.00049164968
    969000   0.051382723   -0.77321146     0.035876306   -0.6603108      0.017974929  
    970000   0.051612786   -0.77385331     0.034519117   -0.66196496     0.012747426  
    971000   0.052832415   -0.77448288     0.036842163   -0.65844322     0.012273485  
    972000   0.050960995   -0.7744105      0.035668869   -0.66234946    -0.0014074203 
    973000   0.050724921   -0.77556079     0.037225295   -0.66229721     0.0019306918 
    974000   0.050611337   -0.77491787     0.037179537   -0.6618703      0.014367191  
    975000   0.051912126   -0.77447278     0.038074032   -0.6585808      0.0093890116 
    976000   0.048405082   -0.77273744     0.036686243   -0.66349042     0.0062636422 
    977000   0.052068184   -0.77437189     0.036168549   -0.66015146     0.017554272  
    978000   0.050870562   -0.77249725     0.036275351   -0.65996529     0.012338442  
    979000   0.050556387   -0.77313029     0.037988042   -0.6593566      0.0022500441 
    980000   0.051120145   -0.77235886     0.036250193   -0.65947792     0.0059302527 
    981000   0.051159255   -0.7732102      0.036041488   -0.66047934    -0.002981206  
    982000   0.051443243   -0.77272808     0.035047629   -0.66056537     0.0085959892 
    983000   0.049728869   -0.77330241     0.03681001    -0.66194722     0.011716594  
    984000   0.049625521   -0.77420473     0.036428686   -0.66338578     0.003359307  
    985000   0.050634596   -0.77341664     0.037597992   -0.65991575     0.001445802  
    986000   0.052388827   -0.77452319     0.035189676   -0.66080097     0.009583045  
    987000   0.050865484   -0.77418238     0.037634558   -0.66029882     0.011314138  
    988000   0.05044757    -0.77424264     0.036881671   -0.66173844     0.0067370537 
    989000   0.051929339   -0.77545761     0.03378581    -0.66382804     0.012596912  
    990000   0.050612564   -0.77571474     0.037041816   -0.66280306     0.0053350609 
    991000   0.051310419   -0.77515977     0.03759442    -0.66064938    -0.0031460424 
    992000   0.051168199   -0.77540299     0.035822183   -0.66287802     0.0046921005 
    993000   0.049653469   -0.77671217     0.03708837    -0.66519165     0.011937827  
    994000   0.049946591   -0.7756561      0.035383524   -0.66540103     0.0047414406 
    995000   0.050399406   -0.77689279     0.035692989   -0.66564947    -0.0019887871 
    996000   0.048946354   -0.77532326     0.037669802   -0.6642813      0.0037434011 
    997000   0.050041462   -0.77584458     0.036566239   -0.66426457     0.0064196507 
    998000   0.053122287   -0.77682214     0.037233112   -0.65995701     0.0087616136 
    999000   0.052214049   -0.77830379     0.03796659    -0.66206666    -0.012543301  
   1000000   0.052556874   -0.77994568     0.036498945   -0.66466229     0.0083285054 
   1001000   0.051410049   -0.78037051     0.038268321   -0.66503687     0.011897407  
   1002000   0.051676131   -0.78024205     0.036375456   -0.66640241     0.010764095  
   1003000   0.049435916   -0.7805629      0.035588163   -0.6708687      0.0079059132 
   1004000   0.050574113   -0.78102513     0.035400341   -0.66981256     0.0069124119 
   1005000   0.049869224   -0.78236925     0.036814638   -0.67079903     0.0039619336 
   1006000   0.051159468   -0.78163933     0.038524372   -0.66642526    -0.0041040017 
   1007000   0.051172123   -0.78178518     0.038361799   -0.66671471     0.0043114981 
   1008000   0.048686191   -0.78200998     0.035318644   -0.67370917     0.013817651  
   1009000   0.049998365   -0.7828941      0.03682264    -0.6711223      0.0092420096 
   1010000   0.049560553   -0.78242934     0.039126304   -0.66901017     0.0060620108 
   1011000   0.051048631   -0.78394743     0.039013323   -0.66841056    -0.0025840245 
   1012000   0.050018353   -0.78404528     0.038098287   -0.67096787     0.0044302553 
   1013000   0.050079132   -0.78406763     0.036757829   -0.67223957     0.018974612  
   1014000   0.050476103   -0.78310351     0.036387956   -0.67105024     0.012973854  
   1015000   0.050436599   -0.7835281      0.039292926   -0.66862908     0.014013649  
   1016000   0.050544699   -0.78366466     0.037646072   -0.67025045     0.013608241  
   1017000   0.050707398   -0.78475333     0.037676758   -0.67106455     0.015881157  
   1018000   0.052328301   -0.78575163     0.03646504    -0.67084478     0.0089678684 
   1019000   0.050347302   -0.78535064     0.036760371   -0.67311804     0.0074077923 
   1020000   0.049630794   -0.78484074     0.03772869    -0.67271389     0.0079104982 
   1021000   0.049616591   -0.78536033     0.036438802   -0.67454466     0.00040566068
   1022000   0.050623338   -0.78422271     0.040400748   -0.66793594     0.0060805075 
   1023000   0.050659703   -0.78471453     0.037044844   -0.67172916     0.0020254275 
   1024000   0.051604966   -0.78392284     0.037573395   -0.66899193     0.013121004  
   1025000   0.050781923   -0.78659947     0.036840076   -0.67363566     0.023015707  
   1026000   0.051782108   -0.78904846     0.037380389   -0.67404502     0.00027502508
   1027000   0.050370727   -0.78779007     0.039864222   -0.6724185      0.0020120454 
   1028000   0.052001445   -0.78772193     0.035472564   -0.67429752     0.013427995  
   1029000   0.051804772   -0.78767282     0.037184052   -0.67283174     0.0021464339 
   1030000   0.050016308   -0.78804537     0.035841903   -0.67722741    -0.0082925893 
   1031000   0.050772428   -0.78871769     0.037481593   -0.67512659     0.0051167618 
   1032000   0.050517609   -0.78884103     0.037847195   -0.67526631     0.023533215  
   1033000   0.051934469   -0.78709579     0.037696108   -0.67154823     0.0011393604 
   1034000   0.051591313   -0.79081834     0.036878901   -0.6766024      0.025396484  
   1035000   0.050434848   -0.78893524     0.036661855   -0.67666992     0.0090235617 
   1036000   0.049738393   -0.79072599     0.037185528   -0.678981       0.021619084  
   1037000   0.04977442    -0.79066549     0.038907601   -0.67714443     0.013506866  
   1038000   0.050906367   -0.79016655     0.036020452   -0.67783581     0.024138249  
   1039000   0.048713905   -0.78963161     0.037207815   -0.67940008     0.0019150794 
   1040000   0.051010457   -0.79020033     0.037407177   -0.67632683    -0.00078720818
   1041000   0.05112772    -0.78961454     0.035908779   -0.67706366     0.013163627  
   1042000   0.052085771   -0.79028305     0.036934532   -0.67527027     0.014204816  
   1043000   0.051871855   -0.79071187     0.037317351   -0.67563694     0.016428216  
   1044000   0.051763436   -0.79167066     0.038405857   -0.67566974     0.0086400783 
   1045000   0.049224528   -0.78979355     0.0367879     -0.6792165      0.020024432  
   1046000   0.051164721   -0.78886252     0.03828089    -0.67388407     0.013954874  
   1047000   0.049592559   -0.78962579     0.038245276   -0.67703967     0.026162587  
   1048000   0.049749508   -0.79096381     0.037791043   -0.67859665     0.0015888253 
   1049000   0.051453703   -0.79139306     0.03733006    -0.67693223     0.0053708512 
   1050000   0.051426402   -0.79183231     0.036939921   -0.67780256     0.0083458691 
   1051000   0.050479225   -0.79014491     0.037821992   -0.67665293     0.0060890588 
   1052000   0.050942065   -0.79020406     0.039847138   -0.67399313     0.0077491585 
   1053000   0.048466783   -0.79231992     0.036741156   -0.68292549    -0.008252384  
   1054000   0.04998336    -0.79194093     0.03627627    -0.68073799     0.0095734981 
   1055000   0.050698315   -0.79404931     0.037553261   -0.68049764     0.019909138  
   1056000   0.051105706   -0.79171142     0.037271546   -0.67783077    -0.00011374351
   1057000   0.050536296   -0.79302567     0.036963897   -0.68030624    -0.0057699899 
   1058000   0.050909409   -0.79211503     0.036732818   -0.67906737     0.016575395  
   1059000   0.05076024    -0.79234463     0.036031916   -0.68022147     0.013209075  
   1060000   0.051392261   -0.79208884     0.038853293   -0.67619689     0.013192303  
   1061000   0.051221378   -0.79193537     0.039267397   -0.67588547     0.0097735417 
   1062000   0.050404478   -0.79171094     0.036346854   -0.67980615     0.0062723937 
   1063000   0.049929055   -0.79206473     0.036472874   -0.68074659     0.0012277442 
   1064000   0.050158464   -0.7939295      0.034763433   -0.68397691     0.003439099  
   1065000   0.050731584   -0.79434685     0.036970502   -0.68132807     0.0053161019 
   1066000   0.050672867   -0.79440732     0.037125501   -0.68132156    -0.0067493916 
   1067000   0.050305469   -0.79517015     0.038485766   -0.68127486     0.00015217799
   1068000   0.05242278    -0.79591336     0.040120506   -0.67720941    -0.013498458  
   1069000   0.052683496   -0.794664       0.036837461   -0.67885227     0.0052332215 
   1070000   0.049593025   -0.79518587     0.037370499   -0.68347383     0.0067253103 
   1071000   0.049888779   -0.7945957      0.038233429   -0.68157738    -0.0040230425 
   1072000   0.049728667   -0.79351536     0.037477132   -0.68149336     0.015152189  
   1073000   0.051049679   -0.79529359     0.036820145   -0.68194833     0.012917714  
   1074000   0.050815125   -0.7935856      0.034602497   -0.6828096      0.0042004672 
   1075000   0.049004159   -0.79478958     0.040679724   -0.68065104    -0.00013410991
   1076000   0.050257117   -0.7938409      0.038286285   -0.68021758     0.00024149496
   1077000   0.049273679   -0.79404923     0.036208483   -0.68397791     0.025230605  
   1078000   0.050188908   -0.79434194     0.039185097   -0.67992205     0.0030982801 
   1079000   0.052150935   -0.79459739     0.037293186   -0.67912827     0.01442227   
   1080000   0.051826568   -0.79505571     0.038777728   -0.67858828     0.0032874356 
   1081000   0.049431273   -0.79252165     0.038349579   -0.680073       0.014603122  
   1082000   0.050125577   -0.79478927     0.038182776   -0.68146664     0.0067161581 
   1083000   0.049786746   -0.79395278     0.036396426   -0.68292441     0.0074030554 
   1084000   0.050056277   -0.79436278     0.037576038   -0.68175077     0.016388578  
   1085000   0.050544224   -0.79584622     0.036945869   -0.68313293     0.0033776008 
   1086000   0.049128533   -0.79477926     0.036881961   -0.68425205     0.0039289462 
   1087000   0.048258217   -0.79467222     0.035158684   -0.68717291     0.016783365  
   1088000   0.048251163   -0.79412648     0.037339684   -0.68445675     0.011899675  
   1089000   0.052560176   -0.79548578     0.036204194   -0.68049219     0.018445192  
   1090000   0.04947447    -0.79545864     0.039704655   -0.68159016     0.01151357   
   1091000   0.050241147   -0.79505919     0.036064211   -0.68368188     0.015957153  
   1092000   0.050214473   -0.79443631     0.036972538   -0.68219065     0.0070314233 
   1093000   0.049779098   -0.79624699     0.036229868   -0.68539665     0.003596958  
   1094000   0.049080024   -0.79594456     0.037628212   -0.68474381    -0.0075117472 
   1095000   0.050824287   -0.79459067     0.038313208   -0.68009022     0.0067844158 
   1096000   0.053568999   -0.79499911     0.036719184   -0.67797826     0.0092112895 
   1097000   0.05233729    -0.79496634     0.03699526    -0.6795158      0.012517005  
   1098000   0.050138427   -0.79601754     0.038994509   -0.68186391     0.0066967929 
   1099000   0.050766434   -0.79533283     0.037471352   -0.68176095     0.016477912  
   1100000   0.052133145   -0.79605471     0.036216501   -0.68168894     0.0071939192 
   1101000   0.049041746   -0.79505364     0.03805373    -0.68348475     0.015426603  
   1102000   0.048862055   -0.79776318     0.038093201   -0.68642418     0.0019817312 
   1103000   0.049411934   -0.79554691     0.037560216   -0.68391661     0.016257502  
   1104000   0.052600886   -0.79873707     0.037524882   -0.68236176     0.012932364  
   1105000   0.048642799   -0.7975548      0.03786683    -0.68677084     0.029584913  
   1106000   0.050670833   -0.79878215     0.038034749   -0.68479019     0.022616651  
   1107000   0.05162117    -0.79815198     0.037744822   -0.68302536     0.018933495  
   1108000   0.050918073   -0.79880342     0.038255894   -0.68421969     0.0031722851 
   1109000   0.049285502   -0.79818109     0.039015384   -0.68528515     0.018080608  
   1110000   0.052198734   -0.79880952     0.037008804   -0.68355313     0.0066576619 
   1111000   0.050825507   -0.79728269     0.036973056   -0.68412056     0.0073322023 
   1112000   0.050800881   -0.79816622     0.03592359    -0.68609047     0.0062524188 
   1113000   0.051561449   -0.79822072     0.040217284   -0.68071116     0.021899233  
   1114000   0.0527781     -0.79729827     0.037548042   -0.68063415     0.036108075  
   1115000   0.050281662   -0.79718144     0.037706047   -0.68410156     0.0047791636 
   1116000   0.05170366    -0.79641634     0.038399293   -0.6805116      0.0050928787 
   1117000   0.048371004   -0.79713247     0.038849313   -0.68577347     0.025559595  
   1118000   0.051564025   -0.79601137     0.03622354    -0.68249169     0.014610927  
   1119000   0.051069288   -0.79725083     0.037100741   -0.68359558     0.013048753  
   1120000   0.05052887    -0.79749489     0.037489495   -0.68426099     0.0023667613 
   1121000   0.050047077   -0.79727579     0.03852186    -0.68373175     0.017651523  
   1122000   0.051285558   -0.79736709     0.036109892   -0.68437849     0.017688259  
   1123000   0.050214767   -0.79645624     0.038900161   -0.68228252     0.0062183495 
   1124000   0.050088403   -0.79733296     0.037608764   -0.68464007    -0.0021072978 
   1125000   0.049892533   -0.7967582      0.037537542   -0.68443014     0.014603757  
   1126000   0.05000626    -0.79754024     0.036946585   -0.68563266     0.0025000174 
   1127000   0.050372769   -0.79684768     0.038297026   -0.68304025     0.0087895181 
   1128000   0.051211018   -0.79643115     0.036433617   -0.68323057    -0.011923554  
   1129000   0.049325627   -0.79759177     0.037399635   -0.68625143     0.00052613313
   1130000   0.051812045   -0.7987822      0.037637608   -0.68347666     0.002951142  
   1131000   0.050960188   -0.79687341     0.039143684   -0.68133876    -0.014477327  
   1132000   0.053034217   -0.79819108     0.038630409   -0.68006067     0.0029857127 
   1133000   0.052070662   -0.79725983     0.03951049    -0.67969374     0.0047472053 
   1134000   0.05318482    -0.79876355     0.036612697   -0.68242509     0.0060721215 
   1135000   0.050632002   -0.79907873     0.037998813   -0.68518091     0.011836899  
   1136000   0.049650057   -0.79770109     0.038961962   -0.68431209     0.0088402767 
   1137000   0.049062068   -0.79806198     0.037656653   -0.68685971     0.0083060148 
   1138000   0.049509452   -0.79924995     0.036483979   -0.6885497      0.020030973  
   1139000   0.04747423    -0.79912634     0.036044727   -0.69191621     0.011817311  
   1140000   0.048673613   -0.79950495     0.036214612   -0.69032702    -0.0021081474 
   1141000   0.048670815   -0.79946085     0.038444542   -0.68805719    -0.004172428  
   1142000   0.051192469   -0.79925584     0.036227094   -0.68628958     0.00084123472
   1143000   0.051206962   -0.80023372     0.037011606   -0.68646122     0.0048727533 
   1144000   0.049637961   -0.79752285     0.035956432   -0.68715751     0.025492023  
   1145000   0.050660223   -0.797927       0.037897467   -0.68408822     0.0086345706 
   1146000   0.050513794   -0.79810275     0.036933384   -0.68544756     0.0073483655 
   1147000   0.050227673   -0.79939321     0.038448329   -0.68565197     0.023062639  
   1148000   0.049463716   -0.79913915     0.036993239   -0.68799821     0.0043975449 
   1149000   0.051780728   -0.7994161      0.036562449   -0.68523267     0.0099063236 
   1150000   0.05127517    -0.79957025     0.038721304   -0.68398581     0.023923858  
   1151000   0.050226862   -0.79908586     0.037062182   -0.68673199    -0.0010314184 
   1152000   0.050865512   -0.7975833      0.038418951   -0.68291531     0.01714108   
   1153000   0.050835535   -0.79850933     0.039249352   -0.68305587     0.015858787  
   1154000   0.05295541    -0.8001247      0.03762443    -0.6831184     -0.0062204092 
   1155000   0.052143791   -0.79992547     0.038625107   -0.68313513     0.021016511  
   1156000   0.052517092   -0.79724313     0.037481888   -0.68103643     0.0024309449 
   1157000   0.050074012   -0.79724742     0.039688007   -0.68249685     0.0047385176 
   1158000   0.051119067   -0.79756961     0.03832533    -0.68261515     0.0082032912 
   1159000   0.050809966   -0.79591959     0.037044351   -0.68270946     0.013343046  
   1160000   0.050450944   -0.79748064     0.0379921     -0.68386094     0.017446503  
   1161000   0.048828838   -0.79758537     0.0376906     -0.68669877     0.012047668  
   1162000   0.050922706   -0.79749425     0.038040246   -0.68311922     0.010595828  
   1163000   0.052138522   -0.79834204     0.040145214   -0.6800395      0.0012159547 
   1164000   0.051283424   -0.79770595     0.037232893   -0.68359755    -0.005764928  
   1165000   0.050644159   -0.79934562     0.037522345   -0.68590604     0.0024502175 
   1166000   0.050790195   -0.79982962     0.036413611   -0.68727987     0.010882301  
   1167000   0.049464927   -0.79696431     0.037963933   -0.68485085    -0.0082427851 
   1168000   0.050013511   -0.79751899     0.039555605   -0.68299152     0.016566689  
   1169000   0.050659316   -0.7983544      0.038304724   -0.68410972    -0.0022422644 
   1170000   0.048641576   -0.79809541     0.039083323   -0.6860968      0.00026260608
   1171000   0.049018136   -0.79961484     0.036658417   -0.68947665     0.018237895  
   1172000   0.050300331   -0.79848696     0.035763582   -0.68732156     0.025019006  
   1173000   0.051638611   -0.79753792     0.038522339   -0.68160764     0.01738542   
   1174000   0.049609192   -0.79792573     0.038324906   -0.68523505     0.016897715  
   1175000   0.051752044   -0.79693114     0.033642464   -0.6857107      0.029744453  
   1176000   0.050234249   -0.79947615     0.037182394   -0.686991       0.0090804373 
   1177000   0.050982438   -0.79873249     0.036516702   -0.68579147     0.017959411  
   1178000   0.049496068   -0.79753972     0.037294839   -0.68604868     0.017218022  
   1179000   0.050180547   -0.79814971     0.0355913     -0.68733615     0.00014234426
   1180000   0.051830074   -0.80010234     0.038245436   -0.68416195    -0.0058281134 
   1181000   0.050415051   -0.8009439      0.035783263   -0.68958685     0.029654799  
   1182000   0.050292574   -0.8003514      0.035904602   -0.68905661     0.013337713  
   1183000   0.049421246   -0.79909631     0.038859325   -0.68615295     0.011444837  
   1184000   0.050597019   -0.8005433      0.037862618   -0.68683412     0.018073136  
   1185000   0.049417385   -0.80061561     0.037626122   -0.68891123     0.011764992  
   1186000   0.049177877   -0.80125411     0.03689075    -0.69064414     0.021289768  
   1187000   0.04953676    -0.7995368      0.036985848   -0.68829375     0.02543905   
   1188000   0.050099989   -0.79915694     0.037558099   -0.68649734     0.0062546232 
   1189000   0.051338612   -0.7987274      0.037579094   -0.68419007     0.036483251  
   1190000   0.052813914   -0.79999075     0.036002051   -0.68481894     0.014881691  
   1191000   0.05142255    -0.79858939     0.038739007   -0.68276632     0.022005605  
   1192000   0.053116209   -0.80173829     0.040543329   -0.68157205     0.019463658  
   1193000   0.052010417   -0.80195494     0.040198765   -0.68379088     0.012033553  
   1194000   0.049608863   -0.80079731     0.038459078   -0.68797295     0.017815578  
   1195000   0.049988028   -0.80128121     0.036899971   -0.68944758     0.021560665  
   1196000   0.051634207   -0.80274015     0.036183907   -0.6891549      0.024524724  
   1197000   0.05066419    -0.8033476      0.037982959   -0.68941739     0.04122739   
   1198000   0.051628292   -0.80152991     0.038785269   -0.68535217     0.01832657   
   1199000   0.050218543   -0.80337409     0.036697889   -0.69139699     0.010602237  
   1200000   0.049974301   -0.80363885     0.038766888   -0.68995887     0.022029922  
   1201000   0.052073447   -0.8034254      0.037425074   -0.68794055     0.0010691538 
   1202000   0.050941042   -0.80312654     0.037427055   -0.68933722     0.024861494  
   1203000   0.050846957   -0.80320826     0.037433678   -0.68955335     0.021255047  
   1204000   0.04992582    -0.80438173     0.03734873    -0.69219259     0.030990912  
   1205000   0.04928723    -0.80430737     0.039259252   -0.69116497     0.021207671  
   1206000   0.050123286   -0.80511481     0.037636275   -0.69234211     0.0097646397 
   1207000   0.047868575   -0.80432831     0.037115767   -0.695456       0.019263693  
   1208000   0.051005466   -0.8047559      0.035925214   -0.69237184     0.024520702  
   1209000   0.051144772   -0.80426057     0.040790688   -0.68680222     0.0091905499 
   1210000   0.05162206    -0.80461198     0.036494185   -0.69073466     0.029112036  
   1211000   0.050127211   -0.8048733      0.03945917    -0.69027183     0.019041423  
   1212000   0.051176907   -0.8048153      0.038278983   -0.68982048     0.016600312  
   1213000   0.048054867   -0.80417156     0.038644902   -0.69349086     0.0054110164 
   1214000   0.05178801    -0.80461639     0.036821605   -0.69016289     0.012850823  
   1215000   0.052091143   -0.80455328     0.039325791   -0.68714119     0.003336825  
   1216000   0.052218454   -0.80465725     0.038554668   -0.68782543     0.014037862  
   1217000   0.052148884   -0.8037562      0.03772924    -0.6878541      0.010852552  
   1218000   0.049693076   -0.80373156     0.038090002   -0.69115004     0.010667482  
   1219000   0.050950678   -0.80468403     0.036741293   -0.69156603    -0.0014946123 
   1220000   0.05119466    -0.80537069     0.037236547   -0.6913917      0.0076188793 
   1221000   0.051339805   -0.80504799     0.037368913   -0.69071905     0.01425142   
   1222000   0.053459652   -0.80646852     0.038071879   -0.68825889     0.0064839008 
   1223000   0.052241739   -0.80617767     0.038744126   -0.68912149     0.014946134  
   1224000   0.0494654     -0.80489553     0.03727744    -0.69346785     0.0074722771 
   1225000   0.050605909   -0.80542285     0.03717658    -0.69238638     0.0060403817 
   1226000   0.05200688    -0.80588199     0.037657686   -0.69026431    -0.0017696841 
   1227000   0.051759406   -0.8048789      0.03872176    -0.68856812     0.021494425  
   1228000   0.051892179   -0.80505194     0.039151415   -0.68811247     0.0049388788 
   1229000   0.05102884    -0.80650734     0.03826481    -0.69174865     0.00733586   
   1230000   0.050778301   -0.80563162     0.039221534   -0.69029177     0.0083748666 
   1231000   0.051392261   -0.80499296     0.037274195   -0.69068011     0.019008374  
   1232000   0.050464355   -0.80556186     0.037829204   -0.69208496     0.019191667  
   1233000   0.051914009   -0.80465334     0.037126649   -0.68970591     0.010088776  
   1234000   0.051194402   -0.80409861     0.038352635   -0.68900391     0.0093060253 
   1235000   0.0502637     -0.80575656     0.038162004   -0.69224765     0.020807442  
   1236000   0.049971722   -0.80587275     0.038113234   -0.69285029    -0.0033869829 
   1237000   0.052125312   -0.80515076     0.037607404   -0.68940584    -0.0018820408 
   1238000   0.050110269   -0.80451254     0.037863686   -0.69153195     0.012129668  
   1239000   0.050268649   -0.80627235     0.037795026   -0.693123       0.0046132411 
   1240000   0.050601263   -0.80626621     0.037948696   -0.69246458     0.012103101  
   1241000   0.051207872   -0.80490825     0.037201502   -0.69094449     0.022117093  
   1242000   0.05013169    -0.80485811     0.036778299   -0.69293079     0.018859922  
   1243000   0.050924581   -0.80374379     0.036786816   -0.69061938     0.0095409046 
   1244000   0.049795375   -0.80549254     0.036243405   -0.69460426     0.010964534  
   1245000   0.049613466   -0.80673387     0.037896428   -0.69446526     0.003410066  
   1246000   0.050090317   -0.80722258     0.0364446     -0.69569098     0.021592383  
   1247000   0.051219561   -0.80666998     0.03698286    -0.69290735     0.013066365  
   1248000   0.050881481   -0.80613957     0.036517043   -0.69334954     0.018841858  
   1249000   0.049249542   -0.80610109     0.036877925   -0.69539651     0.008948273  
   1250000   0.050673107   -0.8087906      0.038892324   -0.69393765     0.010113923  
   1251000   0.050162377   -0.80768069     0.039663567   -0.69282211    -0.0033621943 
   1252000   0.051344913   -0.80884748     0.040510318   -0.69136948     0.014946324  
   1253000   0.052891851   -0.80903166     0.036728769   -0.6930163      0.0057677205 
   1254000   0.052295819   -0.80856722     0.038973144   -0.69120095     0.0013041306 
   1255000   0.051913089   -0.80801898     0.03882059    -0.69137899     0.0032306224 
   1256000   0.051433076   -0.80769211     0.038382888   -0.69220938     0.0096885272 
   1257000   0.049485187   -0.80810192     0.037322077   -0.69659995     0.0074858607 
   1258000   0.052294811   -0.80977026     0.038001734   -0.69337691     0.005395673  
   1259000   0.049452164   -0.8089744      0.038053668   -0.69679034     0.012911119  
   1260000   0.052449896   -0.80841481     0.03621779    -0.69357294     0.0028232094 
   1261000   0.048336822   -0.80647492     0.035809133   -0.69820733     0.017784988  
   1262000   0.04768949    -0.80940006     0.037882377   -0.7000296      0.011710287  
   1263000   0.051371402   -0.80876623     0.041204538   -0.6905543      0.007712374  
   1264000   0.051576409   -0.80758889     0.037151787   -0.6931224      0.022077034  
   1265000   0.049683961   -0.80763323     0.036047992   -0.69710737     0.031879286  
   1266000   0.050157054   -0.80824764     0.035977213   -0.69708338     0.013286045  
   1267000   0.050817993   -0.80949447     0.03789734    -0.69541931     0.016391951  
   1268000   0.049159474   -0.80914328     0.037419578   -0.69803207     0.009972953  
   1269000   0.050262755   -0.80818227     0.038916848   -0.69391993     0.0037007447 
   1270000   0.05149813    -0.80897307     0.037071666   -0.69470405     0.001522102  
   1271000   0.050882313   -0.80872879     0.03765335    -0.69480121     0.020469694  
   1272000   0.048543707   -0.80799882     0.036668863   -0.69856137     0.019150965  
   1273000   0.050802258   -0.80761268     0.035619771   -0.69583869     0.017127066  
   1274000   0.052092195   -0.80892052     0.037698212   -0.69313442     0.006265119  
   1275000   0.052053969   -0.80796109     0.036538074   -0.69339244     0.011594362  
   1276000   0.050902069   -0.80846777     0.036270344   -0.69589358     0.023120419  
   1277000   0.049984691   -0.80993591     0.038473226   -0.69653402     0.019052157  
   1278000   0.050944937   -0.80813302     0.036054969   -0.69570995     0.026372078  
   1279000   0.05058659    -0.80982354     0.0368399     -0.69715271     0.017309507  
   1280000   0.05181221    -0.80905128     0.038599669   -0.69278343     0.0083396092 
   1281000   0.050366814   -0.80850017     0.038976336   -0.69402236     0.022123465  
   1282000   0.050974577   -0.80885046     0.036906422   -0.6955315      0.014911983  
   1283000   0.051508685   -0.80885266     0.037915098   -0.69372438     0.023564861  
   1284000   0.050251741   -0.8085782      0.038291049   -0.69495817     0.030419544  
   1285000   0.051057252   -0.8089159      0.035765797   -0.69661364     0.013711264  
   1286000   0.050064077   -0.80756635     0.037308715   -0.69520997     0.013741223  
   1287000   0.050581786   -0.80838569     0.036481739   -0.69608023     0.027626082  
   1288000   0.051150722   -0.80870131     0.036049925   -0.6959748      0.020514436  
   1289000   0.049698235   -0.80841485     0.038344424   -0.69557117     0.0029186152 
   1290000   0.05100854    -0.80877608     0.037205241   -0.69510739     0.021446558  
   1291000   0.0509356     -0.80943483     0.038428803   -0.69465192     0.0026963191 
   1292000   0.051541463   -0.80861564     0.03916942    -0.6921839      0.0041703101 
   1293000   0.050929976   -0.80817018     0.038472745   -0.69335176     0.0055212336 
   1294000   0.049892313   -0.80909593     0.038224977   -0.69608077     0.00084163865
   1295000   0.05113554    -0.80921267     0.036704838   -0.69585401     0.016300202  
   1296000   0.050980358   -0.80796311     0.036095427   -0.69544648     0.013453432  
   1297000   0.048901969   -0.80720078     0.035896059   -0.69799909    -0.003764105  
   1298000   0.049737532   -0.80796088     0.037258224   -0.69614449     0.013057636  
   1299000   0.051055118   -0.80610386     0.037348579   -0.69222201     0.0028546545 
   1300000   0.050081981   -0.80753209     0.038173413   -0.69428417    -0.0015339675 
   1301000   0.051349346   -0.80749627     0.037619591   -0.69290235     0.01277358   
   1302000   0.050331859   -0.80713801     0.039597751   -0.69209118     0.023223408  
   1303000   0.050824844   -0.80720681     0.03863208    -0.69238665     0.0034584613 
   1304000   0.049433965   -0.80822216     0.037639116   -0.69647994     0.0013337528 
   1305000   0.04954324    -0.80762631     0.038601386   -0.69475801     0.018838814  
   1306000   0.051588071   -0.80826276     0.03851998    -0.69241059     0.020008635  
   1307000   0.049825501   -0.80842285     0.040223788   -0.69350903     0.023440524  
   1308000   0.050176675   -0.80882019     0.037482073   -0.69612166     0.0083480527 
   1309000   0.049942032   -0.80867643     0.037210872   -0.69660084     0.032459022  
   1310000   0.051592327   -0.80884845     0.035640059   -0.69586982     0.020964501  
   1311000   0.050024981   -0.80686727     0.038212242   -0.69366597     0.014678965  
   1312000   0.051562246   -0.80760947     0.037655247   -0.69266076     0.0031361467 
   1313000   0.048847675   -0.80800151     0.038240069   -0.6965372      0.01639255   
   1314000   0.050081354   -0.8081456      0.037228752   -0.69584328     0.030090813  
   1315000   0.050927908   -0.80807083     0.037934893   -0.69379336     0.019006039  
   1316000   0.052177887   -0.80851872     0.038694274   -0.69160811     0.026582892  
   1317000   0.049787231   -0.80740816     0.039756717   -0.69301878     0.020931438  
   1318000   0.050185782   -0.80817228     0.037695492   -0.69524668     0.013332093  
   1319000   0.052200938   -0.80795756     0.039577538   -0.69012914     0.03744202   
   1320000   0.051327374   -0.80774063     0.036289648   -0.69450959     0.0050607412 
   1321000   0.049139007   -0.80783168     0.037052703   -0.69711802     0.026258245  
   1322000   0.049115205   -0.80898612     0.036569121   -0.69879172     0.019548446  
   1323000   0.050606586   -0.80870783     0.036958785   -0.69588814     0.02161551   
   1324000   0.05116742    -0.80757741     0.039534988   -0.6913408      0.030240153  
   1325000   0.049947107   -0.80887252     0.037890947   -0.69610924     0.030918329  
   1326000   0.050403182   -0.80745063     0.038098734   -0.6937959      0.018921853  
   1327000   0.053044751   -0.8092166      0.036636392   -0.69306441     0.020827275  
   1328000   0.050655894   -0.80945389     0.038032768   -0.6954863      0.018046084  
   1329000   0.050645428   -0.80925876     0.036613807   -0.69672582     0.028492493  
   1330000   0.049642334   -0.80864208     0.037948827   -0.6962778      0.023473347  
   1331000   0.050875779   -0.80924661     0.037707526   -0.69527465     0.01332651   
   1332000   0.049575817   -0.8082714      0.037159437   -0.69679621     0.001506972  
   1333000   0.051788665   -0.80917605     0.037621599   -0.69392157     0.0007698428 
   1334000   0.050406393   -0.81006331     0.037502436   -0.69700006     0.019665953  
   1335000   0.052183849   -0.80841916     0.038242395   -0.6919515      0.011077294  
   1336000   0.050436414   -0.80885592     0.039581031   -0.69366908     0.0022189487 
   1337000   0.050649228   -0.80844065     0.036713006   -0.69580282     0.0062509435 
   1338000   0.050878919   -0.80773532     0.037980216   -0.69348596     0.0079679711 
   1339000   0.051511486   -0.80848869     0.036521202   -0.69475011     0.014098857  
   1340000   0.051141392   -0.80837003     0.037270451   -0.69443698     0.014100351  
   1341000   0.049901877   -0.80867547     0.038070092   -0.69580085     0.0075417581 
   1342000   0.049261096   -0.80771227     0.037365944   -0.69650235     0.023290434  
   1343000   0.049130415   -0.81006577     0.03802324    -0.69839445     0.020157572  
   1344000   0.050834155   -0.80919321     0.037805162   -0.69518601     0.029037112  
   1345000   0.049609087   -0.80960669     0.039569654   -0.69567142     0.033142548  
   1346000   0.050061424   -0.80992628     0.038044416   -0.69683817     0.01343023   
   1347000   0.051434465   -0.80983688     0.037244054   -0.6954909      0.036863753  
   1348000   0.050564719   -0.81022117     0.035992178   -0.69843085     0.014990714  
   1349000   0.049593809   -0.81106204     0.037853204   -0.69886612     0.01483859   
   1350000   0.05070628    -0.80999315     0.037406816   -0.69657599     0.025085562  
   1351000   0.050482221   -0.80944682     0.036943654   -0.69682869     0.02221006   
   1352000   0.050884216   -0.80896753     0.037413676   -0.69527677     0.0088255662 
   1353000   0.051860601   -0.80931629     0.039873441   -0.69170214     0.024478616  
   1354000   0.050215578   -0.80885088     0.036632494   -0.69694361     0.029303918  
   1355000   0.050733197   -0.80831804     0.038656073   -0.69361127     0.023984269  
   1356000   0.050930218   -0.81012677     0.040065683   -0.69371505     0.020304432  
   1357000   0.049781774   -0.80968297     0.040662476   -0.69439601     0.031680113  
   1358000   0.052077315   -0.81070003     0.038633061   -0.69400139     0.014223692  
   1359000   0.051265111   -0.81107056     0.038479237   -0.69574326     0.03563625   
   1360000   0.050702719   -0.81138234     0.038804617   -0.69657271     0.01724025   
   1361000   0.051915739   -0.81090651     0.038680124   -0.69440302     0.031375055  
   1362000   0.051719856   -0.80919154     0.036116204   -0.6955456      0.022401677  
   1363000   0.051354965   -0.8111683      0.039534356   -0.6946512      0.020777858  
   1364000   0.051388354   -0.81056472     0.037492952   -0.69603896     0.021470913  
   1365000   0.051905156   -0.81185608     0.037801217   -0.69624736     0.012007197  
   1366000   0.051213754   -0.81107495     0.038491102   -0.69581278     0.017760786  
   1367000   0.051523729   -0.81111078     0.037800251   -0.6960748      0.026668142  
   1368000   0.049885196   -0.80978183     0.038439246   -0.69656306     0.010219655  
   1369000   0.050581108   -0.81149541     0.037134391   -0.69853831     0.010917334  
   1370000   0.04840421    -0.81129738     0.036736994   -0.70200091     0.028016069  
   1371000   0.053634282   -0.81263393     0.038401762   -0.69383265     0.021770472  
   1372000   0.049424239   -0.81189048     0.039129348   -0.69867261     0.015387718  
   1373000   0.05150865    -0.81256882     0.036595301   -0.69876039     0.028592966  
   1374000   0.04979051    -0.81238111     0.039054315   -0.69868921     0.018515924  
   1375000   0.050731186   -0.81286923     0.038227479   -0.69859406     0.0090111576 
   1376000   0.04952568    -0.81209353     0.040450037   -0.69740291     0.0023017965 
   1377000   0.051817198   -0.81274065     0.038452368   -0.69661263     0.022271266  
   1378000   0.051250156   -0.81297615     0.038485977   -0.69766454     0.01589142   
   1379000   0.051003807   -0.81250459     0.039892102   -0.69615613     0.025556848  
   1380000   0.052070589   -0.81273738     0.039722435   -0.69495945     0.012445558  
   1381000   0.051278594   -0.8117114      0.037129608   -0.69771352     0.0092312514 
   1382000   0.051721719   -0.81320432     0.039913606   -0.69575819     0.024481586  
   1383000   0.050980861   -0.81335733     0.037303917   -0.69963146     0.020289745  
   1384000   0.05342996    -0.81163341     0.037163517   -0.69437666     0.014111889  
   1385000   0.052610558   -0.81162614     0.039098645   -0.69366257     0.0045028082 
   1386000   0.051873336   -0.8119393      0.037193901   -0.6969856      0.022608685  
   1387000   0.048730737   -0.81238025     0.036734562   -0.70259674     0.014941884  
   1388000   0.050288703   -0.81307187     0.037018033   -0.70066944     0.02791637   
   1389000   0.049430794   -0.8119725      0.035809353   -0.70206479     0.0021219579 
   1390000   0.052332287   -0.81258751     0.039672207   -0.69446752     0.028319861  
   1391000   0.051044864   -0.8127769      0.037476747   -0.69878226     0.019770145  
   1392000   0.050321488   -0.81255386     0.037992069   -0.69912826     0.021003711  
   1393000   0.052303059   -0.81361576     0.038056236   -0.69715556    -0.0063570503 
   1394000   0.049944887   -0.81416065     0.037500584   -0.70179107    -0.00035006587
   1395000   0.050493126   -0.81301333     0.039736291   -0.69758621     0.0064089245 
   1396000   0.049416079   -0.81343452     0.037036627   -0.70232159     0.029923121  
   1397000   0.049450554   -0.81316718     0.0368074     -0.70223181     0.014230284  
   1398000   0.049709063   -0.81435557     0.038509094   -0.70133099     0.036065567  
   1399000   0.051112234   -0.81442506     0.039501136   -0.69830504     0.017430238  
   1400000   0.049446448   -0.8158266      0.039408228   -0.70229655     0.032962468  
   1401000   0.050475413   -0.81631427     0.038174371   -0.70247563     0.021504685  
   1402000   0.051856523   -0.81523033     0.037055165   -0.70044056     0.028810287  
   1403000   0.048775319   -0.81559453     0.038706727   -0.70377203     0.012403935  
   1404000   0.049883946   -0.81627404     0.037172429   -0.70432397     0.0027037337 
   1405000   0.051052933   -0.81462644     0.036068199   -0.70202825     0.022225821  
   1406000   0.053033263   -0.81564032     0.038179616   -0.69796213     0.04533918   
   1407000   0.051794286   -0.81457443     0.040614406   -0.69631872     0.023922832  
   1408000   0.050094649   -0.81438966     0.038183024   -0.70111314     0.0052043426 
   1409000   0.051593616   -0.81504407     0.039975736   -0.69772784     0.018176384  
   1410000   0.049869556   -0.81462484     0.038102624   -0.70176615     0.016147056  
   1411000   0.050040558   -0.8153431      0.037832471   -0.70249822     0.00094768488
   1412000   0.052365525   -0.81580731     0.039298484   -0.69801121     0.034308159  
   1413000   0.051928568   -0.81462625     0.035627217   -0.70115643     0.030749104  
   1414000   0.051059917   -0.81317924     0.036646959   -0.69999182     0.023074236  
   1415000   0.051043048   -0.81502294     0.038860553   -0.69964721    -0.0041179116 
   1416000   0.050742933   -0.81438328     0.03843587    -0.69988212     0.021776636  
   1417000   0.050790944   -0.81473884     0.03823825    -0.70036333     0.011715107  
   1418000   0.051294321   -0.81685889     0.038828209   -0.70113884     0.0076872791 
   1419000   0.052739291   -0.81575485     0.038835363   -0.69786159     0.012782565  
   1420000   0.050272825   -0.81579075     0.039816896   -0.70061327     0.0089825363 
   1421000   0.050869506   -0.81458359     0.03964002    -0.69868854     0.013445611  
   1422000   0.052435906   -0.81469459     0.038668209   -0.69742326     0.0065455565 
   1423000   0.05004692    -0.81656149     0.039010286   -0.70252925     0.022896821  
   1424000   0.050868792   -0.81554876     0.037622405   -0.7016724      0.016466395  
   1425000   0.049589671   -0.81524442     0.038009568   -0.70289834     0.035727264  
   1426000   0.049597602   -0.81520444     0.036127586   -0.70472845     0.014922141  
   1427000   0.049140282   -0.81473049     0.036871612   -0.70419601     0.0094663361 
   1428000   0.049853481   -0.81528349     0.036767541   -0.70378397     0.027794773  
   1429000   0.051958849   -0.81594433     0.036096033   -0.70196031     0.0055949076 
   1430000   0.050682747   -0.81570966     0.037695628   -0.70203896     0.0091423028 
   1431000   0.050371434   -0.81505474     0.037743623   -0.70180271     0.010030881  
   1432000   0.051610234   -0.81413727     0.036362683   -0.70040919     0.023072007  
   1433000   0.050614221   -0.81602682     0.038803253   -0.70135122     0.02177541   
   1434000   0.04871102    -0.81494508     0.038875094   -0.7030506      0.020061613  
   1435000   0.051468829   -0.81535655     0.036088616   -0.7021145      0.0066444678 
   1436000   0.048085935   -0.81582481     0.038611614   -0.70513083     0.02324562   
   1437000   0.049238964   -0.81505688     0.037534896   -0.70371119     0.011132312  
   1438000   0.049934365   -0.81555227     0.03796394    -0.7027351      0.03441315   
   1439000   0.050505673   -0.8159877      0.038922082   -0.70135598     0.033730147  
   1440000   0.050216252   -0.81748379     0.038719973   -0.70348804     0.022320349  
   1441000   0.050814553   -0.81692544     0.037983873   -0.70276891     0.018426449  
   1442000   0.050241317   -0.81800988     0.036501959   -0.70619457     0.025338785  
   1443000   0.050956372   -0.81783792     0.036350605   -0.70510207     0.03999203   
   1444000   0.051907644   -0.81983467     0.038118764   -0.70390467     0.015667544  
   1445000   0.051128351   -0.81799688     0.036912458   -0.70444137     0.027264868  
   1446000   0.050156542   -0.81969392     0.039548595   -0.70495905     0.017182794  
   1447000   0.050614183   -0.81896353     0.038519919   -0.70457132     0.014021389  
   1448000   0.051982606   -0.81885        0.038206749   -0.70271965     0.013541335  
   1449000   0.052035081   -0.81690991     0.036676681   -0.70223096     0.010802068  
   1450000   0.050430448   -0.81593419     0.039097481   -0.70123984     0.0032776972 
   1451000   0.050846316   -0.81636539     0.03752865    -0.70261647     0.015741701  
   1452000   0.052106848   -0.8167403      0.038135242   -0.70049521     0.0092376705 
   1453000   0.050699457   -0.81779817     0.040025422   -0.70177263     0.011215743  
   1454000   0.051197493   -0.81692199     0.038710702   -0.7014646     -0.011590953  
   1455000   0.049600906   -0.81697756     0.037280752   -0.70534345     0.010238014  
   1456000   0.049946139   -0.81787128     0.03899142    -0.70400899     0.0088488438 
   1457000   0.050878263   -0.8167663      0.04046083    -0.70003731     0.015632391  
   1458000   0.050294541   -0.8167822      0.03885204    -0.70253702     0.0071868675 
   1459000   0.050991262   -0.81637929     0.037341515   -0.70260023     0.0018252717 
   1460000   0.049148926   -0.81598105     0.039177738   -0.70312749     0.013459237  
   1461000   0.051800049   -0.81674313     0.038268256   -0.70082493     0.025360746  
   1462000   0.050402951   -0.81683282     0.039107025   -0.70217015     0.0043880325 
   1463000   0.051587413   -0.81814627     0.039286189   -0.70152889     0.013475733  
   1464000   0.051962861   -0.81658726     0.038868305   -0.69982495     0.027044596  
   1465000   0.050184148   -0.81882974     0.038435994   -0.70516609     0.0064208102 
   1466000   0.050941552   -0.81846065     0.039756674   -0.70234094     0.018034107  
   1467000   0.050818943   -0.81787118     0.037501657   -0.70419029     0.0225445    
   1468000   0.051292477   -0.81899495     0.038332327   -0.70377354     0.017204445  
   1469000   0.051536015   -0.81823267     0.039678559   -0.70129996     0.0070403372 
   1470000   0.050651086   -0.81648798     0.036984702   -0.70357567     0.046429854  
   1471000   0.050670042   -0.81878919     0.037322521   -0.70551064     0.023711053  
   1472000   0.051710917   -0.81860719     0.03812121    -0.70296965     0.018219878  
   1473000   0.051787774   -0.81660713     0.039053331   -0.69992225     0.02260349   
   1474000   0.050834148   -0.81726738     0.037459431   -0.70360592     0.014936236  
   1475000   0.051357861   -0.81722065     0.038173439   -0.70206012     0.00610734   
   1476000   0.052229751   -0.81872094     0.038127078   -0.70229978     0.019702915  
   1477000   0.050683144   -0.82003374     0.038411595   -0.70564648     0.022506933  
   1478000   0.050944809   -0.81860098     0.038398938   -0.70383413     0.0087232614 
   1479000   0.051742293   -0.81931599     0.037222458   -0.70453016     0.019068234  
   1480000   0.05133207    -0.81907015     0.035882859   -0.70623886     0.0055045227 
   1481000   0.048776807   -0.82065024     0.036942653   -0.71058958     0.013318212  
   1482000   0.050370957   -0.82149263     0.03754641    -0.70843853     0.020026547  
   1483000   0.051436979   -0.82164029     0.038421046   -0.70611355     0.031708179  
   1484000   0.049008324   -0.82195848     0.038791707   -0.70970172     0.027156808  
   1485000   0.050807743   -0.82028137     0.037239355   -0.70687957     0.02194163   
   1486000   0.050081486   -0.8205612      0.038494702   -0.70699273     0.027698692  
   1487000   0.050044611   -0.82027042     0.03942472    -0.70582722     0.011703284  
   1488000   0.050509461   -0.82150233     0.037470396   -0.70831662     0.016693638  
   1489000   0.050409084   -0.819251       0.036972421   -0.70671373     0.015791998  
   1490000   0.050242381   -0.82125971     0.039182066   -0.70676269     0.021871093  
   1491000   0.050045615   -0.81971456     0.03787252    -0.70682205     0.018724621  
   1492000   0.052089583   -0.81759348     0.036994859   -0.70251465     0.014294723  
   1493000   0.050533295   -0.81873223     0.040472324   -0.70250887     0.015787507  
   1494000   0.049868501   -0.81863731     0.03835327    -0.70552955     0.018250045  
   1495000   0.05171722    -0.81914236     0.039748082   -0.7018685      0.026507503  
   1496000   0.053092081   -0.81877103     0.0405483     -0.69863599     0.03232462   
   1497000   0.052055439   -0.81945359     0.040860519   -0.70056028     0.0048642806 
   1498000   0.051950318   -0.81818813     0.038488136   -0.70182479     0.026282221  
   1499000   0.051647151   -0.81848863     0.040539938   -0.70052795     0.028373265  
   1500000   0.052209775   -0.81698066     0.036803729   -0.70191279     0.027530456  
   1501000   0.052053702   -0.81768515     0.039829714   -0.69982526     0.018307224  
   1502000   0.053297514   -0.81935135     0.039925488   -0.69953117     0.0100162    
   1503000   0.051246326   -0.81865409     0.040436406   -0.70139779     0.02655743   
   1504000   0.05070715    -0.81966668     0.037189755   -0.70646527     0.022165501  
   1505000   0.049892253   -0.81879344     0.038373972   -0.70562937     0.048098138  
   1506000   0.052957295   -0.820706       0.039493928   -0.70182737     0.033896101  
   1507000   0.050878776   -0.81992899     0.040636103   -0.70302396     0.035608409  
   1508000   0.05181249    -0.8198548      0.038534269   -0.70365193     0.030048181  
   1509000   0.050248635   -0.81976311     0.038191733   -0.70624705     0.045825234  
   1510000   0.051035117   -0.8201591      0.037577136   -0.70607868     0.020244255  
   1511000   0.049751013   -0.82018303     0.038436038   -0.70716862     0.035219747  
   1512000   0.051925827   -0.8210596      0.037347268   -0.70587385     0.044584876  
   1513000   0.050728749   -0.82063187     0.040320745   -0.7042671      0.033256275  
   1514000   0.05288216    -0.81979971     0.038884468   -0.70164318     0.035913478  
   1515000   0.052798259   -0.81947468     0.038398467   -0.70192992     0.040559686  
   1516000   0.051486085   -0.82067899     0.038860807   -0.70463888     0.0293692    
   1517000   0.050299953   -0.82123759     0.03864714    -0.7071892      0.023946388  
   1518000   0.050871541   -0.82140157     0.039488052   -0.70565544     0.044137916  
   1519000   0.050062855   -0.82032401     0.038237305   -0.70704087     0.024439762  
   1520000   0.051120892   -0.82085617     0.03833528    -0.70588903     0.018626752  
   1521000   0.0529234     -0.8186284      0.037792719   -0.7015018      0.026943151  
   1522000   0.051252076   -0.82027163     0.039769699   -0.70367342     0.027249874  
   1523000   0.050677856   -0.82055364     0.038463197   -0.7061227      0.025319611  
   1524000   0.051912228   -0.82331902     0.040814293   -0.70468662     0.013360201  
   1525000   0.050839864   -0.82174251     0.036369905   -0.70916201     0.026054063  
   1526000   0.050242556   -0.82217669     0.039533992   -0.70732748     0.029760475  
   1527000   0.050715598   -0.82141385     0.037931857   -0.70745768     0.0095278796 
   1528000   0.049768057   -0.82117038     0.03848395    -0.70808251     0.010813967  
   1529000   0.051024664   -0.82169669     0.037426064   -0.70778301     0.013988657  
   1530000   0.050452281   -0.82036506     0.037430238   -0.70730523     0.014398505  
   1531000   0.050111054   -0.8216723      0.037917757   -0.70863646     0.020713414  
   1532000   0.051180107   -0.82159074     0.040126284   -0.70474382     0.0067416758 
   1533000   0.049756063   -0.82187993     0.038392789   -0.70890119     0.010638314  
   1534000   0.051950411   -0.82239437     0.036277204   -0.70824183     0.034046843  
   1535000   0.050298261   -0.82230842     0.038347544   -0.70856216     0.016547051  
   1536000   0.050820304   -0.82356744     0.037493721   -0.70989245     0.044498347  
   1537000   0.050746945   -0.8239549      0.038915925   -0.70896767     0.027907319  
   1538000   0.04975064    -0.82289143     0.037729805   -0.71058381     0.03462653   
   1539000   0.049699466   -0.82348992     0.036265324   -0.71272349     0.019919503  
   1540000   0.04847069    -0.82447014     0.03969694    -0.71211407     0.01226911   
   1541000   0.049952231   -0.82627548     0.036548544   -0.71484693     0.0099456473 
   1542000   0.049699609   -0.82447248     0.039835338   -0.71013582     0.024497206  
   1543000   0.05205436    -0.82424728     0.038409027   -0.70780708     0.0088246277 
   1544000   0.050705113   -0.82445649     0.038168796   -0.71027909     0.026354156  
   1545000   0.052660665   -0.82414516     0.038784717   -0.70642041     0.029458317  
   1546000   0.052006398   -0.82465164     0.039526438   -0.70716593     0.029014197  
   1547000   0.05090301    -0.82315116     0.039601863   -0.70724404     0.020406427  
   1548000   0.050480107   -0.8236861      0.038988956   -0.70902584    -0.005392523  
   1549000   0.050742652   -0.82407008     0.038211953   -0.70979326     0.023286769  
   1550000   0.050743005   -0.82469725     0.037183401   -0.71144845     0.0011436513 
   1551000   0.052597643   -0.82529798     0.037847434   -0.70860498    -0.00097083549
   1552000   0.05150998    -0.82502423     0.03792722    -0.70988188     0.0071979414 
   1553000   0.050352425   -0.82363408     0.039730549   -0.70842362     0.022985176  
   1554000   0.049599051   -0.82485085     0.039144928   -0.71135534     0.0098336455 
   1555000   0.04881537    -0.82473732     0.03813668    -0.71342483     0.022482999  
   1556000   0.050902176   -0.82499699     0.036134771   -0.71255822     0.017793757  
   1557000   0.050164522   -0.82424401     0.038715792   -0.71032998     0.015287873  
   1558000   0.051575998   -0.82370674     0.038313335   -0.70807932     0.011925474  
   1559000   0.053562311   -0.82441919     0.040400502   -0.70372706     0.019572959  
   1560000   0.049260941   -0.82481833     0.040267694   -0.7107069      0.0010536751 
   1561000   0.053274519   -0.82438121     0.038167284   -0.7063537      0.0051032236 
   1562000   0.050976603   -0.82469148     0.038427567   -0.70984834    -0.010806504  
   1563000   0.050786963   -0.82499059     0.038432973   -0.71042632     0.019650348  
   1564000   0.051818162   -0.82312927     0.036878787   -0.70857339     0.032869983  
   1565000   0.051622743   -0.82490434     0.038559945   -0.70896024     0.003492424  
   1566000   0.049386543   -0.82531216     0.03841176    -0.71286838     0.014906071  
   1567000   0.051435574   -0.82608458     0.036865763   -0.71211523     0.021162395  
   1568000   0.049697659   -0.82522907     0.038605233   -0.71212544     0.019621348  
   1569000   0.048955759   -0.82536462     0.038269975   -0.71370838     0.022733664  
   1570000   0.04993298    -0.82492831     0.037665875   -0.71241129    -0.0066234144 
   1571000   0.0495741     -0.82566212     0.037549479   -0.71379947    -0.00054791201
   1572000   0.049250171   -0.82535142     0.037974941   -0.71354888     0.028615939  
   1573000   0.051740926   -0.82558127     0.038105589   -0.70991437     0.029024144  
   1574000   0.050686432   -0.82508482     0.037493397   -0.71161082     0.025704624  
   1575000   0.050408279   -0.82568696     0.037015726   -0.7131076      0.03060676   
   1576000   0.048193086   -0.82461344     0.038256675   -0.71411377     0.03870843   
   1577000   0.050837211   -0.82532152     0.038406138   -0.71070877     0.026667307  
   1578000   0.051186003   -0.8259558      0.037431315   -0.71179502     0.042712093  
   1579000   0.049858907   -0.82531465     0.037274375   -0.71330016     0.03745913   
   1580000   0.051388624   -0.82506788     0.037927902   -0.71010677     0.035101492  
   1581000   0.048846909   -0.82503623     0.038832487   -0.71298065     0.047372018  
   1582000   0.049973527   -0.82660768     0.039694311   -0.71200144     0.01611277   
   1583000   0.050566028   -0.82656458     0.037426491   -0.71333798     0.03898375   
   1584000   0.050271292   -0.82487751     0.037072774   -0.71244645     0.034750217  
   1585000   0.050779143   -0.82663951     0.039435564   -0.71108437     0.049947424  
   1586000   0.051456827   -0.82681947     0.039888054   -0.70979597     0.032945777  
   1587000   0.0498847     -0.82524481     0.039685007   -0.71078103     0.029863554  
   1588000   0.051879962   -0.82650334     0.037712836   -0.71102077     0.04512445   
   1589000   0.051357849   -0.82547237     0.036000845   -0.71248445     0.032649937  
   1590000   0.051287672   -0.82649705     0.035963956   -0.71365122     0.037162131  
   1591000   0.051134509   -0.82489155     0.036727228   -0.71151204     0.029069806  
   1592000   0.050965513   -0.82534474     0.039474254   -0.70947154     0.0087912954 
   1593000   0.051156293   -0.82471154     0.038934022   -0.70909258     0.027630737  
   1594000   0.050001781   -0.8262489      0.039086703   -0.71220792     0.010916249  
   1595000   0.051537856   -0.82518296     0.038333404   -0.70959265    -0.0018089932 
   1596000   0.050952407   -0.82623321     0.038091656   -0.71176225     0.018996697  
   1597000   0.050967621   -0.82604518     0.038999787   -0.71064328     0.037098723  
   1598000   0.051231534   -0.82711222     0.039149129   -0.71116537     0.018460828  
   1599000   0.048261932   -0.82612938     0.03744214    -0.71634105     0.04858587   
   1600000   0.052017631   -0.82703092     0.037303914   -0.7117509      0.025483289  
   1601000   0.051102721   -0.82517076     0.039025856   -0.70954027     0.030461068  
   1602000   0.050594243   -0.82736625     0.03624713    -0.71527671     0.041836666  
   1603000   0.05153723    -0.82703695     0.040536933   -0.70924405     0.019291902  
   1604000   0.050768534   -0.82658453     0.03783589    -0.71264497     0.0019204435 
   1605000   0.052270198   -0.82719057     0.039401264   -0.7094346      0.034210355  
   1606000   0.048970397   -0.82557887     0.040220208   -0.71195046     0.037414869  
   1607000   0.051544786   -0.82748935     0.038869304   -0.71135275     0.018541245  
   1608000   0.05164484    -0.82563226     0.040204401   -0.70801058     0.03063134   
   1609000   0.05013046    -0.82618864     0.038034547   -0.71300692     0.020422452  
   1610000   0.051378073   -0.82608095     0.038512934   -0.71055063     0.027999738  
   1611000   0.049423105   -0.82710829     0.039925647   -0.71309581     0.031574488  
   1612000   0.051348825   -0.82641987     0.038550151   -0.71089617     0.021588904  
   1613000   0.052301613   -0.82583557     0.037853017   -0.70958075     0.050582372  
   1614000   0.052385175   -0.82508919     0.03837536    -0.70818676     0.028596735  
   1615000   0.051959817   -0.8266381      0.038667165   -0.7100815      0.015201934  
   1616000   0.049861639   -0.82583582     0.040376245   -0.71071537     0.015020101  
   1617000   0.049922619   -0.82643087     0.03858055    -0.71301471     0.014080333  
   1618000   0.049742213   -0.82581097     0.039216257   -0.71202953     0.011313274  
   1619000   0.052033032   -0.82702726     0.039755343   -0.70927272     0.042520403  
   1620000   0.051014291   -0.82466227     0.040554506   -0.7076357      0.016344158  
   1621000   0.051464957   -0.82629516     0.038431432   -0.7107161      0.052766769  
   1622000   0.051561898   -0.82501604     0.03816237    -0.70956072     0.030788863  
   1623000   0.050242593   -0.82638678     0.037977753   -0.71309376     0.014609918  
   1624000   0.052237789   -0.82637477     0.039505018   -0.70856362     0.0048818438 
   1625000   0.051604143   -0.82566004     0.038938162   -0.70936561     0.05133637   
   1626000   0.052547062   -0.82669469     0.039872643   -0.7080523      0.0067166964 
   1627000   0.050551117   -0.82532909     0.040737173   -0.70881416     0.035637866  
   1628000   0.051547624   -0.82571344     0.035962055   -0.71247984     0.037272677  
   1629000   0.050543017   -0.82639426     0.038269193   -0.71235945     0.026507984  
   1630000   0.049001731   -0.82643253     0.039164313   -0.71381304     0.0252411    
   1631000   0.051057217   -0.82672225     0.040350748   -0.70983509     0.0081798093 
   1632000   0.050069815   -0.82784829     0.038465458   -0.71432657     0.0080710989 
   1633000   0.048889469   -0.82651566     0.037596866   -0.71563191     0.040797608  
   1634000   0.051526026   -0.82674933     0.038547577   -0.71096257     0.013984193  
   1635000   0.053711054   -0.82734525     0.040334869   -0.70649578     0.025593376  
   1636000   0.051757482   -0.82729694     0.040986265   -0.70872454     0.023777406  
   1637000   0.05071381    -0.82655044     0.037769784   -0.71275902     0.018994039  
   1638000   0.051198417   -0.8273227      0.03835638    -0.71221824     0.03053067   
   1639000   0.049365262   -0.82783407     0.038844489   -0.71498946     0.011971512  
   1640000   0.050559493   -0.82626373     0.038218627   -0.7122548      0.042136135  
   1641000   0.051111006   -0.82628691     0.038132832   -0.71153703    -0.0020954606 
   1642000   0.05096447    -0.82686067     0.039844694   -0.71061859     0.014535329  
   1643000   0.05110563    -0.82567821     0.036556237   -0.71251298     0.021131334  
   1644000   0.050543508   -0.82530568     0.038918179   -0.71062115     0.033931159  
   1645000   0.051153525   -0.82756255     0.039883338   -0.71099842     0.029145961  
   1646000   0.050604084   -0.82668754     0.0403089     -0.71052148     0.016314568  
   1647000   0.050144567   -0.82727735     0.037437792   -0.71467123     0.018404222  
   1648000   0.050119858   -0.82770348     0.039490361   -0.71308183     0.011679981  
   1649000   0.051994695   -0.82696809     0.039194977   -0.70983138     0.010211778  
   1650000   0.051308243   -0.82759975     0.037989986   -0.71269705     0.030629765  
   1651000   0.052177946   -0.82642625     0.035014245   -0.71319558     0.039541572  
   1652000   0.051763627   -0.8262354      0.038922814   -0.70971724     0.023198338  
   1653000   0.049906444   -0.82702001     0.039122641   -0.713086       0.027526582  
   1654000   0.051385934   -0.82957657     0.036859317   -0.71568808     0.027188295  
   1655000   0.048858545   -0.82855325     0.038410482   -0.71690224     0.017399096  
   1656000   0.050826372   -0.82804543     0.037944868   -0.71391019     0.02104923   
   1657000   0.051443124   -0.82782066     0.039450428   -0.71125534     0.02316976   
   1658000   0.050719972   -0.8279513      0.038667987   -0.71325244     0.028878588  
   1659000   0.050652335   -0.82702103     0.036988319   -0.71410323     0.036031944  
   1660000   0.050152721   -0.82764332     0.038878493   -0.71358428     0.017140522  
   1661000   0.050624858   -0.82742411     0.039782974   -0.71175284     0.036526052  
   1662000   0.051037309   -0.82574111     0.037930417   -0.71130412     0.039970522  
   1663000   0.051456861   -0.82778382     0.042947572   -0.70770075     0.010350794  
   1664000   0.051226407   -0.82908859     0.040916898   -0.71138166     0.035152457  
   1665000   0.052107005   -0.82874326     0.036909799   -0.71372338     0.020561481  
   1666000   0.048824508   -0.82759621     0.039419706   -0.714987       0.023891845  
   1667000   0.050182908   -0.82711558     0.037893956   -0.71399583     0.027509532  
   1668000   0.049999269   -0.82874842     0.038107616   -0.71569029     0.0051134838 
   1669000   0.051175843   -0.82863947     0.038837943   -0.71308728     0.0031503917 
   1670000   0.051133698   -0.8278604      0.039661554   -0.71154778     0.054353281  
   1671000   0.051119901   -0.8267745      0.039255236   -0.71088888     0.021133828  
   1672000   0.049118618   -0.8286367      0.039414532   -0.71559178     0.013455575  
   1673000   0.05050746    -0.82889067     0.035459641   -0.71771871     0.024898524  
   1674000   0.050425058   -0.82946286     0.038843462   -0.71503061     0.035885327  
   1675000   0.04983757    -0.82799879     0.039567517   -0.71372315     0.026334873  
   1676000   0.050909882   -0.82835829     0.037197657   -0.71484507     0.033623123  
   1677000   0.05281545    -0.82864339     0.03885293    -0.7106184      0.02292831   
   1678000   0.049835142   -0.82750112     0.037383458   -0.71541317     0.029626377  
   1679000   0.050177462   -0.82843002     0.037983462   -0.71522892     0.018893413  
   1680000   0.050691006   -0.82746424     0.036402371   -0.71507442     0.024229276  
   1681000   0.050625782   -0.8287926      0.039073901   -0.71382901     0.0058701753 
   1682000   0.050673057   -0.82865367     0.038557448   -0.71413567     0.024117562  
   1683000   0.050784316   -0.8285724      0.037652073   -0.71479299     0.035752253  
   1684000   0.050365635   -0.82887096     0.038787007   -0.71458424     0.019085874  
   1685000   0.049979026   -0.82868064     0.037130986   -0.71662948     0.012733101  
   1686000   0.049603281   -0.82866337     0.036180853   -0.7181256      0.032560369  
   1687000   0.049766362   -0.82889598     0.038565828   -0.71572877     0.03932408   
   1688000   0.051228796   -0.82827264     0.037720753   -0.71375827     0.020110134  
   1689000   0.048355594   -0.82723465     0.039069534   -0.71567852     0.027931455  
   1690000   0.049264968   -0.82807393     0.038535551   -0.7156886      0.012044569  
   1691000   0.050557201   -0.82694349     0.036776828   -0.71437979     0.017092304  
   1692000   0.051956183   -0.82664421     0.038865664   -0.70989456     0.022147199  
   1693000   0.051085581   -0.82736178     0.039294521   -0.71148832     0.015825501  
   1694000   0.050611014   -0.8282677      0.038673239   -0.71372692     0.015009408  
   1695000   0.050498379   -0.82914303     0.037957888   -0.71548644     0.023146955  
   1696000   0.051245876   -0.8280589      0.037796966   -0.71344272     0.033206443  
   1697000   0.049617651   -0.82859758     0.037593236   -0.71662588     0.0092150294 
   1698000   0.049981228   -0.82873813     0.038480719   -0.71533394     0.018929709  
   1699000   0.050313496   -0.82870167     0.038477693   -0.71480242     0.010859976  
   1700000   0.051062198   -0.82903881     0.0383988     -0.71409613     0.016530796  
   1701000   0.050675383   -0.82927168     0.041919111   -0.71138854     0.019703161  
   1702000   0.051258299   -0.82869846     0.03882927    -0.71303135     0.040182637  
   1703000   0.052539457   -0.82780528     0.036931861   -0.71211508     0.037377836  
   1704000   0.051204383   -0.82934792     0.038911303   -0.71367959     0.02865135   
   1705000   0.050669381   -0.82705563     0.037141362   -0.71395923     0.026759055  
   1706000   0.051139221   -0.82926109     0.038092239   -0.71450951     0.04031831   
   1707000   0.049150092   -0.82776953     0.039543994   -0.71454796     0.009391482  
   1708000   0.050385807   -0.82981474     0.040253522   -0.71403127     0.014290617  
   1709000   0.051893704   -0.82914035     0.038516323   -0.71283369     0.0077892435 
   1710000   0.05391194    -0.82860638     0.040558922   -0.70723172     0.049669291  
   1711000   0.051335013   -0.82880966     0.038005477   -0.71385135     0.025763105  
   1712000   0.050109307   -0.83056162     0.037111639   -0.71833451     0.042988014  
   1713000   0.049534066   -0.83095923     0.037127463   -0.7195786      0.034064935  
   1714000   0.051581681   -0.83131999     0.041645503   -0.71235188     0.04024294   
   1715000   0.050082555   -0.82960165     0.039085095   -0.71544119     0.0047261836 
   1716000   0.049439025   -0.83047713     0.039823624   -0.71654282     0.028851196  
   1717000   0.049895611   -0.83114932     0.03896075    -0.71739344     0.04556702   
   1718000   0.050141456   -0.83116436     0.03915299    -0.71684771     0.026744756  
   1719000   0.050757186   -0.83120041     0.039790792   -0.71532296     0.013685017  
   1720000   0.050291967   -0.83049873     0.03926469    -0.71584476     0.028538557  
   1721000   0.051117701   -0.83089152     0.039231019   -0.71503342     0.042065837  
   1722000   0.050334037   -0.83223649     0.03934303    -0.71744112     0.024968987  
   1723000   0.050226357   -0.82966637     0.037778712   -0.71659673     0.02086099   
   1724000   0.052870288   -0.83136188     0.038572868   -0.71353474     0.017332573  
   1725000   0.050319745   -0.83009416     0.039354215   -0.71530903     0.016633012  
   1726000   0.049124609   -0.83042526     0.039048778   -0.71773711     0.013401465  
   1727000   0.050612154   -0.83178616     0.039415658   -0.71650125     0.024332432  
   1728000   0.048334552   -0.83145228     0.038384749   -0.72061247     0.029738242  
   1729000   0.051222447   -0.83100247     0.039521701   -0.71469667     0.016536916  
   1730000   0.050928458   -0.82938157     0.038349753   -0.71468842     0.044763205  
   1731000   0.050175219   -0.82989461     0.03837353    -0.7163068      0.025504822  
   1732000   0.050598614   -0.83000856     0.038598504   -0.7155611      0.038332379  
   1733000   0.050346563   -0.83125437     0.038285254   -0.717498       0.026951609  
   1734000   0.051280787   -0.83116272     0.039593595   -0.71469757     0.013204601  
   1735000   0.049696598   -0.83101772     0.03968609    -0.71683483     0.031796139  
   1736000   0.049230948   -0.83193799     0.038557553   -0.71958166     0.011468127  
   1737000   0.050482443   -0.83260419     0.039151832   -0.71777755     0.0029851099 
   1738000   0.051279527   -0.83094148     0.037848354   -0.71622346     0.00044966842
   1739000   0.050933867   -0.83129152     0.038618572   -0.71632144     0.034922371  
   1740000   0.050309314   -0.82986797     0.038115497   -0.71633718     0.028973096  
   1741000   0.049957269   -0.83048115     0.036750369   -0.71884323     0.033613601  
   1742000   0.049199129   -0.83158966     0.036979293   -0.72085929     0.025506745  
   1743000   0.049916492   -0.8302191      0.038738597   -0.71665408     0.025890074  
   1744000   0.051537337   -0.83178407     0.038401332   -0.71612661     0.036978411  
   1745000   0.050362731   -0.83154777     0.038500138   -0.71755227     0.013612085  
   1746000   0.050685107   -0.83153677     0.03822739    -0.71733077     0.012502883  
   1747000   0.05047429    -0.83279721     0.038781343   -0.71835328     0.012166053  
   1748000   0.051120729   -0.83258257     0.040435407   -0.71551554     0.024370314  
   1749000   0.049831992   -0.83262686     0.040277629   -0.71764947     0.018334563  
   1750000   0.051181978   -0.83308618     0.039025277   -0.71733747     0.024638482  
   1751000   0.050769681   -0.83342619     0.039242076   -0.71807872     0.026557725  
   1752000   0.05164164    -0.83307748     0.037056486   -0.71860851     0.029600254  
   1753000   0.050781641   -0.83463457     0.040113132   -0.71839812     0.013092117  
   1754000   0.050781257   -0.83383652     0.038604116   -0.71910966     0.018423476  
   1755000   0.052221126   -0.8350072      0.04020807    -0.71651798     0.02345781   
   1756000   0.050552659   -0.83422697     0.038703504   -0.7197434      0.013080795  
   1757000   0.050595796   -0.83376258     0.038815454   -0.7191024      0.022237052  
   1758000   0.049313716   -0.8360665      0.04070087    -0.72144278     0.015463277  
   1759000   0.051456833   -0.83735645     0.039438322   -0.72078267     0.025114977  
   1760000   0.051247384   -0.83661966     0.037860968   -0.72193721     0.0063559736 
   1761000   0.050721904   -0.83768184     0.039262591   -0.72238548     0.012096174  
   1762000   0.051896966   -0.83763562     0.039686998   -0.72015339     0.0065377299 
   1763000   0.052160729   -0.83468891     0.037398764   -0.71909953     0.023196071  
   1764000   0.049688639   -0.83642779     0.037315946   -0.72462697     0.023229281  
   1765000   0.050091913   -0.8373701      0.037453276   -0.72482743     0.025914539  
   1766000   0.050100802   -0.83631529     0.039178949   -0.72203362     0.013531655  
   1767000   0.051115006   -0.8382467      0.03853219    -0.72309146     0.022114099  
   1768000   0.051374676   -0.83713574     0.039599362   -0.72052408     0.0024500726 
   1769000   0.050591994   -0.83833105     0.037785127   -0.72470689     0.017991846  
   1770000   0.050263133   -0.83694191     0.037627896   -0.72396796     0.008779328  
   1771000   0.049061881   -0.83704752     0.038052763   -0.72544942     0.035529522  
   1772000   0.049172495   -0.83693879     0.038038142   -0.72518949     0.013150514  
   1773000   0.050989379   -0.83852329     0.038459284   -0.72362928     0.020536589  
   1774000   0.050340925   -0.8366616      0.038289561   -0.72290936     0.0076057429 
   1775000   0.049624173   -0.83533488     0.037999765   -0.72294688     0.0060175521 
   1776000   0.050608617   -0.83662881     0.038757956   -0.72200691     0.014051242  
   1777000   0.050301681   -0.8373025      0.039436432   -0.72246222     0.016759671  
   1778000   0.050934808   -0.83582883     0.039520055   -0.71995586     0.0062479824 
   1779000   0.050443612   -0.83629477     0.038789287   -0.72188888     0.0015818398 
   1780000   0.052287745   -0.83636594     0.037498883   -0.72048604     0.0087959152 
   1781000   0.051459136   -0.83658068     0.039952817   -0.71948896     0.0023542736 
   1782000   0.051345922   -0.83740907     0.040787129   -0.71965274     0.0019965657 
   1783000   0.053401569   -0.83537882     0.037316803   -0.71801135     0.028826536  
   1784000   0.050869251   -0.83610434     0.041379498   -0.71847019     0.014966151  
   1785000   0.049940864   -0.83619482     0.038199525   -0.72313232     0.0095081039 
   1786000   0.05063824    -0.83574977     0.039897789   -0.71994362     0.030110104  
   1787000   0.051806375   -0.83568112     0.038882206   -0.71913948     0.021727928  
   1788000   0.051156524   -0.83667715     0.038708568   -0.72128331     0.013367721  
   1789000   0.05035728    -0.83646907     0.039855263   -0.72112662     0.014561546  
   1790000   0.049639456   -0.83573445     0.037326815   -0.72399649     0.0075488116 
   1791000   0.050530961   -0.83612516     0.039276438   -0.72110118     0.0053552402 
   1792000   0.050170831   -0.83690461     0.039709161   -0.72198775     0.022859416  
   1793000   0.049944459   -0.8357158      0.041570586   -0.71927686     0.025279987  
   1794000   0.052021062   -0.83838877     0.041094372   -0.71931315     0.016554925  
   1795000   0.052396867   -0.83916606     0.0409288     -0.71969266     0.02050813   
   1796000   0.052602897   -0.83834856     0.040490458   -0.71900466     0.0075469147 
   1797000   0.050267251   -0.83780682     0.042193561   -0.72026103     0.017438557  
   1798000   0.0513774     -0.84037129     0.039191527   -0.72416338     0.023058314  
   1799000   0.050328678   -0.8397393      0.040310519   -0.72398447     0.018348738  
   1800000   0.052018055   -0.84063279     0.041135032   -0.72152101     0.012207456  
   1801000   0.050588775   -0.83935935     0.040732499   -0.72279265     0.027216773  
   1802000   0.049766385   -0.83893787     0.038925509   -0.72541095     0.019993841  
   1803000   0.050035878   -0.83908074     0.038292187   -0.72578315     0.020024834  
   1804000   0.0499168     -0.84062233     0.038340947   -0.72745449     0.011840887  
   1805000   0.050527931   -0.83969041     0.038063141   -0.72588428     0.045257262  
   1806000   0.052422283   -0.83977354     0.039445932   -0.72174492     0.035170765  
   1807000   0.050115409   -0.83993229     0.039408384   -0.72539929     0.012628838  
   1808000   0.050976128   -0.83978095     0.038992925   -0.72437316     0.01162001   
   1809000   0.050821886   -0.83849223     0.039755292   -0.72255329     0.029382393  
   1810000   0.050873135   -0.83979646     0.041408241   -0.72212775     0.033171103  
   1811000   0.049987707   -0.83870156     0.03928777    -0.72448061     0.022358117  
   1812000   0.050380623   -0.8396699      0.040498438   -0.72364928     0.026244648  
   1813000   0.052515819   -0.83815623     0.036847222   -0.72258611     0.026791961  
   1814000   0.049762456   -0.84013043     0.038984235   -0.72655067     0.033403103  
   1815000   0.051218271   -0.83981325     0.039879245   -0.72315616     0.0042177263 
   1816000   0.050230766   -0.8392075      0.038459706   -0.72545026     0.016224358  
   1817000   0.050917859   -0.83823327     0.037877903   -0.72402786     0.028609868  
   1818000   0.052161965   -0.83926045     0.038467318   -0.72260066     0.027749258  
   1819000   0.049627778   -0.8395382      0.03896324    -0.72618132     0.013610229  
   1820000   0.050772873   -0.8384083      0.041331071   -0.72096706     0.039836427  
   1821000   0.050787413   -0.83791286     0.039900356   -0.72188053     0.0096903553 
   1822000   0.051397834   -0.83948892     0.039654856   -0.72278705     0.021665553  
   1823000   0.050773681   -0.83858598     0.040365388   -0.72210921     0.025381427  
   1824000   0.052174443   -0.83783218     0.038397939   -0.72122306     0.024906399  
   1825000   0.053428458   -0.83845791     0.038690781   -0.71967615     0.027547981  
   1826000   0.050465794   -0.83917445     0.038829204   -0.72469539     0.026276009  
   1827000   0.049260426   -0.83850293     0.04092266    -0.72373731     0.012768408  
   1828000   0.050652517   -0.8407637      0.041929662   -0.72290428     0.019941396  
   1829000   0.050776653   -0.83969793     0.039496633   -0.72408545     0.021506913  
   1830000   0.049587662   -0.83942019     0.039469562   -0.72561713     0.016752085  
   1831000   0.051671632   -0.83994046     0.040627415   -0.7218556      0.021422585  
   1832000   0.051404839   -0.83948199     0.039660462   -0.72276401     0.0096595804 
   1833000   0.050042819   -0.83810581     0.039925421   -0.72316459     0.00378884   
   1834000   0.050771552   -0.83750072     0.039470938   -0.72192159     0.011090612  
   1835000   0.05005179    -0.83931789     0.040634618   -0.72365403     0.009625211  
   1836000   0.052606449   -0.83896819     0.039084909   -0.72102452     0.0091848306 
   1837000   0.052364971   -0.83861712     0.039272953   -0.72084739     0.01995677   
   1838000   0.051296964   -0.83829967     0.041473382   -0.71993048     0.016395035  
   1839000   0.051576249   -0.8386984      0.039473094   -0.72191084     0.013810181  
   1840000   0.051174216   -0.83948315     0.038679299   -0.72409205     0.020491553  
   1841000   0.050231743   -0.83959949     0.039318391   -0.7249821      0.012299105  
   1842000   0.050926431   -0.8398117      0.040516075   -0.72295526     0.0148795    
   1843000   0.051518264   -0.83878813     0.039468963   -0.72209163    -0.012906791  
   1844000   0.051061519   -0.84075513     0.040059916   -0.72415235    -0.0038086479 
   1845000   0.051950815   -0.84020234     0.039698353   -0.72262804     0.0080944346 
   1846000   0.051347014   -0.83890256     0.039630293   -0.72230144     0.01239547   
   1847000   0.049444121   -0.83820819     0.039572887   -0.72451697     0.041843555  
   1848000   0.050769198   -0.8388629      0.040438001   -0.72232023     0.017004617  
   1849000   0.051754148   -0.83913627     0.039065958   -0.72248918     0.0071491041 
   1850000   0.047804374   -0.83936879     0.039081024   -0.72862747     0.022712972  
   1851000   0.050447422   -0.83886209     0.038700635   -0.72453914     0.012760639  
   1852000   0.051705184   -0.84103583     0.039246181   -0.72428191     0.0083745226 
   1853000   0.051442958   -0.84078266     0.039205874   -0.72446214    -0.0095434609 
   1854000   0.05272862    -0.83986988     0.038592047   -0.72223593     0.015909736  
   1855000   0.050220895   -0.83948255     0.039099883   -0.72509993     0.016650283  
   1856000   0.050109384   -0.83843602     0.042776591   -0.72054384     0.0131492    
   1857000   0.051694574   -0.83910348     0.039118882   -0.72249277     0.013413805  
   1858000   0.051961737   -0.83899021     0.040840211   -0.72025768     0.029921275  
   1859000   0.051891885   -0.83991338     0.041660684   -0.72046509    -0.0018031888 
   1860000   0.051788153   -0.83946989     0.03899889    -0.72283889     0.030223914  
   1861000   0.052193712   -0.83951113     0.041098456   -0.72017261     0.023277356  
   1862000   0.051298339   -0.83980519     0.040328717   -0.72257861     0.015597331  
   1863000   0.049533652   -0.83880257     0.041369539   -0.72318049     0.021407812  
   1864000   0.049954952   -0.83978342     0.039488253   -0.72541108     0.00958615   
   1865000   0.051503613   -0.84322107     0.041650621   -0.72436487     0.00053804504
   1866000   0.05059628    -0.84007379     0.04129057    -0.72293776     0.0095603913 
   1867000   0.050942131   -0.83960241     0.040675026   -0.72256348     0.016087396  
   1868000   0.050009329   -0.839402       0.040211083   -0.72422532    -0.0033758087 
   1869000   0.052714446   -0.83995333     0.038268386   -0.72266429     0.00015287555
   1870000   0.050297225   -0.83956751     0.040688229   -0.72348211     0.018214041  
   1871000   0.051352177   -0.83931046     0.039845344   -0.72248654    -0.0031055435 
   1872000   0.050175085   -0.83989541     0.041060676   -0.72362066     0.0054441827 
   1873000   0.050243884   -0.8389118      0.039398448   -0.72419615     0.027447456  
   1874000   0.051166496   -0.83828064     0.041075227   -0.72050518     0.023066164  
   1875000   0.050134483   -0.83682497     0.038659063   -0.7230127      0.01847335   
   1876000   0.049823969   -0.83778949     0.039364861   -0.72373689     0.031562919  
   1877000   0.050272871   -0.83827925     0.04073221    -0.72218639     0.049091682  
   1878000   0.049386865   -0.83912073     0.04293806    -0.72215017    -0.0023674602 
   1879000   0.050925092   -0.8373571      0.03920047    -0.72181828     0.020679528  
   1880000   0.051027631   -0.8387192      0.03797537    -0.72425177     0.0070005122 
   1881000   0.050923447   -0.83742272     0.038461599   -0.72262523     0.039222234  
   1882000   0.049883222   -0.8385777      0.039640617   -0.72416052     0.034052137  
   1883000   0.052229941   -0.8395073      0.040164297   -0.72104863     0.019170085  
   1884000   0.050966443   -0.83777343     0.03953627    -0.72183682     0.019688504  
   1885000   0.049629905   -0.83832509     0.041508934   -0.72241933     0.018362879  
   1886000   0.050310532   -0.83825841     0.038091701   -0.72474959     0.023684134  
   1887000   0.051659593   -0.83830777     0.039401597   -0.72146678     0.0059272064 
   1888000   0.049696936   -0.83847399     0.039487699   -0.72448898     0.0096775166 
   1889000   0.0520249     -0.83662289     0.040113997   -0.71852189     0.025079411  
   1890000   0.051463157   -0.8394431      0.039689728   -0.72260844     0.030049035  
   1891000   0.050144921   -0.83943621     0.041731157   -0.7225362      0.018497668  
   1892000   0.050799232   -0.83845785     0.041541688   -0.72076647     0.026071024  
   1893000   0.050298907   -0.83811876     0.04064919    -0.72206989     0.0093399057 
   1894000   0.051400211   -0.83889275     0.040532767   -0.72130941     0.0068907887 
   1895000   0.05188965    -0.83688962     0.041817485   -0.71728787     0.0051551105 
   1896000   0.051050873   -0.83811537     0.041935581   -0.71965288     0.0089979347 
   1897000   0.051349242   -0.83698697     0.039255034   -0.72075777    -0.002554663  
   1898000   0.052893166   -0.83763832     0.039272088   -0.71907768     0.030368643  
   1899000   0.050721705   -0.83635906     0.040020544   -0.72030504     0.035155138  
   1900000   0.050918559   -0.83740983     0.041320553   -0.71976071     0.027721422  
   1901000   0.050029624   -0.83654532     0.041145475   -0.72040383     0.023205107  
   1902000   0.048382861   -0.83769809     0.041730783   -0.72343984     0.030569242  
   1903000   0.050879099   -0.83791539     0.04095146    -0.72069452     0.033213698  
   1904000   0.052046374   -0.83599473     0.041850203   -0.71612533     0.024237138  
   1905000   0.051988146   -0.83775924     0.042464811   -0.71736252     0.036038651  
   1906000   0.051375249   -0.83857899     0.040554436   -0.7210114      0.010367649  
   1907000   0.051249869   -0.83597378     0.039158301   -0.71999027     0.00076436315
   1908000   0.05340655    -0.83615198     0.040151717   -0.71594213     0.019013437  
   1909000   0.049470032   -0.83506708     0.041811874   -0.71909803     0.012337928  
   1910000   0.050940675   -0.8351873      0.040856778   -0.71796881     0.031342515  
   1911000   0.050868913   -0.83518109     0.039642956   -0.719284       0.016089368  
   1912000   0.050583039   -0.83655452     0.039998593   -0.72073032     0.01033579   
   1913000   0.051130008   -0.83432695     0.042261354   -0.71542007     0.02039669   
   1914000   0.050275894   -0.83607037     0.04139961    -0.71930558     0.00022330061
   1915000   0.050464779   -0.83641866     0.04131137    -0.71945895     0.013193195  
   1916000   0.050059177   -0.83541931     0.038680103   -0.72169888     0.014005863  
   1917000   0.051410934   -0.8376825      0.03808555    -0.7225303      0.012400295  
   1918000   0.050073872   -0.83472016     0.040111674   -0.71954614     0.016458564  
   1919000   0.051013204   -0.8359444      0.040094162   -0.7193798      0.0086858459 
   1920000   0.051794589   -0.83373947     0.039082099   -0.71701561     0.00063068182
   1921000   0.050681618   -0.83418982     0.040463807   -0.71775263     0.0053540454 
   1922000   0.051657438   -0.83320812     0.040300796   -0.71547116     0.035811451  
   1923000   0.051910037   -0.83379973     0.042037811   -0.71394709     0.0097414368 
   1924000   0.049770765   -0.83321116     0.039355515   -0.71924766     0.017641691  
   1925000   0.052151176   -0.83562491     0.042913749   -0.71453487     0.025789325  
   1926000   0.050854662   -0.8337518      0.040881748   -0.71663727     0.01635462   
   1927000   0.051866136   -0.83436204     0.042598794   -0.71401424     0.025435622  
   1928000   0.051151408   -0.83392909     0.042574598   -0.71467689     0.033277541  
   1929000   0.052185353   -0.83285384     0.040356443   -0.71426987     0.013905824  
   1930000   0.050711104   -0.83195558     0.041031636   -0.71490636     0.024241931  
   1931000   0.051638597   -0.83402684     0.043462712   -0.71315621     0.024037887  
   1932000   0.051607532   -0.83371185     0.041209112   -0.71514138     0.025956914  
   1933000   0.050365489   -0.83409708     0.039530022   -0.71906757     0.03217641   
   1934000   0.053112885   -0.83446938     0.038355869   -0.71649558     0.023149376  
   1935000   0.05249876    -0.83477618     0.040671908   -0.71540694     0.009796572  
   1936000   0.05163429    -0.83461901     0.039150085   -0.71806746     0.0017713582 
   1937000   0.052435316   -0.83517365     0.040602441   -0.71596898     0.0082100947 
   1938000   0.051068971   -0.83544385     0.039692029   -0.71919778     0.022191729  
   1939000   0.05061239    -0.83353819     0.038686821   -0.71898176     0.0030251817 
   1940000   0.050381402   -0.83403087     0.04037469    -0.71813284     0.039098751  
   1941000   0.0500308     -0.83592647     0.03980558    -0.7211231      0.0307624    
   1942000   0.050499004   -0.83311501     0.038635198   -0.71878018     0.02773653   
   1943000   0.052396524   -0.83511617     0.03996242    -0.71660968     0.0032068997 
   1944000   0.052295638   -0.83456879     0.042364818   -0.71381112     0.022082876  
   1945000   0.051103473   -0.83645343     0.042281161   -0.71756652     0.0052813922 
   1946000   0.050756616   -0.83326701     0.039758282   -0.71742292     0.023030846  
   1947000   0.050662199   -0.83455315     0.042009249   -0.71659963     0.014805356  
   1948000   0.050165275   -0.83430993     0.038889179   -0.72022139     0.0070600436 
   1949000   0.05228302    -0.83587374     0.041537721   -0.71596209     0.0087153823 
   1950000   0.051715296   -0.83357634     0.039775078   -0.71627837     0.035042739  
   1951000   0.051637746   -0.83319051     0.039936869   -0.71584699     0.018234006  
   1952000   0.051291593   -0.83324774     0.043035743   -0.71332424     0.023297811  
   1953000   0.052145392   -0.8322803      0.040472907   -0.71363977     0.045552206  
   1954000   0.051631517   -0.83312939     0.039486436   -0.71624565     0.03014278   
   1955000   0.051189889   -0.83399561     0.040064215   -0.7171961      0.015159306  
   1956000   0.05030671    -0.83212596     0.038101339   -0.71861324     0.030279704  
   1957000   0.050466365   -0.83328894     0.041482442   -0.71615579     0.014640128  
   1958000   0.05076446    -0.83300342     0.040484827   -0.71642103     0.027989201  
   1959000   0.050148229   -0.83336106     0.041272215   -0.71691503     0.037241689  
   1960000   0.052048812   -0.8333339      0.042001966   -0.71330908    -0.00073535887
   1961000   0.052610553   -0.83237188     0.039199247   -0.71430772     0.009507766  
   1962000   0.051317217   -0.83306992     0.041176073   -0.71496769     0.022813221  
   1963000   0.05128314    -0.83335765     0.041916923   -0.71456564     0.019806426  
   1964000   0.052978887   -0.83288007     0.040420518   -0.7130425      0.015245813  
   1965000   0.052202156   -0.83346143     0.043743128   -0.71146559     0.023774807  
   1966000   0.050943811   -0.83475197     0.040106365   -0.71827919     0.048855608  
   1967000   0.050780741   -0.83292934     0.038335411   -0.71847196     0.027462425  
   1968000   0.0506094     -0.83384898     0.041034893   -0.71694896     0.024107833  
   1969000   0.051004035   -0.83211575     0.041331986   -0.71432707     0.025517176  
   1970000   0.050480598   -0.83190981     0.03935757    -0.71688019     0.021131426  
   1971000   0.051362702   -0.83244623     0.040093505   -0.71535837     0.011849696  
   1972000   0.051741738   -0.83246816     0.04058346    -0.71432217    -0.0052382743 
   1973000   0.050157475   -0.83312888     0.041360429   -0.71658077     0.0099398605 
   1974000   0.050812645   -0.83445175     0.041975246   -0.7163067      0.027947814  
   1975000   0.051305216   -0.83304015     0.039082773   -0.71704921     0.022575626  
   1976000   0.052880506   -0.83265358     0.038534334   -0.71484966     0.0049556302 
   1977000   0.051676116   -0.83231061     0.041422115   -0.71342433     0.020177031  
   1978000   0.049934476   -0.83145482     0.0405741     -0.71602733     0.0079621739 
   1979000   0.050945565   -0.83454839     0.042894427   -0.71528492     0.010705847  
   1980000   0.051830063   -0.83180551     0.041373522   -0.71273705     0.023377468  
   1981000   0.051254925   -0.83232754     0.041183724   -0.71431103    -0.0022098359 
   1982000   0.050445314   -0.83271736     0.04074031    -0.7163579      0.00052038849
   1983000   0.050374973   -0.83255347     0.040811469   -0.71622829     0.024340941  
   1984000   0.051365083   -0.83184176     0.039440969   -0.71540288     0.054501935  
   1985000   0.051558422   -0.83205887     0.039201526   -0.71556961     0.0032294416 
   1986000   0.05082384    -0.83364915     0.040191626   -0.71727095     0.0035836841 
   1987000   0.050927028   -0.83297402     0.041244594   -0.71538817     0.038957263  
   1988000   0.051988072   -0.83313719     0.039622812   -0.71558258     0.03958464   
   1989000   0.052051242   -0.83155112     0.040191311   -0.71333332     0.010991439  
   1990000   0.052179615   -0.83377215     0.039560213   -0.71599301     0.023931054  
   1991000   0.051773348   -0.83265568     0.039776799   -0.71526896     0.01467774   
   1992000   0.050600625   -0.83147454     0.040122066   -0.7155005      0.014323304  
   1993000   0.05128054    -0.83180438     0.040111977   -0.71482122     0.014311574  
   1994000   0.053127813   -0.83209605     0.040794604   -0.71166114     0.014933963  
   1995000   0.052002404   -0.83271465     0.038584563   -0.7161768      0.0060897251 
   1996000   0.052491869   -0.83338192     0.042049326   -0.71264559     0.0047921883 
   1997000   0.052590638   -0.83005733     0.040204897   -0.71101737     0.001769869  
   1998000   0.050912937   -0.83110789     0.040900429   -0.71388733     0.0056705128 
   1999000   0.053477675   -0.83423025     0.038671628   -0.71539387     0.016912166  
   2000000   0.052272789   -0.83228629     0.039493417   -0.71443428     0.016014049  
   2001000   0.050480124   -0.83218131     0.039247841   -0.71726213     0.022195799  
   2002000   0.050122839   -0.83109241     0.039925402   -0.71603125     0.017770327  
   2003000   0.050318536   -0.83092314     0.038737932   -0.7167561     -0.0094001804 
   2004000   0.05058626    -0.83358262     0.041790991   -0.71596119     0.014668573  
   2005000   0.051653215   -0.83249699     0.040227193   -0.71483996     0.020176211  
   2006000   0.05236075    -0.83279916     0.040568698   -0.71374001     0.0074015482 
   2007000   0.051388455   -0.83303817     0.039351318   -0.7166539      0.022828429  
   2008000   0.051160315   -0.83081271     0.038735611   -0.71538614     0.018928618  
   2009000   0.05206948    -0.83097868     0.041346752   -0.7115781      0.022029133  
   2010000   0.049762857   -0.83195508     0.040329188   -0.71702976     0.036185936  
   2011000   0.052789425   -0.83224298     0.040184044   -0.71292588     0.025196965  
   2012000   0.050564464   -0.83199388     0.041589755   -0.71460636     0.0029734596 
   2013000   0.052103487   -0.83200131     0.040468564   -0.71342793     0.0050464071 
   2014000   0.049641358   -0.83285531     0.041228695   -0.71721261     0.0162175    
   2015000   0.050528496   -0.83324132     0.041878337   -0.71561913     0.019385292  
   2016000   0.050903203   -0.83180781     0.040862844   -0.71463942     0.00047865694
   2017000   0.051660868   -0.83214867     0.041690635   -0.71301673     0.0065195111 
   2018000   0.050842035   -0.83414796     0.041825199   -0.71610891     0.0032455197 
   2019000   0.051666627   -0.83342189     0.040835526   -0.71513642     0.019238186  
   2020000   0.051649938   -0.83253782     0.040125433   -0.71498746     0.013664743  
   2021000   0.050686503   -0.83317856     0.039761074   -0.71743678     0.011651275  
   2022000   0.050306979   -0.83333538     0.041132226   -0.71679137     0.015195947  
   2023000   0.051202543   -0.83280245     0.039602858   -0.71644533     0.014744533  
   2024000   0.051438654   -0.83310996     0.04024647    -0.71575528     0.031087158  
   2025000   0.049445948   -0.83230142     0.041301695   -0.71687865     0.016544134  
   2026000   0.05239474    -0.83457217     0.041552125   -0.71447864     0.019112752  
   2027000   0.050071824   -0.83400267     0.040216463   -0.71872692     0.0064916818 
   2028000   0.051780837   -0.83327282     0.038075651   -0.71757602     0.026932064  
   2029000   0.050658511   -0.83262746     0.039548958   -0.71713976     0.0099516701 
   2030000   0.051914571   -0.83357122     0.041908764   -0.71384084     0.01330224   
   2031000   0.050684053   -0.83246728     0.040654484   -0.71583577     0.010056632  
   2032000   0.050734766   -0.8337848      0.040743185   -0.71698856     0.0096118347 
   2033000   0.050480279   -0.83320258     0.039762178   -0.71776884     0.016876895  
   2034000   0.051156455   -0.83369894     0.041469094   -0.71554467    -0.012484451  
   2035000   0.051388628   -0.83412657     0.042336082   -0.71475728     0.0050676293 
   2036000   0.050998795   -0.83346377     0.0409742     -0.71604073     0.01173419   
   2037000   0.050630922   -0.8345338      0.041427139   -0.71720928     0.0039636085 
   2038000   0.048862826   -0.83340123     0.040915879   -0.7192384      0.01455034   
   2039000   0.051338627   -0.83384186     0.041609116   -0.71527449     0.010367181  
   2040000   0.050754715   -0.83371372     0.04240158    -0.71522919     0.012123547  
   2041000   0.050067719   -0.8329046      0.038400926   -0.71945055     0.015191933  
   2042000   0.050700791   -0.8341193      0.039606291   -0.71851089     0.0010654359 
   2043000   0.050044262   -0.83447453     0.039795018   -0.71966154     0.0015439014 
   2044000   0.049889445   -0.83331765     0.040035365   -0.71849639     0.023877875  
   2045000   0.050224739   -0.83470679     0.041310874   -0.71810741     0.015804878  
   2046000   0.050379203   -0.83376982     0.04071128    -0.71753849     0.020319885  
   2047000   0.051913176   -0.83349438     0.039424596   -0.71625025     0.023539772  
   2048000   0.052214248   -0.83378138     0.041030423   -0.71448012     0.0183408    
   2049000   0.051383874   -0.83311028     0.0414468     -0.71463739     0.026698398  
   2050000   0.051614013   -0.83452        0.039439377   -0.71770955     0.031099843  
   2051000   0.050779653   -0.83346777     0.040755036   -0.71659239     0.018938676  
   2052000   0.050753755   -0.83375744     0.038546145   -0.71912978     0.039613248  
   2053000   0.051032981   -0.83219041     0.038848391   -0.71684193     0.008222007  
   2054000   0.052179016   -0.83273178     0.039135762   -0.71537799     0.028623673  
   2055000   0.052096863   -0.83281454     0.039898258   -0.71482141     0.023348657  
   2056000   0.051163926   -0.83286751     0.039404145   -0.71676699     0.014469039  
   2057000   0.05021638    -0.83162659     0.040792414   -0.7155582      0.051269862  
   2058000   0.051854456   -0.83309301     0.039356834   -0.71600467     0.030863154  
   2059000   0.051261302   -0.83405294     0.037991053   -0.71921954     0.027508866  
   2060000   0.051960453   -0.83318581     0.038955663   -0.71633976     0.01641579   
   2061000   0.050880803   -0.83173976     0.040843379   -0.71462441     0.0289818    
   2062000   0.051131895   -0.83392161     0.04189516    -0.71537809     0.025815992  
   2063000   0.051005637   -0.83276282     0.040745572   -0.71555815     0.043363007  
   2064000   0.051706139   -0.83342217     0.039035165   -0.71687783     0.035295287  
   2065000   0.052049914   -0.83361487     0.039922512   -0.71566786     0.034013226  
   2066000   0.050536939   -0.83407299     0.039134122   -0.71918237     0.021612892  
   2067000   0.050166987   -0.83313299     0.039695473   -0.71823559     0.021239479  
   2068000   0.052521857   -0.83271691     0.039906491   -0.71407846     0.052496278  
   2069000   0.05079547    -0.83345182     0.041143908   -0.71616386     0.041875176  
   2070000   0.050091455   -0.83415279     0.040393085   -0.718671       0.017841666  
   2071000   0.050731605   -0.83328709     0.041518417   -0.71572036     0.039396358  
   2072000   0.051256316   -0.83392218     0.041057129   -0.71603018     0.030223656  
   2073000   0.052280953   -0.8340814      0.039648636   -0.71606193     0.027377507  
   2074000   0.051857184   -0.83441985     0.039892137   -0.71679212     0.0061879594 
   2075000   0.051349175   -0.83411463     0.040832354   -0.71630821     0.036585061  
   2076000   0.051927791   -0.83256005     0.03975975    -0.71495887     0.024685948  
   2077000   0.05174559    -0.83272389     0.038794079   -0.7163615      0.023440724  
   2078000   0.050120042   -0.83351675     0.039557364   -0.71882782     0.0089479911 
   2079000   0.05165342    -0.83290739     0.042197775   -0.71327947     0.041550219  
   2080000   0.051828405   -0.83381804     0.039547925   -0.71657766     0.012699916  
   2081000   0.052212012   -0.83546109     0.040663589   -0.71653001     0.013000974  
   2082000   0.051045263   -0.83318055     0.039614273   -0.71704778     0.020779775  
   2083000   0.050834688   -0.83311786     0.041346237   -0.71556879     0.026113712  
   2084000   0.051457064   -0.83383517     0.040225893   -0.71647348     0.017379273  
   2085000   0.051335117   -0.83375432     0.042688292   -0.71411303     0.0011737328 
   2086000   0.051155428   -0.83365284     0.041152285   -0.71581692    -0.0054928945 
   2087000   0.051813619   -0.83260345     0.041906254   -0.71302691     0.021974056  
   2088000   0.05002445    -0.8338379      0.040788803   -0.71806083     0.029659022  
   2089000   0.051332127   -0.83203547     0.040215946   -0.71487101     0.031621039  
   2090000   0.052096853   -0.83365382     0.040152964   -0.71540599     0.026080893  
   2091000   0.050479504   -0.83336642     0.041397097   -0.71629891     0.050962527  
   2092000   0.05171333    -0.83425454     0.042827607   -0.71390699     0.032235759  
   2093000   0.051651674   -0.83354808     0.040505229   -0.71561532     0.031652794  
   2094000   0.05037286    -0.83279692     0.040104087   -0.71718229     0.039700783  
   2095000   0.050876296   -0.83362673     0.039707699   -0.71765382     0.057806377  
   2096000   0.05114126    -0.83456316     0.042647621   -0.71525314     0.022236884  
   2097000   0.051071258   -0.83444658     0.040147123   -0.71774199     0.036085058  
   2098000   0.050361767   -0.83452221     0.040549755   -0.71847854     0.024619737  
   2099000   0.052840322   -0.83424636     0.040925111   -0.7141119      0.022596995  
   2100000   0.049915436   -0.83462107     0.042401868   -0.71739435     0.0057479669 
   2101000   0.050878571   -0.83600046     0.040848051   -0.71888379     0.0094854072 
   2102000   0.050324393   -0.83428085     0.041421953   -0.71742101     0.018988423  
   2103000   0.049290585   -0.83668285     0.039424937   -0.72336973     0.049394662  
   2104000   0.05044926    -0.83513777     0.039028206   -0.7204845      0.042820331  
   2105000   0.049738428   -0.83492156     0.040004223   -0.72035783     0.025132966  
   2106000   0.051798945   -0.8344634      0.040130976   -0.71668414     0.027468028  
   2107000   0.051154345   -0.83443111     0.039905538   -0.71784356     0.014469723  
   2108000   0.05148645    -0.83436966     0.040647661   -0.71654215     0.024121015  
   2109000   0.052063209   -0.83443379     0.042423836   -0.71396553     0.026164208  
   2110000   0.052367087   -0.83377856     0.040799059   -0.71447955     0.036507935  
   2111000   0.050343557   -0.83326889     0.038621215   -0.71918106     0.022749629  
   2112000   0.049774702   -0.8353411      0.040443895   -0.72028332     0.038381391  
   2113000   0.051604777   -0.83386307     0.040848369   -0.71565747     0.010700761  
   2114000   0.049961473   -0.83371389     0.041386996   -0.71743303     0.020646549  
   2115000   0.051709455   -0.83410274     0.039759661   -0.71682894     0.0070322975 
   2116000   0.050048      -0.83394155     0.040328843   -0.71858914     0.01134159   
   2117000   0.04984745    -0.83355354     0.04116052    -0.71767008     0.065758373  
   2118000   0.050562466   -0.83382974     0.038520627   -0.71951434     0.055107094  
   2119000   0.050004356   -0.8347111      0.041871388   -0.71788157     0.012879528  
   2120000   0.052422857   -0.83510923     0.040724036   -0.71580164     0.0090562124 
   2121000   0.051668197   -0.83460503     0.040013443   -0.71713929     0.020886617  
   2122000   0.050848451   -0.83370735     0.038388478   -0.7190954      0.033125767  
   2123000   0.05142501    -0.83391599     0.040090592   -0.71673765     0.010304646  
   2124000   0.050923507   -0.83359425     0.040196912   -0.71706136     0.052596025  
   2125000   0.050936966   -0.83365484     0.03781703    -0.71948165     0.054689646  
   2126000   0.050124326   -0.83354236     0.040193339   -0.71821104     0.033944823  
   2127000   0.052578412   -0.83330524     0.041119118   -0.71336938     0.020632941  
   2128000   0.051838904   -0.83392092     0.040262595   -0.71595014     0.039017135  
   2129000   0.050590751   -0.83426466     0.038885001   -0.71954249     0.023406438  
   2130000   0.0495138     -0.83375463     0.042060871   -0.71747097     0.043539771  
   2131000   0.049994506   -0.83441674     0.040098978   -0.71937439     0.038561404  
   2132000   0.051438605   -0.83530189     0.040341909   -0.71785185     0.026672442  
   2133000   0.052729887   -0.83462218     0.037873428   -0.71770495     0.045396197  
   2134000   0.050708061   -0.83349651     0.040420551   -0.71706294     0.030930729  
   2135000   0.048736519   -0.83246233     0.042796897   -0.71660782     0.031444481  
   2136000   0.050920419   -0.8341104      0.039265163   -0.71851389     0.037573613  
   2137000   0.050945135   -0.83269202     0.040133019   -0.7161906      0.023830845  
   2138000   0.051461985   -0.83381004     0.040640973   -0.71602589     0.015214702  
   2139000   0.051502153   -0.8326481      0.041913236   -0.71353148     0.0050074212 
   2140000   0.052355583   -0.83360833     0.042034055   -0.71309157     0.021565251  
   2141000   0.053247506   -0.83326331     0.041261096   -0.71218248    -0.0053325348 
   2142000   0.049499058   -0.83395954     0.040853147   -0.71890571     0.028720858  
   2143000   0.050270043   -0.83454449     0.03922805    -0.71996002     0.03390376   
   2144000   0.05079153    -0.83402865     0.041181071   -0.71670943     0.0066647559 
   2145000   0.050807242   -0.83335137     0.040775453   -0.71641422     0.0096209347 
   2146000   0.051976997   -0.83317689     0.039674738   -0.71558696     0.024722713  
   2147000   0.050898943   -0.83397357     0.040750329   -0.71692408     0.0091154044 
   2148000   0.050285808   -0.83526496     0.040606212   -0.7192787      0.031421612  
   2149000   0.048911685   -0.83426383     0.041176233   -0.71976741     0.018980904  
   2150000   0.050115796   -0.83526826     0.039768583   -0.72037449     0.013879862  
   2151000   0.049960302   -0.8354094      0.039276068   -0.72124123     0.024227245  
   2152000   0.049701035   -0.83528001     0.042196957   -0.71857959     0.026671812  
   2153000   0.052599856   -0.83418379     0.040559806   -0.71477511     0.039925517  
   2154000   0.051264513   -0.83263231     0.039053364   -0.71673179     0.045984974  
   2155000   0.051487294   -0.8323637      0.03999867    -0.71518392     0.05000868   
   2156000   0.050591033   -0.83241138     0.04059963    -0.71597416     0.028780888  
   2157000   0.049514179   -0.83467463     0.04249763    -0.71795365     0.038682192  
   2158000   0.050512643   -0.83252196     0.040994127   -0.71580775     0.046036325  
   2159000   0.051395817   -0.83218822     0.041697441   -0.71344679     0.030651371  
   2160000   0.051650099   -0.83195259     0.04308141    -0.71144601     0.026180331  
   2161000   0.053065965   -0.83267432     0.040877474   -0.71224925     0.025758381  
   2162000   0.051129119   -0.83295966     0.038782464   -0.717533       0.016194516  
   2163000   0.049030066   -0.83206104     0.040581314   -0.71798208     0.031403748  
   2164000   0.05021599    -0.83284506     0.038638087   -0.71893159     0.047022348  
   2165000   0.050155386   -0.83366413     0.039870428   -0.71860916     0.032919551  
   2166000   0.051361334   -0.83329303     0.040840251   -0.71546048     0.021672405  
   2167000   0.048123641   -0.8319786      0.040780577   -0.71905913     0.026228951  
   2168000   0.050465456   -0.832949       0.040461483   -0.71683817     0.028646229  
   2169000   0.052233812   -0.83440405     0.04006573    -0.71603815     0.015469539  
   2170000   0.050980791   -0.83161942     0.039742161   -0.71545541     0.042232126  
   2171000   0.052352743   -0.83295188     0.040480915   -0.71399252     0.037072383  
   2172000   0.051121105   -0.83251604     0.04216215    -0.71372171     0.031561798  
   2173000   0.049427743   -0.83157324     0.040395272   -0.71708418     0.022747621  
   2174000   0.050121611   -0.83316654     0.039395292   -0.71863734     0.034621967  
   2175000   0.051562028   -0.83242995     0.038373061   -0.71676374     0.039358851  
   2176000   0.050639544   -0.83339181     0.039804001   -0.7176775      0.026847838  
   2177000   0.050647587   -0.83271097     0.041671208   -0.71511739     0.031425495  
   2178000   0.050279576   -0.83252509     0.039900938   -0.71725345     0.03294148   
   2179000   0.048215558   -0.83317978     0.040515621   -0.72038748     0.033069295  
   2180000   0.049373419   -0.83349595     0.03933679    -0.72014681     0.022814019  
   2181000   0.050562006   -0.83330109     0.039733796   -0.71777322     0.015635036  
   2182000   0.052553568   -0.83324609     0.040418182   -0.71404841     0.014016007  
   2183000   0.052318168   -0.83083398     0.04058858    -0.71181878     0.048800868  
   2184000   0.052463456   -0.83347681     0.038570155   -0.71626224     0.019121021  
   2185000   0.050775579   -0.83106276     0.041905632   -0.7130429      0.017931341  
   2186000   0.049878878   -0.83259061     0.040923143   -0.71689742     0.012893649  
   2187000   0.050088051   -0.83296595     0.038188604   -0.71969374     0.012641833  
   2188000   0.050757441   -0.83409083     0.038896263   -0.71910753     0.0091647339 
   2189000   0.049872431   -0.8335373      0.039703916   -0.719073       0.01853697   
   2190000   0.050453104   -0.83235054     0.042440883   -0.71427883     0.025766181  
   2191000   0.051262213   -0.83235161     0.040945743   -0.71456215     0.024342275  
   2192000   0.05192189    -0.83098495     0.038848573   -0.71430378     0.058959305  
   2193000   0.050667997   -0.83167577     0.039898634   -0.71582417     0.068069084  
   2194000   0.051299297   -0.83319264     0.039931264   -0.71636208     0.049132827  
   2195000   0.052259282   -0.83358127     0.040643149   -0.71459977     0.060389466  
   2196000   0.051691904   -0.83196162     0.040030339   -0.71444345     0.068676646  
   2197000   0.051109345   -0.83209219     0.040059803   -0.71541783     0.094064381  
   2198000   0.051457961   -0.83287213     0.042553223   -0.71318177     0.042559729  
   2199000   0.052613814   -0.8337763      0.040626402   -0.71428009     0.037448648  
   2200000   0.051954575   -0.83358905     0.041033741   -0.71467372     0.037177535  
   2201000   0.051685746   -0.8316622      0.039488432   -0.71469517     0.035294233  
   2202000   0.05077495    -0.83144847     0.040840098   -0.71449509     0.040787844  
   2203000   0.051389496   -0.83297073     0.039412558   -0.71652366     0.064979332  
   2204000   0.051182586   -0.83221671     0.041025045   -0.71446732     0.039871365  
   2205000   0.050634847   -0.83252099     0.042011331   -0.71460639     0.057804467  
   2206000   0.050090756   -0.83272742     0.039183351   -0.71845641     0.04904305   
   2207000   0.05211797    -0.83146378     0.039897126   -0.71344014     0.035181936  
   2208000   0.05021051    -0.83145242     0.041294339   -0.71489091     0.045103544  
   2209000   0.04919931    -0.830589       0.042254068   -0.71458358     0.050633666  
   2210000   0.051087893   -0.83018782     0.042083916   -0.71152151     0.031519151  
   2211000   0.049449385   -0.83053833     0.040594045   -0.71581807     0.04640376   
   2212000   0.051500887   -0.83293278     0.041693879   -0.71403742     0.059730642  
   2213000   0.050756198   -0.83124918     0.039417324   -0.71574668     0.037516373  
   2214000   0.050717776   -0.83221049     0.040532377   -0.71565053     0.045169917  
   2215000   0.051566867   -0.8311942      0.040227169   -0.71366663     0.059325079  
   2216000   0.050582564   -0.8305635      0.041826897   -0.71291171     0.036690634  
   2217000   0.052665874   -0.83279071     0.043095804   -0.71074706     0.039361267  
   2218000   0.051190598   -0.83214891     0.042002497   -0.71341006     0.049220424  
   2219000   0.051862147   -0.83067386     0.041752203   -0.71117862     0.043756906  
   2220000   0.050671636   -0.83088985     0.042086652   -0.71284478     0.056384206  
   2221000   0.05187062    -0.83058335     0.040241908   -0.71258571     0.035756625  
   2222000   0.049610473   -0.8310297      0.04115289    -0.71550911     0.031364106  
   2223000   0.051414215   -0.83183907     0.042690841   -0.71207666     0.021931098  
   2224000   0.051984142   -0.8321817      0.039972854   -0.71428294     0.016407002  
   2225000   0.050626067   -0.83120977     0.042225737   -0.71309392     0.011107641  
   2226000   0.052268289   -0.83034606     0.039563322   -0.71243089     0.049892312  
   2227000   0.051806792   -0.83191199     0.041589722   -0.71266222     0.040945579  
   2228000   0.050753831   -0.832035       0.042008536   -0.71394484     0.042118126  
   2229000   0.050111273   -0.83251001     0.042430624   -0.71496097     0.041645625  
   2230000   0.050891381   -0.83157646     0.040764811   -0.71452383     0.064608709  
   2231000   0.0490513     -0.8318163      0.04057162    -0.7177152      0.028246347  
   2232000   0.053663414   -0.83124363     0.040532573   -0.71026786     0.030025543  
   2233000   0.053053128   -0.83134344     0.041219227   -0.71059586     0.040225979  
   2234000   0.050897662   -0.83149527     0.041073322   -0.71412471     0.055520271  
   2235000   0.052117684   -0.83267334     0.043128095   -0.71141916     0.075538781  
   2236000   0.051967098   -0.83211281     0.040645127   -0.71356733     0.043694598  
   2237000   0.05221068    -0.83293961     0.04189853    -0.71277558     0.02800757   
   2238000   0.049936363   -0.8298736      0.041516529   -0.71350085     0.046953555  
   2239000   0.050839574   -0.83153485     0.039728652   -0.71559604     0.037548671  
   2240000   0.051289589   -0.8315782      0.039274161   -0.71541929     0.031343321  
   2241000   0.051665157   -0.83093967     0.041049943   -0.71244199     0.0507789    
   2242000   0.050190739   -0.8315874      0.040698593   -0.71565127     0.023588635  
   2243000   0.05165044    -0.83198407     0.039469327   -0.71508907     0.030676792  
   2244000   0.050721307   -0.83119864     0.041782826   -0.71338294     0.06624121   
   2245000   0.051312718   -0.83228176     0.040946084   -0.71441626     0.042382458  
   2246000   0.050600995   -0.82975122     0.042209398   -0.7116893      0.066696327  
   2247000   0.051571612   -0.82771357     0.040241475   -0.71016458     0.051189117  
   2248000   0.051281346   -0.8301632      0.041448804   -0.711842       0.05675375   
   2249000   0.052395854   -0.83066002     0.042581725   -0.70953522     0.046605428  
   2250000   0.052030267   -0.83054568     0.041315633   -0.711235       0.045680019  
   2251000   0.051689388   -0.83139925     0.04127767    -0.71263752     0.041150553  
   2252000   0.052364637   -0.83144781     0.042206406   -0.71074513     0.057167649  
   2253000   0.050963191   -0.8305541      0.039894495   -0.71426414     0.037698156  
   2254000   0.050375233   -0.83007782     0.040644608   -0.71391912     0.032420181  
   2255000   0.050603097   -0.82991618     0.039857636   -0.71420287     0.027130449  
   2256000   0.052028274   -0.82967441     0.04082413    -0.71085822     0.023970978  
   2257000   0.050865123   -0.8296942      0.043450574   -0.70999516     0.020812436  
   2258000   0.051266779   -0.8291564      0.039962543   -0.7123433      0.026222336  
   2259000   0.050464536   -0.82872799     0.040016314   -0.71306371     0.047503855  
   2260000   0.049664348   -0.82882095     0.041121897   -0.7132506      0.073454826  
   2261000   0.050410743   -0.82862592     0.041967182   -0.7110914      0.027263106  
   2262000   0.049592029   -0.83055212     0.040521008   -0.71569106     0.036225485  
   2263000   0.049007511   -0.82965624     0.041108498   -0.7150839      0.034476708  
   2264000   0.049421527   -0.82992669     0.04110406    -0.71473817     0.048995346  
   2265000   0.050757025   -0.83209805     0.040620593   -0.71539104     0.043504258  
   2266000   0.052226439   -0.83137771     0.042087652   -0.71100094     0.031361785  
   2267000   0.052689783   -0.83178398     0.041457347   -0.71134294     0.030266225  
   2268000   0.051150159   -0.83292045     0.042297002   -0.71394771     0.050226091  
   2269000   0.05032686    -0.83188973     0.042329892   -0.71411826     0.049142624  
   2270000   0.051011684   -0.83230815     0.040180067   -0.71565992     0.037203606  
   2271000   0.051162626   -0.83131479     0.040071681   -0.71454869     0.024783129  
   2272000   0.051409306   -0.8321781      0.039833676   -0.71528022     0.034977302  
   2273000   0.051357014   -0.83197114     0.039578781   -0.71540654     0.037157923  
   2274000   0.049508123   -0.83208388     0.042407052   -0.71546256     0.034215139  
   2275000   0.05086099    -0.83151231     0.042226897   -0.71304315     0.046614569  
   2276000   0.050653454   -0.83247793     0.0407863     -0.71576047     0.048220126  
   2277000   0.051944965   -0.83122759     0.038051855   -0.71530856     0.056380836  
   2278000   0.051418913   -0.83270607     0.039579557   -0.7160479      0.04753536   
   2279000   0.050904951   -0.83202183     0.039949334   -0.71576433     0.071752178  
   2280000   0.051111047   -0.83259252     0.040769563   -0.71520585     0.036476689  
   2281000   0.052727945   -0.83201018     0.041609634   -0.71135966     0.049227133  
   2282000   0.052764754   -0.83106743     0.043813422   -0.70815794     0.022428149  
   2283000   0.051234927   -0.83045723     0.041587508   -0.71206691     0.014680388  
   2284000   0.051195213   -0.83114098     0.039591354   -0.71480635     0.033761899  
   2285000   0.049725934   -0.82929408     0.040284779   -0.71446852     0.050885317  
   2286000   0.048102818   -0.83019447     0.040930908   -0.71715589     0.051052758  
   2287000   0.052570749   -0.83150668     0.040123724   -0.71257771     0.044440374  
   2288000   0.051007362   -0.83135249     0.040987723   -0.71390308     0.035575072  
   2289000   0.050807924   -0.83029839     0.040277974   -0.7138577      0.020293434  
   2290000   0.05126415    -0.82925363     0.041513804   -0.71089321     0.023143002  
   2291000   0.051758421   -0.82956339     0.039663754   -0.71231209     0.036764753  
   2292000   0.050923441   -0.82910589     0.041040355   -0.71172966     0.038861621  
   2293000   0.052260913   -0.83029372     0.040477829   -0.7114751      0.025353535  
   2294000   0.052579369   -0.8296376      0.040314085   -0.71050535     0.037715234  
   2295000   0.050738386   -0.83112391     0.041055028   -0.7140104     -0.0033029436 
   2296000   0.051788856   -0.82905617     0.041113973   -0.71030903     0.017271796  
   2297000   0.048648645   -0.8300535      0.04113904    -0.71598857     0.067750049  
   2298000   0.05040034    -0.8302121      0.039883945   -0.71477642     0.048510902  
   2299000   0.050777304   -0.82981021     0.041822563   -0.71187083     0.025891533  
   2300000   0.052962576   -0.82913895     0.039869771   -0.70987657     0.039481085  
   2301000   0.050034466   -0.828649       0.039101476   -0.71454425     0.025536633  
   2302000   0.050569916   -0.82942085     0.04094539    -0.71266952     0.028097444  
   2303000   0.053680887   -0.82943323     0.040261558   -0.70870229     0.031446262  
   2304000   0.051532073   -0.83010387     0.041425723   -0.71142991     0.053113428  
   2305000   0.050113999   -0.82838354     0.041076533   -0.71218451     0.031882079  
   2306000   0.052890107   -0.82892946     0.039705699   -0.70993978     0.025752724  
   2307000   0.050576455   -0.82757443     0.040155041   -0.71160365     0.049431049  
   2308000   0.053013851   -0.82906247     0.041510495   -0.7080825      0.024731637  
   2309000   0.050963149   -0.82846903     0.040677393   -0.71139624     0.022667144  
   2310000   0.052278996   -0.8286287      0.042206686   -0.70805411     0.034090339  
   2311000   0.051751159   -0.8296479      0.041614782   -0.71045647     0.065348343  
   2312000   0.052123354   -0.82960822     0.042242703   -0.70923093     0.034378256  
   2313000   0.053174042   -0.82853839     0.040623672   -0.70820511     0.025366546  
   2314000   0.051317879   -0.82898235     0.041867417   -0.71018778     0.022568534  
   2315000   0.051296469   -0.8293975      0.040967684   -0.71153475     0.025947574  
   2316000   0.051391594   -0.83028943     0.04093482    -0.71231695     0.031495015  
   2317000   0.050913124   -0.83012718     0.041354066   -0.7124527      0.024118031  
   2318000   0.050909563   -0.82904015     0.040910403   -0.71181466     0.019578157  
   2319000   0.053024924   -0.82849683     0.04087127    -0.70813949     0.046271654  
   2320000   0.051564764   -0.83038613     0.042276046   -0.71081284     0.037182771  
   2321000   0.050053782   -0.83063672     0.041199819   -0.71440466     0.016400982  
   2322000   0.050148801   -0.83111715     0.04327465    -0.71266783     0.026646233  
   2323000   0.051714606   -0.8300882      0.041925903   -0.71064043     0.037589706  
   2324000   0.050980718   -0.82922451     0.041879484   -0.71092328     0.03542536   
   2325000   0.04885092    -0.82851398     0.04068795    -0.71459692     0.015141747  
   2326000   0.051962347   -0.82686968     0.040944008   -0.70803244     0.051167723  
   2327000   0.050838363   -0.82916392     0.04252121    -0.71043437     0.042603423  
   2328000   0.051000188   -0.82973077     0.042597605   -0.71068224     0.033996161  
   2329000   0.050310444   -0.82959011     0.042513531   -0.7116596      0.072654316  
   2330000   0.052512317   -0.8291         0.043566793   -0.70681555     0.039340319  
   2331000   0.052578282   -0.8278207      0.041055311   -0.70794885     0.041292645  
   2332000   0.051912363   -0.83105004     0.040211257   -0.71302048     0.031255838  
   2333000   0.050234306   -0.82992268     0.040991762   -0.71362808     0.022833942  
   2334000   0.050528568   -0.82881373     0.040657589   -0.71241219     0.040323802  
   2335000   0.052172036   -0.8303532      0.041446152   -0.71069948     0.021212584  
   2336000   0.052328023   -0.8302265      0.03955251    -0.7122326      0.044613401  
   2337000   0.053486264   -0.83140416     0.041871879   -0.70935464     0.027454871  
   2338000   0.052091252   -0.83095395     0.039673928   -0.71319356     0.014775187  
   2339000   0.050657964   -0.83042732     0.041942572   -0.71254683     0.0083246044 
   2340000   0.049992537   -0.82991015     0.042328047   -0.71264168     0.024192227  
   2341000   0.051774169   -0.83031378     0.042308891   -0.71039374     0.01495772   
   2342000   0.052701028   -0.83153429     0.040136659   -0.71239708     0.015900023  
   2343000   0.050539497   -0.8307563      0.040408303   -0.71458766     0.038806166  
   2344000   0.051480245   -0.83109456     0.042848687   -0.71107532     0.040753161  
   2345000   0.049498131   -0.82934564     0.042412401   -0.71273394     0.040075617  
   2346000   0.049725655   -0.83078434     0.040330198   -0.71591378     0.010990375  
   2347000   0.05213111    -0.83122354     0.039351821   -0.7137255      0.014260002  
   2348000   0.049147421   -0.83142205     0.041264866   -0.71648362     0.033010616  
   2349000   0.050043      -0.83098129     0.04027103    -0.71569418     0.028112324  
   2350000   0.050679339   -0.83010864     0.038923905   -0.71521477     0.020131977  
   2351000   0.050652691   -0.83067459     0.03841053    -0.71633404     0.050779595  
   2352000   0.051906549   -0.83093225     0.041492995   -0.71162967     0.016386497  
   2353000   0.050982832   -0.83060148     0.040244742   -0.71393183     0.024456359  
   2354000   0.05063623    -0.83106685     0.041594444   -0.71356707     0.045959289  
   2355000   0.050156534   -0.83188887     0.040656839   -0.71604577     0.042961173  
   2356000   0.05002776    -0.83018844     0.041451188   -0.71374402     0.049992468  
   2357000   0.051598984   -0.83093927     0.03883342    -0.7147573      0.035280108  
   2358000   0.051517501   -0.83068822     0.041508423   -0.71195341     0.031161123  
   2359000   0.052242158   -0.8313362      0.041877059   -0.71114646    -0.00031256909
   2360000   0.05016342    -0.83068239     0.042247625   -0.71323818     0.029696596  
   2361000   0.051372035   -0.83125602     0.042228567   -0.71201911     0.032126962  
   2362000   0.051277218   -0.83300119     0.043993165   -0.71214182     0.024256674  
   2363000   0.05258423    -0.83025103     0.042173568   -0.70925201     0.028029223  
   2364000   0.050558392   -0.83121443     0.039897972   -0.7155278      0.02275371   
   2365000   0.049260277   -0.83086348     0.043062396   -0.71395834     0.026132281  
   2366000   0.051757625   -0.831943       0.041250147   -0.7131065      0.053036469  
   2367000   0.050430689   -0.83063701     0.041393938   -0.71364584     0.048251798  
   2368000   0.051814901   -0.83135623     0.041655633   -0.71202839     0.038158955  
   2369000   0.050216851   -0.828419       0.040025493   -0.71311683     0.04605468   
   2370000   0.050308182   -0.83036626     0.043399027   -0.71155365     0.036790049  
   2371000   0.050421889   -0.83050329     0.042110619   -0.71280864     0.011602322  
   2372000   0.051142194   -0.82923708     0.042186413   -0.71038687     0.052736666  
   2373000   0.050815286   -0.83062186     0.040182187   -0.71426592     0.014201666  
   2374000   0.049702983   -0.82961716     0.041713432   -0.71339735     0.029146197  
   2375000   0.050834795   -0.83039617     0.039946777   -0.7142464      0.060501625  
   2376000   0.050681566   -0.8299743      0.041791075   -0.71220993     0.049200247  
   2377000   0.050539767   -0.8316132      0.042339788   -0.71351267     0.020836698  
   2378000   0.050836091   -0.82953164     0.043302233   -0.71002447     0.045623261  
   2379000   0.051256052   -0.83029321     0.042522497   -0.71093624     0.0098228613 
   2380000   0.050592686   -0.83038915     0.042654888   -0.7118942      0.020526125  
   2381000   0.05112481    -0.83121775     0.042281501   -0.71229851     0.038425008  
   2382000   0.0520217     -0.82918942     0.039325884   -0.71188133     0.034791182  
   2383000   0.052344588   -0.82988497     0.042284786   -0.70913395     0.01084249   
   2384000   0.051640088   -0.83184514     0.040397169   -0.71403781     0.020160752  
   2385000   0.051340998   -0.83100561     0.040966258   -0.71307754     0.017854059  
   2386000   0.053404925   -0.83092267     0.042891518   -0.70797545     0.018058925  
   2387000   0.050572857   -0.8299974      0.041063312   -0.71312375     0.040026729  
   2388000   0.052001131   -0.83187104     0.040834821   -0.71308485     0.030374412  
   2389000   0.050669996   -0.82932931     0.040965026   -0.71240833     0.025860328  
   2390000   0.051857589   -0.83245383     0.041972102   -0.71274553     0.012558081  
   2391000   0.051753274   -0.83141187     0.040094414   -0.71373763     0.024725564  
   2392000   0.053543319   -0.82872989     0.038060492   -0.71040624     0.031721262  
   2393000   0.049877089   -0.83039746     0.042070917   -0.71355918     0.005319175  
   2394000   0.050448041   -0.83075091     0.041007267   -0.7141204      0.027275704  
   2395000   0.049103184   -0.83076575     0.04099147    -0.71616702     0.023935681  
   2396000   0.050390869   -0.83034004     0.041374107   -0.71342839     0.01005714   
   2397000   0.051509482   -0.82856641     0.041295505   -0.71005653     0.0080940664 
   2398000   0.05174893    -0.83133675     0.041871633   -0.7118918      0.017107864  
   2399000   0.05117274    -0.82909302     0.039888972   -0.71249446     0.010537335  
   2400000   0.051923018   -0.83094337     0.042029532   -0.71107956     0.029646043  
   2401000   0.052049385   -0.83278721     0.044029323   -0.71073418     0.0090870106 
   2402000   0.049776435   -0.83311077     0.042770824   -0.71572346     0.0053212684 
   2403000   0.05040133    -0.83099454     0.043162635   -0.71227869     0.016720503  
   2404000   0.050320734   -0.8306031      0.040024968   -0.71514573     0.0047396363 
   2405000   0.050835669   -0.83212908     0.040615221   -0.71530955     0.0044472122 
   2406000   0.04942508    -0.82905755     0.041508651   -0.71345911     0.016961582  
   2407000   0.049949605   -0.82853447     0.039676117   -0.71398229     0.0092746639 
   2408000   0.052370933   -0.829659       0.040731827   -0.71042146     0.014754894  
   2409000   0.053223197   -0.83108708     0.043870462   -0.70743333     0.012823077  
   2410000   0.050741066   -0.83090293     0.040861081   -0.71397936     0.021819731  
   2411000   0.051481766   -0.83228231     0.042872266   -0.71223721     0.010815276  
   2412000   0.05063616    -0.83131046     0.040544061   -0.71486116     0.019748231  
   2413000   0.049932128   -0.83143661     0.042107008   -0.71447974     0.01496689   
   2414000   0.051427352   -0.8300539      0.041967706   -0.71099493     0.036015818  
   2415000   0.051100884   -0.83117838     0.040707034   -0.71386947     0.029302528  
   2416000   0.05223968    -0.82922281     0.041685944   -0.7092279      0.005541495  
   2417000   0.051088106   -0.82987315     0.042845349   -0.71044509     0.012514084  
   2418000   0.053024456   -0.83042112     0.040569089   -0.71036666     0.02650324   
   2419000   0.051551413   -0.83015017     0.042718409   -0.71015453     0.021677932  
   2420000   0.05190603    -0.82839485     0.040194175   -0.71039186     0.027138361  
   2421000   0.051949391   -0.82936764     0.039778097   -0.71171573     0.030132583  
   2422000   0.051115957   -0.83089896     0.041459185   -0.7128153      0.019888736  
   2423000   0.050172972   -0.83083757     0.043116039   -0.71251063     0.015506604  
   2424000   0.051292996   -0.83142887     0.041382986   -0.71315603     0.017631789  
   2425000   0.050777579   -0.83048494     0.038534697   -0.71583301     0.045014484  
   2426000   0.049970629   -0.82939224     0.040517479   -0.71396718     0.025769203  
   2427000   0.051328103   -0.83062961     0.040583778   -0.71310335     0.023557246  
   2428000   0.050705684   -0.83047963     0.040446217   -0.71402396     0.018526705  
   2429000   0.050167826   -0.82949023     0.039842131   -0.71444491     0.022319486  
   2430000   0.051564822   -0.83098233     0.041618181   -0.71206682     0.0077758792 
   2431000   0.049235059   -0.83216033     0.040815441   -0.71753995     0.033517232  
   2432000   0.051301693   -0.83019521     0.039466146   -0.71382617     0.02215324   
   2433000   0.049803349   -0.83004256     0.038561191   -0.71682455     0.011339254  
   2434000   0.049943247   -0.83157566     0.040502773   -0.71620635    -0.014258787  
   2435000   0.05160717    -0.82886317     0.040675946   -0.71082641     0.014430816  
   2436000   0.051390998   -0.83052741     0.042482873   -0.71100778     0.017541375  
   2437000   0.049810443   -0.82999859     0.044232855   -0.71109828    -0.0025915535 
   2438000   0.052726757   -0.82891334     0.041079276   -0.70879495     0.013757565  
   2439000   0.050823137   -0.83129828     0.04176429    -0.71334847     0.020833203  
   2440000   0.052320165   -0.82996069     0.043081158   -0.70844992    -0.0026203719 
   2441000   0.050176548   -0.83062685     0.04241621    -0.71299438     0.013083543  
   2442000   0.051527609   -0.83074833     0.039711661   -0.71379512     0.0051660478 
   2443000   0.050266183   -0.83173172     0.039371734   -0.71700936    -0.0042663538 
   2444000   0.051076339   -0.83135144     0.039572066   -0.71521429     0.027321074  
   2445000   0.051971621   -0.83100352     0.040894235   -0.71220214     0.021797876  
   2446000   0.053186917   -0.8309206      0.039982      -0.7112097      0.012111093  
   2447000   0.048846456   -0.82904058     0.040720832   -0.71509733     0.020991139  
   2448000   0.051390668   -0.82955354     0.040905347   -0.71161192     0.012885281  
   2449000   0.050592968   -0.82951153     0.041799858   -0.71187118     0.01547327   
   2450000   0.052321489   -0.82943797     0.041150303   -0.70985607     0.027283681  
   2451000   0.050292786   -0.83130826     0.044186637   -0.71173111    -0.00048820129
   2452000   0.051356475   -0.83065982     0.040410371   -0.71326444     0.0093852559 
   2453000   0.050700538   -0.83116078     0.04050754    -0.71465149     0.012562015  
   2454000   0.049834686   -0.83168952     0.040522822   -0.7164629      0.0083988263 
   2455000   0.049698684   -0.82932087     0.0394351     -0.71538584     0.015331846  
   2456000   0.048749169   -0.83113704     0.041704579   -0.71635588     0.00393335   
   2457000   0.048791012   -0.8312422      0.041739744   -0.71636315    -0.013167278  
   2458000   0.052015359   -0.83138236     0.040351243   -0.71305841     0.014466409  
   2459000   0.049700075   -0.832423       0.040996648   -0.71692433    -0.007762901  
   2460000   0.050511068   -0.83225896     0.040492828   -0.71604842     0.0045656465 
   2461000   0.051120648   -0.83061912     0.039459104   -0.71452852     0.017531122  
   2462000   0.049786591   -0.83150368     0.042828804   -0.71404317     0.0092759895 
   2463000   0.052923234   -0.83137844     0.039579781   -0.71246502     0.00071254935
   2464000   0.051012789   -0.83148636     0.041130544   -0.713886       0.017089624  
   2465000   0.050613722   -0.83046223     0.041067984   -0.71352265    -0.0027088294 
   2466000   0.053426618   -0.82970285     0.042451017   -0.70716361     0.011159424  
   2467000   0.050681745   -0.83179048     0.041357798   -0.71445912    -0.0072156811 
   2468000   0.049307684   -0.83159925     0.041928447   -0.71575699     0.014570925  
   2469000   0.049871414   -0.83220854     0.042236128   -0.71521356     0.010413521  
   2470000   0.05257438    -0.82820872     0.041532034   -0.70786599     0.022965745  
   2471000   0.051158398   -0.83032686     0.042880184   -0.71075858     0.011210262  
   2472000   0.052596429   -0.82945014     0.042229612   -0.70837679     0.0081498701 
   2473000   0.052158469   -0.83037565     0.042167223   -0.7100212     -0.0089232528 
   2474000   0.052004343   -0.83212466     0.039730591   -0.71443788     0.0019882459 
   2475000   0.051949364   -0.8323061      0.040081958   -0.71435037     0.014312561  
   2476000   0.05047406    -0.83110047     0.040387246   -0.71505098    -0.0048791394 
   2477000   0.052436697   -0.83086228     0.040569429   -0.71168855     0.019078757  
   2478000   0.049599803   -0.83210424     0.043271943   -0.7144806      0.021081258  
   2479000   0.051433657   -0.83275882     0.041523695   -0.71413442     0.011071198  
   2480000   0.052098481   -0.83193416     0.042535309   -0.71130154     0.0085799027 
   2481000   0.051164028   -0.83388054     0.040720348   -0.71646367     0.018440086  
   2482000   0.050708891   -0.83338722     0.040967771   -0.71640519     0.019448101  
   2483000   0.052751414   -0.83397383     0.042130803   -0.71276695    -0.010267844  
   2484000   0.050547773   -0.83464316     0.04304612    -0.7158243     -0.011291851  
   2485000   0.049501148   -0.83373628     0.040895775   -0.71863669     0.0090568084 
   2486000   0.051875425   -0.83505078     0.04315891    -0.71412893    -0.001000716  
   2487000   0.051431407   -0.83397808     0.042819364   -0.71406138     0.0068794739 
   2488000   0.050374243   -0.8347065      0.042538414   -0.71665547     0.0075906366 
   2489000   0.051472551   -0.83312902     0.040076731   -0.71589328     0.0056426691 
   2490000   0.051460631   -0.83374232     0.041490514   -0.71511066     0.00098104531
   2491000   0.051316731   -0.83370868     0.042679578   -0.71410367     0.025444018  
   2492000   0.051136112   -0.83456789     0.041510772   -0.71640243     0.0057061641 
   2493000   0.050816673   -0.83271118     0.041327269   -0.71520808     0.002265184  
   2494000   0.049890107   -0.8326366      0.040840614   -0.71700911     0.018160788  
   2495000   0.050471797   -0.83169442     0.04148418    -0.71455138     0.030888326  
   2496000   0.050873877   -0.83400654     0.040228793   -0.71751616     0.0047943885 
   2497000   0.050661995   -0.83299959     0.040769594   -0.71628603     0.0056122768 
   2498000   0.049116035   -0.83359534     0.041758157   -0.71821066     0.0071431113 
   2499000   0.049398487   -0.83217375     0.040457457   -0.71766637    -0.0052693775 
   2500000   0.050520138   -0.8316991      0.040088017   -0.71587976     0.010594185  
   2501000   0.051943119   -0.83266142     0.040265044   -0.71453196     0.0097273048 
   2502000   0.051820441   -0.8334506      0.042102488   -0.7136676      0.013138821  
   2503000   0.053825799   -0.83260122     0.04225777    -0.70965684     0.0074469011 
   2504000   0.050839642   -0.83130824     0.041301017   -0.71379696     0.020451067  
   2505000   0.051533152   -0.83411969     0.041554921   -0.71531492     0.0022701726 
   2506000   0.051778753   -0.83392651     0.041580801   -0.71472768     0.011955775  
   2507000   0.049662121   -0.83292503     0.042805029   -0.71567488     0.023064808  
   2508000   0.050829137   -0.8324575      0.040327447   -0.71593554     0.0092055821 
   2509000   0.048887724   -0.83244344     0.042296047   -0.71686312    -0.00079579392
   2510000   0.051233172   -0.83387498     0.039676805   -0.71739799     0.00042636931
   2511000   0.049074724   -0.83249066     0.040775143   -0.71815092     0.012999535  
   2512000   0.05086737    -0.83212898     0.039547154   -0.71632999     0.028076325  
   2513000   0.050435405   -0.83279192     0.041196632   -0.71599099     0.0037009131 
   2514000   0.05029134    -0.83359395     0.041512564   -0.71669305     0.017011837  
   2515000   0.050150241   -0.83242844     0.042023987   -0.71522762     0.010858503  
   2516000   0.051618468   -0.83243881     0.039557124   -0.71550394     0.0086645119 
   2517000   0.04947484    -0.83267154     0.038907494   -0.71959966     0.0039250966 
   2518000   0.050494887   -0.83302914     0.040069085   -0.71726659     0.017854399  
   2519000   0.051499429   -0.83369131     0.040264238   -0.71622777     0.00039087205
   2520000   0.050607509   -0.83223947     0.039844127   -0.71653305     0.026082011  
   2521000   0.050189453   -0.83291064     0.040708775   -0.71696626     0.012909465  
   2522000   0.051466518   -0.8325109      0.041714177   -0.71364675     0.0035898857 
   2523000   0.051670544   -0.8333598      0.040414076   -0.71548991     0.0015775218 
   2524000   0.050660352   -0.83371661     0.042506644   -0.71526846     0.010479483  
   2525000   0.04977047    -0.83187781     0.040622193   -0.71664807     0.010271554  
   2526000   0.050724703   -0.83171612     0.041091768   -0.71458639     0.00052030677
   2527000   0.051632649   -0.82956231     0.043661513   -0.70850179     0.01023119   
   2528000   0.050641693   -0.83151812     0.041894903   -0.71370969    -0.0062616436 
   2529000   0.05208081    -0.83124603     0.040883573   -0.71229164     0.0059640907 
   2530000   0.05189034    -0.83055083     0.041694269   -0.71107127     0.014552419  
   2531000   0.052024681   -0.83287369     0.042694276   -0.71219274     0.0049005739 
   2532000   0.052219304   -0.83041269     0.040632094   -0.71150218     0.020185845  
   2533000   0.050347229   -0.83009214     0.039236043   -0.71538398     0.02202954   
   2534000   0.050435377   -0.8329499      0.042705942   -0.7146397      0.014526184  
   2535000   0.049785367   -0.83138173     0.040334676   -0.71641718     0.017279763  
   2536000   0.049543897   -0.83207461     0.041865109   -0.7159416      0.021948962  
   2537000   0.051458338   -0.83218232     0.042512905   -0.71253171     0.0051335425 
   2538000   0.052766124   -0.83147985     0.040967218   -0.71141451     0.018289904  
   2539000   0.050318668   -0.82943089     0.04138425    -0.71261734     0.009544738  
   2540000   0.0514125     -0.83165751     0.04086452    -0.71372399     0.0041465309 
   2541000   0.052290785   -0.83133374     0.041708474   -0.71123969    -0.0038175488 
   2542000   0.050403203   -0.82992264     0.040555109   -0.71381151     0.006192534  
   2543000   0.051122889   -0.8328058      0.042224974   -0.71394597    -0.0037737813 
   2544000   0.050434423   -0.83103348     0.042466464   -0.71296419    -0.0077759327 
   2545000   0.050274386   -0.83266408     0.03954454    -0.71775661     0.0079909393 
   2546000   0.05024296    -0.83218706     0.040822189   -0.71604906    -0.00023826361
   2547000   0.050472438   -0.83193133     0.039750562   -0.71652096     0.013810551  
   2548000   0.05092295    -0.83207121     0.040849909   -0.71488615     0.016001659  
   2549000   0.050589563   -0.8310268      0.041030109   -0.71416131     0.019200137  
   2550000   0.050569865   -0.83158276     0.041311461   -0.71446544     0.021635453  
   2551000   0.051521364   -0.83128717     0.040559161   -0.71349582     0.0009688214 
   2552000   0.052672804   -0.83008521     0.041895309   -0.70923167     0.01317988   
   2553000   0.051888921   -0.83323298     0.040451772   -0.71499804    -0.0034328624 
   2554000   0.051496601   -0.83168256     0.041178026   -0.71330947     0.014374792  
   2555000   0.049562336   -0.83217905     0.041951766   -0.71593174     0.0074865457 
   2556000   0.050097634   -0.83178682     0.040800854   -0.715888       0.0096391679 
   2557000   0.051043795   -0.8310374      0.042313168   -0.71220794     0.029324135  
   2558000   0.051283097   -0.83121318     0.043001037   -0.71133713     0.019949653  
   2559000   0.050129784   -0.83260819     0.041784782   -0.71567725    -0.0019510266 
   2560000   0.049543426   -0.83309135     0.040442574   -0.71838158    -0.003630635  
   2561000   0.052493929   -0.83161179     0.038874677   -0.71404702     0.021635997  
   2562000   0.051260444   -0.83178851     0.041932565   -0.71301489     0.0094289027 
   2563000   0.051249044   -0.83174712     0.039949747   -0.7149734      0.010073503  
   2564000   0.051057456   -0.83223132     0.041934003   -0.71376054     0.013544135  
   2565000   0.050837726   -0.83149869     0.04272659    -0.71256471     0.0092940957 
   2566000   0.049882276   -0.8307514      0.04315308    -0.71282318     0.0037660136 
   2567000   0.050118493   -0.83235428     0.041554215   -0.71567083     0.0087706762 
   2568000   0.050890094   -0.83187112     0.041717942   -0.71386729     0.012296143  
   2569000   0.049857996   -0.83094057     0.041192234   -0.71500959     0.018324558  
   2570000   0.051567134   -0.83025606     0.040287784   -0.71266748     0.010690025  
   2571000   0.051110051   -0.8302937      0.040012956   -0.71366513    -0.0012454733 
   2572000   0.050073236   -0.83105997     0.041694273   -0.7143043      0.021705021  
   2573000   0.051733762   -0.83269417     0.041709034   -0.71343456     0.0099294705 
   2574000   0.052583765   -0.83361555     0.044364329   -0.71042646     0.0076211015 
   2575000   0.051251775   -0.83217886     0.041577266   -0.71377353     0.0091446322 
   2576000   0.050938048   -0.83350567     0.040376739   -0.71677116     0.00822125   
   2577000   0.0520726     -0.83381941     0.042462374   -0.71329853     0.0069135574 
   2578000   0.052469584   -0.83205859     0.040867662   -0.71253732    -0.0058989219 
   2579000   0.050769471   -0.8335685      0.040832654   -0.71663077    -0.0020751546 
   2580000   0.05249268    -0.83180482     0.041743857   -0.71137274     0.015541768  
   2581000   0.050700417   -0.83236664     0.040659754   -0.71570532    -0.013415017  
   2582000   0.05023298    -0.83427309     0.045501568   -0.71347067     0.019294903  
   2583000   0.052505253   -0.83252834     0.043301572   -0.7105197     -0.0075969028 
   2584000   0.051310117   -0.83230394     0.041025325   -0.71436309     0.0026448781 
   2585000   0.049414336   -0.83170982     0.042857869   -0.71477827    -0.0031564959 
   2586000   0.049426594   -0.83303503     0.041327038   -0.71761593     8.5106007e-05
   2587000   0.051966108   -0.83272697     0.044415239   -0.71041286     0.026789859  
   2588000   0.05053249    -0.83329349     0.041328238   -0.71621542    -0.013271712  
   2589000   0.051748962   -0.83236765     0.043662436   -0.71113185     0.017409557  
   2590000   0.050197896   -0.83292484     0.041455467   -0.7162211     -0.0097616808 
   2591000   0.048848241   -0.83090056     0.04355137    -0.7141241      0.0037093433 
   2592000   0.051952261   -0.83264686     0.041836438   -0.71293231     0.019702468  
   2593000   0.050156667   -0.83253104     0.042458995   -0.71488558     0.013236423  
   2594000   0.051682345   -0.8339996      0.04250667    -0.71401943    -0.012330669  
   2595000   0.052220767   -0.83351424     0.042990427   -0.71224319     0.01053207   
   2596000   0.050607814   -0.83059073     0.04312112    -0.71160686     0.046153713  
   2597000   0.051833177   -0.83256033     0.042747786   -0.71211294     0.018594093  
   2598000   0.051765804   -0.8327652      0.04057036    -0.71459623     0.01492549   
   2599000   0.052667685   -0.8327302      0.041288414   -0.71249123     0.015015893  
   2600000   0.052183151   -0.83386914     0.04038976    -0.71525515     0.011954245  
   2601000   0.050508431   -0.83253061     0.041118004   -0.71569884     0.0018055699 
   2602000   0.050244059   -0.8329553      0.041537329   -0.71610051     0.011016076  
   2603000   0.052506163   -0.83253837     0.042212619   -0.71161731     0.015419769  
   2604000   0.05325496    -0.83217638     0.040609553   -0.71173592     0.017302882  
   2605000   0.050600346   -0.83160119     0.040782485   -0.71496716     0.027353072  
   2606000   0.051558841   -0.83046393     0.038918917   -0.71425665     0.020128737  
   2607000   0.050876275   -0.8319493      0.04032199    -0.71536213     0.021442227  
   2608000   0.049860312   -0.83184918     0.040822228   -0.71628473     0.029993124  
   2609000   0.050646104   -0.83206087     0.042943307   -0.71319742     0.0068287517 
   2610000   0.051956881   -0.83058295     0.044726689   -0.70797122     0.0035104354 
   2611000   0.05175212    -0.83085538     0.042806892   -0.71047039     0.041274217  
   2612000   0.053641411   -0.83220097     0.042620723   -0.70917004     0.023119007  
   2613000   0.050262467   -0.83328509     0.043926231   -0.7140138      0.0046761499 
   2614000   0.049630721   -0.83180808     0.041786585   -0.71562344     0.0067170252 
   2615000   0.051122344   -0.8322638      0.041985662   -0.7136441      0.01909983   
   2616000   0.053135363   -0.8323114      0.041300678   -0.7113591      0.023599331  
   2617000   0.051319638   -0.83294398     0.041645405   -0.71436878     0.018698544  
   2618000   0.051587378   -0.83175937     0.041160456   -0.71326777     0.036930167  
   2619000   0.050016947   -0.83190443     0.041671203   -0.71525621     0.01567092   
   2620000   0.051403725   -0.83319612     0.041254951   -0.71488533    -0.0019504536 
   2621000   0.049680806   -0.83108894     0.042941145   -0.71367466     0.015808365  
   2622000   0.051130257   -0.83245901     0.043905523   -0.71190758     0.0045903027 
   2623000   0.052812653   -0.83139653     0.0409326     -0.71129606     0.024591749  
   2624000   0.051232106   -0.82950973     0.042512708   -0.71019844     0.020527671  
   2625000   0.051741005   -0.83293814     0.043168382   -0.71220832     0.017093105  
   2626000   0.052343719   -0.83150152     0.040830518   -0.71220608     0.022596573  
   2627000   0.050959515   -0.83081438     0.042396426   -0.712028       0.036494122  
   2628000   0.0505763     -0.83188995     0.043100591   -0.71297385     0.019645606  
   2629000   0.049610201   -0.83064767     0.041087601   -0.71519278     0.038137801  
   2630000   0.052696891   -0.83097816     0.041745901   -0.71023792     0.0082513549 
   2631000   0.049702148   -0.82938127     0.041029966   -0.71384618     0.013707281  
   2632000   0.051509638   -0.8313227      0.042543824   -0.71156426     0.01305338   
   2633000   0.052624678   -0.83125145     0.042475422   -0.70988994     0.010003826  
   2634000   0.051779036   -0.83265499     0.043731808   -0.71130474     0.0024518974 
   2635000   0.051622891   -0.83178578     0.042581566   -0.71181984     0.0014385542 
   2636000   0.05126176    -0.83127494     0.041905776   -0.71252613     0.0072730106 
   2637000   0.051277788   -0.82983339     0.041854639   -0.71111169     0.035293223  
   2638000   0.052476886   -0.83237118     0.043360695   -0.71034594     0.019185467  
   2639000   0.051307225   -0.8326828      0.041595948   -0.71417566     0.0069410154 
   2640000   0.052362226   -0.83121617     0.043633404   -0.7090901      0.035870288  
   2641000   0.051024745   -0.83110759     0.042519847   -0.7121         0.023468966  
   2642000   0.051113198   -0.83234273     0.041202233   -0.71452017     0.031541548  
   2643000   0.050660413   -0.83317459     0.041822103   -0.71541089     0.028072839  
   2644000   0.05183798    -0.83369906     0.040060501   -0.71593176     0.04229202   
   2645000   0.051880362   -0.83229527     0.039537335   -0.7149876      0.012540974  
   2646000   0.051289385   -0.83430651     0.043270017   -0.71415205     0.0060592312 
   2647000   0.052334361   -0.83323221     0.042134248   -0.71264706     0.0067907695 
   2648000   0.050524209   -0.8324598      0.043196732   -0.71352565     0.016442935  
   2649000   0.05135952    -0.83360953     0.042169417   -0.71445054     0.0068419966 
   2650000   0.051815127   -0.83397223     0.043786036   -0.71251365     0.0041310701 
   2651000   0.051898165   -0.83222252     0.041316251   -0.71310925     0.017560121  
   2652000   0.050259698   -0.83441781     0.042763171   -0.71631373     0.023708439  
   2653000   0.052771022   -0.83275778     0.042891296   -0.71076102     0.016712239  
   2654000   0.05345766    -0.83417267     0.041831595   -0.71220632     0.0057333361 
   2655000   0.049313528   -0.83158942     0.043063869   -0.71460298     0.020140924  
   2656000   0.049834228   -0.83091663     0.041648762   -0.71456475     0.029550398  
   2657000   0.049678746   -0.8336133      0.042655239   -0.71648802     0.030852629  
   2658000   0.050935596   -0.83502403     0.04241789    -0.71625203     0.0026805235 
   2659000   0.052874856   -0.83292813     0.041049482   -0.71261753     0.024846022  
   2660000   0.051539454   -0.83387337     0.044437939   -0.71217613     0.0090292319 
   2661000   0.051597842   -0.83294619     0.040696198   -0.71490316     0.023093763  
   2662000   0.049807262   -0.83311724     0.040869867   -0.71758468     0.037095288  
   2663000   0.052347574   -0.8328885      0.042277702   -0.7121401      0.023766951  
   2664000   0.05233268    -0.83248253     0.041756186   -0.71227797     0.031904783  
   2665000   0.051661947   -0.83356984     0.042973474   -0.71315344     0.027660415  
   2666000   0.050958121   -0.83444178     0.0421168     -0.71593711     0.027900031  
   2667000   0.051528242   -0.8354429      0.042078093   -0.71612231     0.015618529  
   2668000   0.051193518   -0.83397469     0.041084072   -0.71614988     0.024521176  
   2669000   0.050920383   -0.83420843     0.042261659   -0.71561547     0.0057967213 
   2670000   0.050417156   -0.83376655     0.044338967   -0.71385064     0.0097377493 
   2671000   0.051615825   -0.8332349      0.040058748   -0.71580237     0.015234119  
   2672000   0.051482231   -0.83456062     0.04359478    -0.71379232     0.010711325  
   2673000   0.050885715   -0.8328106      0.043682259   -0.71284902     0.03637739   
   2674000   0.050843337   -0.83475424     0.043256247   -0.71528219     0.0287276    
   2675000   0.052667755   -0.83430074     0.043655442   -0.71169463     0.0099720298 
   2676000   0.052305157   -0.83281877     0.042832198   -0.71157945     0.0046403519 
   2677000   0.051574159   -0.8344633      0.044857292   -0.71229468     0.029574601  
   2678000   0.052532379   -0.8349716      0.043492043   -0.71273182     0.044535901  
   2679000   0.05235596    -0.8340035      0.043335734   -0.71218449     0.0017083273 
   2680000   0.050454572   -0.83555049     0.041975833   -0.71794163     0.021869169  
   2681000   0.050371678   -0.83413868     0.043738768   -0.71489114     0.0070874855 
   2682000   0.050905146   -0.83338375     0.043092089   -0.71398321     0.018463876  
   2683000   0.052577058   -0.83387021     0.043269442   -0.71178607     0.022280308  
   2684000   0.052061694   -0.83401274     0.0447568     -0.71121378     0.018887446  
   2685000   0.051304643   -0.83413135     0.042025325   -0.71519871     0.0520633    
   2686000   0.050526063   -0.83386274     0.042008827   -0.71611372     0.041177498  
   2687000   0.051906111   -0.83370967     0.043249981   -0.71265076     0.026915469  
   2688000   0.050446037   -0.83179537     0.042047117   -0.71412801     0.028528951  
   2689000   0.051246222   -0.83432644     0.043289003   -0.7142177      0.015993824  
   2690000   0.050783922   -0.83378203     0.042385893   -0.7152694      0.021333376  
   2691000   0.050175753   -0.83332139     0.044155666   -0.71395065     0.042097539  
   2692000   0.051231371   -0.8322404      0.042250683   -0.71319224     0.042951544  
   2693000   0.051262656   -0.83187214     0.042213894   -0.71281387     0.029699575  
   2694000   0.050833039   -0.83192282     0.042287535   -0.71343492     0.045638831  
   2695000   0.05150159    -0.83435439     0.041862026   -0.71528982     0.021177968  
   2696000   0.052662469   -0.83310794     0.04212434    -0.71204086     0.028844461  
   2697000   0.053353849   -0.83304925     0.040950995   -0.71211911     0.018263086  
   2698000   0.052507327   -0.83333561     0.044511031   -0.7101144      0.020989833  
   2699000   0.049688354   -0.83242117     0.045712979   -0.71222375     0.012861584  
   2700000   0.050962609   -0.83137547     0.042545426   -0.71243545     0.038253699  
   2701000   0.052229448   -0.83387495     0.045088583   -0.71049274     0.041605752  
   2702000   0.051330168   -0.83148652     0.043744865   -0.71079608     0.041221525  
   2703000   0.050316625   -0.83230425     0.044983228   -0.71189478     0.053032899  
   2704000   0.050609768   -0.83328996     0.044073887   -0.7133504      0.023789269  
   2705000   0.04922799    -0.83389578     0.043610651   -0.71649078     0.022395211  
   2706000   0.049499885   -0.83358598     0.043038444   -0.71634561     0.039048224  
   2707000   0.049664536   -0.83168265     0.042485889   -0.71474802     0.044631299  
   2708000   0.049761104   -0.83274723     0.041152819   -0.71700091     0.035171953  
   2709000   0.053201062   -0.83371986     0.041115797   -0.71285396     0.021220724  
   2710000   0.05231738    -0.83422664     0.040689512   -0.71511169     0.021829252  
   2711000   0.052162708   -0.83415862     0.045755627   -0.71020941     0.024763798  
   2712000   0.050502456   -0.83400018     0.042639844   -0.71565552    -0.015546756  
   2713000   0.050685659   -0.83337295     0.043852162   -0.71354135     0.013228246  
   2714000   0.051436489   -0.83427079     0.04369403    -0.7134718      0.032100129  
   2715000   0.051002182   -0.83323645     0.042515395   -0.71426713     0.010388381  
   2716000   0.053022709   -0.83285844     0.042807321   -0.71056837     0.014881506  
   2717000   0.050678719   -0.83278467     0.043073345   -0.71374229     0.022529293  
   2718000   0.050814567   -0.83322699     0.041552181   -0.71550214     0.022791754  
   2719000   0.050737284   -0.83334617     0.042057379   -0.71523197     0.041167834  
   2720000   0.05114105    -0.83413234     0.043795973   -0.71367428    -0.010476474  
   2721000   0.051649101   -0.83452694     0.042019011   -0.71508426     0.0098580227 
   2722000   0.050821588   -0.83391613     0.043710899   -0.71402203     0.022755304  
   2723000   0.051498727   -0.83181315     0.041634161   -0.71298073     0.017169442  
   2724000   0.052776732   -0.83354141     0.042914324   -0.71151307     0.036629701  
   2725000   0.050691457   -0.83441925     0.044467708   -0.71396341     0.014057756  
   2726000   0.051326376   -0.83191586     0.042230166   -0.7127458      0.028722854  
   2727000   0.050739993   -0.8346835      0.042837296   -0.71578531     0.018704475  
   2728000   0.050625965   -0.83278507     0.040232709   -0.71666241     0.052595034  
   2729000   0.049552789   -0.8319466      0.041315596   -0.71634977     0.032296391  
   2730000   0.051743614   -0.83339704     0.043243966   -0.71258773     0.024684381  
   2731000   0.051332728   -0.83393061     0.042776461   -0.71420473     0.022954324  
   2732000   0.051157738   -0.8319766      0.041763106   -0.71352639     0.041337157  
   2733000   0.050742353   -0.83256524     0.042276171   -0.71422465     0.019970291  
   2734000   0.050195448   -0.8333651      0.041795733   -0.71632477     0.042146478  
   2735000   0.050578236   -0.83299781     0.044239956   -0.71293945     0.030295658  
   2736000   0.052782452   -0.83416815     0.043029221   -0.71201633     0.020718886  
   2737000   0.050277682   -0.83433734     0.045226135   -0.71374334     0.020275233  
   2738000   0.051650551   -0.83382516     0.04382986    -0.71256946     0.014190672  
   2739000   0.05144314    -0.83376687     0.043859664   -0.71279228     0.015692878  
   2740000   0.050215656   -0.83246631     0.043301261   -0.71389016     0.028928645  
   2741000   0.049825924   -0.83572675     0.044018978   -0.7170171      0.022701925  
   2742000   0.051082244   -0.83500747     0.042436459   -0.71599708     0.0092593252 
   2743000   0.050450452   -0.83452328     0.045285026   -0.7136114      0.033717999  
   2744000   0.051143792   -0.83426041     0.043266093   -0.71432812     0.020233894  
   2745000   0.053587677   -0.83481581     0.04343924    -0.71104691     0.025313313  
   2746000   0.051846067   -0.83424388     0.043322938   -0.71320202     0.038497554  
   2747000   0.050872853   -0.83312124     0.044697818   -0.71216338     0.025677093  
   2748000   0.049741755   -0.8347676      0.043634411   -0.7165687      0.037902544  
   2749000   0.053422874   -0.83480583     0.042331641   -0.71239158     0.031266035  
   2750000   0.050462128   -0.83347402     0.04399489    -0.71383478     0.043341348  
   2751000   0.050706637   -0.83246828     0.043225084   -0.71323231     0.014380092  
   2752000   0.051483794   -0.83348694     0.042305005   -0.71400607     0.020035022  
   2753000   0.051821584   -0.83241208     0.046162569   -0.70856729     0.029358841  
   2754000   0.053385715   -0.83412091     0.045971282   -0.70812271     0.018071436  
   2755000   0.052527753   -0.83451193     0.045342937   -0.7104282      0.012801495  
   2756000   0.050507674   -0.83540962     0.045935616   -0.71376137     0.007028118  
   2757000   0.05215482    -0.83459424     0.042661213   -0.71375127     0.021198295  
   2758000   0.051624711   -0.83490652     0.04233641    -0.715183       0.025360859  
   2759000   0.051060145   -0.83370618     0.042628651   -0.71453672     0.029530933  
   2760000   0.051647497   -0.83263917     0.043503195   -0.71171471     0.036268444  
   2761000   0.049840145   -0.83471343     0.044803709   -0.71519774     0.0063440977 
   2762000   0.052743493   -0.83449975     0.042796478   -0.71263908     0.025444505  
   2763000   0.050483335   -0.83485228     0.044803164   -0.71437297    -3.7913382e-05
   2764000   0.052612108   -0.83407895     0.042501528   -0.71271017     0.029708085  
   2765000   0.051094647   -0.8338167      0.042092907   -0.71513126     0.040657597  
   2766000   0.049159355   -0.83411077     0.04284615    -0.71757316     0.027838485  
   2767000   0.051388894   -0.83388546     0.043669088   -0.71318276     0.04641996   
   2768000   0.050644      -0.83388032     0.044902376   -0.71306096     0.0077796383 
   2769000   0.052927331   -0.83567102     0.045885713   -0.71044553     0.020785705  
   2770000   0.052151182   -0.83491668     0.043210967   -0.71352941     0.019589748  
   2771000   0.051087572   -0.8346172      0.04494067    -0.71309461     0.019220485  
   2772000   0.051647927   -0.83336837     0.044069257   -0.7118772      0.0061802564 
   2773000   0.050579035   -0.83452893     0.043583401   -0.71512592     0.01267753   
   2774000   0.054946042   -0.83349164     0.04322325    -0.7079025      0.022197278  
   2775000   0.053282243   -0.83392778     0.043849034   -0.71020694     0.014649537  
   2776000   0.05265178    -0.83465094     0.044319958   -0.71140427     0.010980502  
   2777000   0.052094841   -0.83313491     0.045273361   -0.7097697      0.027402163  
   2778000   0.051586896   -0.83361684     0.044504342   -0.71178208     0.026933229  
   2779000   0.053061228   -0.83221828     0.042992263   -0.70968552     0.010015449  
   2780000   0.051425021   -0.83375535     0.045010987   -0.7116566      0.028305287  
   2781000   0.05095417    -0.83156907     0.044786226   -0.7104009      0.020688706  
   2782000   0.050549841   -0.83367803     0.044065066   -0.71383712     0.014968907  
   2783000   0.050093637   -0.83343284     0.043085631   -0.71525523     0.0075784247 
   2784000   0.051628887   -0.83499122     0.041992163   -0.71560569     0.012378672  
   2785000   0.050513983   -0.83373599     0.043201083   -0.71481281     0.026285705  
   2786000   0.051683306   -0.83409853     0.043267437   -0.71335615     0.053417822  
   2787000   0.051337216   -0.83435362     0.04272734    -0.71467014     0.014314664  
   2788000   0.050527266   -0.83268425     0.043840107   -0.71310214     0.01799514   
   2789000   0.051796857   -0.83435296     0.043002873   -0.71370493     0.004368231  
   2790000   0.051375368   -0.83139033     0.042102833   -0.71227416     0.025211239  
   2791000   0.047950787   -0.83269117     0.045797627   -0.71501377     0.032913325  
   2792000   0.052463823   -0.83361392     0.044246918   -0.71072204     0.071490258  
   2793000   0.052836697   -0.8342701      0.045824257   -0.70924193     0.026894871  
   2794000   0.052244852   -0.83469273     0.045445666   -0.71093035     0.02020102   
   2795000   0.05126411    -0.83451566     0.04388601    -0.71378309     0.042038816  
   2796000   0.049477462   -0.83286067     0.042812956   -0.7158794      0.042354188  
   2797000   0.051202081   -0.83391805     0.041843423   -0.71532105     0.021628591  
   2798000   0.053288029   -0.83380686     0.042207382   -0.711719       0.044811258  
   2799000   0.053037605   -0.83464738     0.043109015   -0.71203329     0.016431528  
   2800000   0.053361687   -0.83469693     0.044220968   -0.71048507     0.0047885476 
   2801000   0.053858448   -0.83535997     0.043655991   -0.71096842     0.013883159  
   2802000   0.049667578   -0.83162691     0.044431495   -0.71274211     0.029737234  
   2803000   0.051028969   -0.83525095     0.043482729   -0.71527415    -0.0023361277 
   2804000   0.05142991    -0.8342147      0.045419729   -0.71169988     0.018129344  
   2805000   0.052170158   -0.83435509     0.044318255   -0.71183209     0.039194856  
   2806000   0.051931483   -0.83490178     0.045298139   -0.71175667     0.015398697  
   2807000   0.050861013   -0.83246779     0.04427949    -0.711946       0.025611426  
   2808000   0.051326398   -0.83367941     0.045078042   -0.71166144     0.012419702  
   2809000   0.051356041   -0.83289658     0.042746143   -0.71316607     0.031544891  
   2810000   0.052797523   -0.8335806      0.044466864   -0.70996854     0.017468028  
   2811000   0.052034701   -0.83425524     0.04430575    -0.71194779     0.041607793  
   2812000   0.05100107    -0.83327818     0.044742633   -0.7120833      0.037115717  
   2813000   0.05214831    -0.8326484      0.044302267   -0.71017413     0.033494636  
   2814000   0.052721829   -0.83354983     0.043504396   -0.71101371     0.02812108   
   2815000   0.049250306   -0.83186858     0.044906594   -0.71313419     0.019097297  
   2816000   0.050253094   -0.83283447     0.044417182   -0.71308628     0.040117273  
   2817000   0.052086308   -0.83424284     0.045692879   -0.71047091     0.012927361  
   2818000   0.052088152   -0.83233153     0.044979685   -0.70927003     0.022876531  
   2819000   0.052569137   -0.83335045     0.044365314   -0.7101823      0.040831816  
   2820000   0.052441998   -0.83166227     0.045195094   -0.70785493     0.0298194    
   2821000   0.052072019   -0.83277278     0.044764255   -0.70995088     0.0023467832 
   2822000   0.051899376   -0.83404833     0.044715332   -0.71153416     0.035698687  
   2823000   0.050985105   -0.83346294     0.044881767   -0.71215286     0.035905408  
   2824000   0.051058013   -0.83372145     0.046174113   -0.71100973     0.010663398  
   2825000   0.051569792   -0.83394131     0.046940059   -0.70969647     0.040860515  
   2826000   0.050981974   -0.83364963     0.044656708   -0.7125693      0.015258862  
   2827000   0.049704754   -0.83184876     0.045611436   -0.71172829     0.025796407  
   2828000   0.05156143    -0.83389028     0.042886556   -0.71371148     0.036034386  
   2829000   0.050901717   -0.83248735     0.045269186   -0.71091485     0.0078645948 
   2830000   0.053808143   -0.83300403     0.043526281   -0.7088176      0.033387568  
   2831000   0.051285195   -0.83084557     0.043934883   -0.71003253     0.01748156   
   2832000   0.049479683   -0.8330427      0.046996081   -0.71187497     0.0013872899 
   2833000   0.051743724   -0.83388342     0.043448471   -0.71286944     0.047531357  
   2834000   0.052503224   -0.8332977      0.043783223   -0.71081045     0.050138872  
   2835000   0.049649544   -0.83325981     0.044425279   -0.71440826     0.026715191  
   2836000   0.050513179   -0.83268206     0.042653886   -0.71430729     0.025134985  
   2837000   0.05163874    -0.83301636     0.04343454    -0.71217368     0.060037021  
   2838000   0.051056557   -0.83432799     0.042486005   -0.71530656     0.0090168209 
   2839000   0.052047152   -0.83195249     0.04475049    -0.70918165     0.024880059  
   2840000   0.04987087    -0.83111217     0.043835567   -0.71251856     0.0200896    
   2841000   0.053571174   -0.83421298     0.043368166   -0.7105399      0.014015551  
   2842000   0.053172735   -0.83314365     0.042945987   -0.71049002     0.03122257   
   2843000   0.051530835   -0.83264268     0.04340523    -0.71199106     0.0081990736 
   2844000   0.050739241   -0.83247271     0.045350596   -0.71106235     0.011746274  
   2845000   0.051257621   -0.83251095     0.04311127    -0.71256285     0.032970457  
   2846000   0.053886636   -0.83218059     0.043523984   -0.7078788      0.044627674  
   2847000   0.0513983     -0.83220255     0.044692888   -0.71046196     0.028039835  
   2848000   0.052008      -0.83281886     0.043708331   -0.71114886     0.022974567  
   2849000   0.050991813   -0.83256532     0.041908464   -0.71421849     0.019087486  
   2850000   0.050863045   -0.83139746     0.04482195    -0.71033017     0.039474637  
   2851000   0.052185025   -0.83269018     0.045053282   -0.70940986     0.062183488  
   2852000   0.051327863   -0.83244411     0.045292231   -0.71020976     0.03677551   
   2853000   0.051336306   -0.83345636     0.043202794   -0.71329879     0.049875262  
   2854000   0.052216884   -0.83255358     0.044488882   -0.70978991     0.036072696  
   2855000   0.050828881   -0.8335364      0.044497233   -0.71284504     0.070234485  
   2856000   0.052345498   -0.83215312     0.043952647   -0.70973288     0.02522284   
   2857000   0.051259329   -0.83323379     0.043976177   -0.71241822     0.043292557  
   2858000   0.05219611    -0.83255642     0.045760091   -0.70855267     0.050870581  
   2859000   0.049374526   -0.83079206     0.043669339   -0.71310871     0.045765958  
   2860000   0.052829617   -0.8319002      0.044024494   -0.70868241     0.041716129  
   2861000   0.052893699   -0.83045604     0.044635277   -0.7065314      0.030455038  
   2862000   0.051745428   -0.82956618     0.044905914   -0.7070922      0.03649863   
   2863000   0.049714029   -0.82943666     0.045164627   -0.7097491      0.02721834   
   2864000   0.049552174   -0.83170766     0.044449962   -0.71297739     0.01963761   
   2865000   0.050860901   -0.83008135     0.043976124   -0.70986309     0.056176777  
   2866000   0.050621359   -0.82923396     0.043218909   -0.710132       0.037558281  
   2867000   0.051545974   -0.83160837     0.043090221   -0.71124907     0.010554018  
   2868000   0.053212498   -0.83006465     0.046388492   -0.70390891     0.034039557  
   2869000   0.051798212   -0.83021346     0.047767556   -0.70479872     0.069748229  
   2870000   0.053137768   -0.83097065     0.04437382    -0.7069416      0.052233178  
   2871000   0.052135104   -0.8314817      0.044189579   -0.70913991     0.036784912  
   2872000   0.049921112   -0.8302372      0.043667008   -0.71173683     0.035149094  
   2873000   0.049670627   -0.83209356     0.044373803   -0.71326189     0.050978586  
   2874000   0.04998765    -0.83081988     0.04498696    -0.71089981     0.045553414  
   2875000   0.051558462   -0.8320064      0.045468905   -0.70924969     0.028271634  
   2876000   0.0514091     -0.82972238     0.042112513   -0.71054597     0.025414519  
   2877000   0.050512493   -0.83165853     0.045184221   -0.71075445     0.033219427  
   2878000   0.051340704   -0.83139756     0.046274768   -0.70816142     0.014204184  
   2879000   0.051861098   -0.83225604     0.046928728   -0.70758586     0.0094605912 
   2880000   0.053311882   -0.83084793     0.042879226   -0.70805247     0.026619658  
   2881000   0.050477046   -0.82958408     0.042122594   -0.71179476     0.03954931   
   2882000   0.049598034   -0.82960968     0.042103746   -0.71315688     0.04316705   
   2883000   0.051353322   -0.83086061     0.043758172   -0.71012215     0.031340545  
   2884000   0.052810788   -0.83081744     0.044645161   -0.7070072      0.036122308  
   2885000   0.051064142   -0.82985796     0.043516713   -0.70979445     0.030497056  
   2886000   0.050110313   -0.83096062     0.045376254   -0.71046739     0.036815768  
   2887000   0.051164173   -0.83118256     0.043178533   -0.71130728     0.027599909  
   2888000   0.050740744   -0.83064914     0.045822363   -0.70876476     0.055942387  
   2889000   0.051022461   -0.8307332      0.044740961   -0.70950792     0.030615525  
   2890000   0.051714505   -0.8300225      0.045138884   -0.7073619      0.009422934  
   2891000   0.051640879   -0.83113869     0.044949076   -0.70877827     0.044224826  
   2892000   0.050588308   -0.83129441     0.043153944   -0.71230696     0.032988184  
   2893000   0.050404396   -0.83170127     0.044181162   -0.71196229     0.035624686  
   2894000   0.050139832   -0.83107639     0.043743434   -0.71217173     0.033903162  
   2895000   0.051917004   -0.83027593     0.0442766     -0.70817406     0.026816877  
   2896000   0.04971288    -0.83078746     0.044744894   -0.71152136     0.0029353467 
   2897000   0.049440907   -0.83268369     0.047263796   -0.71130638     0.024028925  
   2898000   0.052277723   -0.83035909     0.046090856   -0.70590224     0.055560347  
   2899000   0.052470794   -0.83010765     0.044696976   -0.70675526     0.04549421   
   2900000   0.051771066   -0.83016096     0.045992861   -0.7065616      0.029159752  
   2901000   0.051690143   -0.83086756     0.044368019   -0.70901435     0.041977443  
   2902000   0.052417505   -0.82982771     0.045107684   -0.7061445      0.034262184  
   2903000   0.051415402   -0.83141778     0.043786859   -0.71055757     0.019432106  
   2904000   0.051344132   -0.83119488     0.045056521   -0.70917184     0.010706201  
   2905000   0.050426445   -0.83013694     0.045409891   -0.70913618     0.032817886  
   2906000   0.04944958    -0.82980157     0.042232037   -0.71344302     0.04550216   
   2907000   0.051557665   -0.8313817      0.044350083   -0.70974501     0.037367922  
   2908000   0.052411922   -0.83132718     0.044411883   -0.70834813     0.03572479   
   2909000   0.049462899   -0.82993539     0.04431411    -0.7114748      0.035823922  
   2910000   0.050572132   -0.82935186     0.043482936   -0.71005967     0.048650663  
   2911000   0.051026867   -0.83020614     0.04508209    -0.70863313     0.032091932  
   2912000   0.053529318   -0.83142845     0.044046322   -0.70713995    -0.0018890254 
   2913000   0.0524465     -0.83219887     0.042746074   -0.7108338      0.029356707  
   2914000   0.051151477   -0.83081226     0.044349034   -0.70978551     0.042675271  
   2915000   0.050546311   -0.82955035     0.044631609   -0.70914819     0.028738958  
   2916000   0.04810323    -0.83064916     0.042670608   -0.71587026     0.034094249  
   2917000   0.050441291   -0.83035697     0.043916017   -0.71082783     0.0132113    
   2918000   0.050607294   -0.8315056      0.042787515   -0.71285612     0.025717427  
   2919000   0.050675331   -0.83015838     0.042855617   -0.71133881     0.011843915  
   2920000   0.050923855   -0.83253945     0.046164334   -0.71003861     0.024037074  
   2921000   0.050461583   -0.83198786     0.044843674   -0.71150064     0.047583524  
   2922000   0.052006595   -0.83218868     0.044680418   -0.7095487      0.024449949  
   2923000   0.051263716   -0.83254252     0.046171556   -0.709525       0.0075641873 
   2924000   0.053728102   -0.83094159     0.044887816   -0.70551362     0.011136682  
   2925000   0.050483757   -0.83190137     0.047884868   -0.70833972     0.022701287  
   2926000   0.051044859   -0.83111775     0.045775496   -0.70882436     0.031461826  
   2927000   0.051146078   -0.83091781     0.047151548   -0.70709664     0.029284551  
   2928000   0.049166774   -0.83016006     0.045388558   -0.71106892    -0.0053672159 
   2929000   0.049108977   -0.83296208     0.045409352   -0.71393679     0.024180273  
   2930000   0.049920073   -0.83257731     0.044740517   -0.71300499     0.0094748277 
   2931000   0.053116336   -0.83039201     0.044607444   -0.70616147     0.0079986873 
   2932000   0.049150137   -0.83056219     0.046073755   -0.71081079     0.016878921  
   2933000   0.051170728   -0.83039927     0.044181479   -0.70951122     0.013073659  
   2934000   0.051296512   -0.83274147     0.045140491   -0.71070585     0.00081380575
   2935000   0.051006456   -0.83174834     0.044232864   -0.71105515     0.015858765  
   2936000   0.051925133   -0.83345452     0.045195644   -0.71042143     0.0060549951 
   2937000   0.050940251   -0.83112234     0.045720692   -0.70904057    -0.0081932959 
   2938000   0.050607568   -0.83002823     0.044118991   -0.71004686     0.039013705  
   2939000   0.048913137   -0.83164862     0.046371785   -0.71195446     0.032978923  
   2940000   0.052308999   -0.83271373     0.045749049   -0.70855181     0.0015579603 
   2941000   0.051250979   -0.83025969     0.044815807   -0.70861701     0.022803941  
   2942000   0.051197493   -0.83231395     0.046117884   -0.70944937     0.0055044274 
   2943000   0.05079627    -0.83107163     0.046686061   -0.70824032     0.014409449  
   2944000   0.050520729   -0.83110057     0.043791573   -0.7115768      0.0126269    
   2945000   0.049053908   -0.83140739     0.047796275   -0.71007773     0.048567187  
   2946000   0.050320649   -0.83213067     0.04369235    -0.71300605     0.011237017  
   2947000   0.050877612   -0.8311253      0.044595655   -0.71026247     0.0090532097 
   2948000   0.051438648   -0.83246746     0.043616704   -0.71174256     0.025573697  
   2949000   0.050450142   -0.83134233     0.04582634    -0.7098896      0.0053398379 
   2950000   0.051656539   -0.8322965      0.045011092   -0.70985059     0.0062418003 
   2951000   0.050623456   -0.83161541     0.0451267     -0.71060252     0.042057239  
   2952000   0.052272567   -0.83292841     0.044278427   -0.71029172     0.017044141  
   2953000   0.050852923   -0.8320815      0.044309798   -0.71154153    -0.011601895  
   2954000   0.053031658   -0.83289528     0.044747318   -0.7086518      0.025693274  
   2955000   0.05123267    -0.83287746     0.045376543   -0.71070149     0.016888387  
   2956000   0.051723546   -0.83191059     0.044710178   -0.70966515     0.034041527  
   2957000   0.050836316   -0.83265618     0.044734432   -0.71171647    -0.002891775  
   2958000   0.051164327   -0.83126728     0.044299599   -0.7102707      0.054059606  
   2959000   0.05340282    -0.83356968     0.044335402   -0.70918173     0.022324275  
   2960000   0.052404637   -0.83422815     0.04582876    -0.70984315     0.010216316  
   2961000   0.053941798   -0.83539662     0.045707361   -0.70882876    -0.0027599837 
   2962000   0.054469341   -0.83404584     0.04616062    -0.70623392     0.0074704975 
   2963000   0.052628762   -0.83353647     0.045187531   -0.70945672     0.026487579  
   2964000   0.05200084    -0.83256432     0.046298653   -0.70831473     0.015465648  
   2965000   0.052487496   -0.83348336     0.045048763   -0.70975415     0.015735036  
   2966000   0.051808847   -0.83378034     0.04580767    -0.71030953     0.034465195  
   2967000   0.052330103   -0.83349741     0.04380702    -0.71124588     0.025124538  
   2968000   0.052024528   -0.83452918     0.044232648   -0.71231008     0.037979516  
   2969000   0.051622505   -0.83231701     0.04435305    -0.71058016    -0.0020573946 
   2970000   0.051404282   -0.83239618     0.045445479   -0.70989403     0.039693187  
   2971000   0.05202099    -0.8342293      0.044427682   -0.71182047     0.021429716  
   2972000   0.051800603   -0.83253803     0.044712724   -0.71017453     0.006092415  
   2973000   0.051298841   -0.83264583     0.043996917   -0.71175029     0.040278718  
   2974000   0.050305071   -0.83380983     0.046211086   -0.71218982     0.020486144  
   2975000   0.050771534   -0.8357263      0.044507945   -0.71511019     0.0020904159 
   2976000   0.051499493   -0.83352916     0.044846434   -0.71148332     0.023329744  
   2977000   0.049672318   -0.83364714     0.045887834   -0.7132989      0.0166684    
   2978000   0.051497713   -0.83259509     0.046538628   -0.70885973     0.013020181  
   2979000   0.051810707   -0.83391679     0.045661231   -0.71058964     0.027852303  
   2980000   0.052840903   -0.83281504     0.045665199   -0.70793962     0.035338273  
   2981000   0.053588649   -0.83382236     0.044509543   -0.70898171    -0.0029109784 
   2982000   0.050899831   -0.83340018     0.044739705   -0.71235999     0.064705228  
   2983000   0.051635417   -0.83517763     0.044655678   -0.71311879     0.023255487  
   2984000   0.051279267   -0.83501375     0.047064164   -0.71108031     0.0035504097 
   2985000   0.051321254   -0.83470543     0.04661462    -0.7111586     -0.012217218  
   2986000   0.05322851    -0.83493238     0.044102542   -0.71103858     0.034005416  
   2987000   0.051933246   -0.83465115     0.045736322   -0.71106522     0.032920122  
   2988000   0.051720691   -0.83516225     0.045599554   -0.71203171     0.022118397  
   2989000   0.052070818   -0.83500432     0.04532331    -0.71162517     0.010478983  
   2990000   0.052958212   -0.8345064      0.045681487   -0.70943885     0.018668472  
   2991000   0.051123152   -0.83520692     0.045611327   -0.71296034     0.047942661  
   2992000   0.051504965   -0.83424057     0.045104297   -0.71192867     0.028117454  
   2993000   0.051406      -0.83462954     0.04449692    -0.71307336     0.04490524   
   2994000   0.052166697   -0.83416771     0.045198096   -0.71077005     0.018584306  
   2995000   0.052019617   -0.83379037     0.044394036   -0.71141725     0.038314278  
   2996000   0.051494433   -0.835837       0.047058677   -0.71158651     0.03399913   
   2997000   0.051983607   -0.83434663     0.045488873   -0.71093265     0.075348066  
   2998000   0.05250116    -0.83312761     0.044046905   -0.71037977     0.02111259   
   2999000   0.052768787   -0.83560708     0.044663385   -0.71184158     0.022557135  
   3000000   0.052706268   -0.83504296     0.045408265   -0.7106263      0.030713605  
   3001000   0.053381929   -0.83516191     0.043590472   -0.7115502      0.017141357  
   3002000   0.052535133   -0.83459728     0.043516239   -0.71232918     0.055852383  
   3003000   0.052874464   -0.83554269     0.047540295   -0.70874187    -0.0072272808 
   3004000   0.050914082   -0.83601766     0.046165801   -0.71353001     0.043036621  
   3005000   0.050577702   -0.83429033     0.045225566   -0.71324716     0.048308439  
   3006000   0.052928341   -0.834799       0.044010392   -0.71144732     0.040962853  
   3007000   0.050968388   -0.83525545     0.044636038   -0.71421616     0.023088789  
   3008000   0.051047269   -0.83470699     0.043782114   -0.71440337     0.023517877  
   3009000   0.049322218   -0.83551053     0.045685337   -0.7158896      0.018392607  
   3010000   0.051202895   -0.8362256      0.047172759   -0.71229805     0.030623826  
   3011000   0.052181315   -0.83578919     0.047377309   -0.71019041     0.016579559  
   3012000   0.053890416   -0.83602469     0.047298619   -0.7079426      0.0096126475 
   3013000   0.052804335   -0.83436371     0.046225566   -0.70898274     0.04332918   
   3014000   0.054271169   -0.83467718     0.047559525   -0.70576342     0.031901095  
   3015000   0.051808007   -0.83584483     0.04424332    -0.71393963     0.036014582  
   3016000   0.052351872   -0.83484755     0.044681093   -0.71168932     0.049396817  
   3017000   0.052881533   -0.83516984     0.045914658   -0.70998405     0.070777342  
   3018000   0.05197313    -0.83417679     0.042825784   -0.71344161     0.053681631  
   3019000   0.05142103    -0.83335        0.044578465   -0.71168975     0.046663805  
   3020000   0.053137308   -0.83612386     0.045475612   -0.71099371     0.033121896  
   3021000   0.052698633   -0.83533647     0.044442042   -0.71189747     0.019992541  
   3022000   0.051609658   -0.83459833     0.04540736    -0.71182643     0.017397926  
   3023000   0.050822949   -0.83491472     0.045066053   -0.71366343     0.0086344994 
   3024000   0.053905171   -0.8355104      0.045388302   -0.70931651     0.027276177  
   3025000   0.052590307   -0.8353648      0.043453648   -0.71307658     0.010055437  
   3026000   0.05016611    -0.83454034     0.043326525   -0.7160132      0.017408158  
   3027000   0.051474715   -0.83545897     0.043797337   -0.71449937     0.013736024  
   3028000   0.049291229   -0.83523284     0.044491085   -0.71685261     0.034062623  
   3029000   0.051001641   -0.83581358     0.042105012   -0.71725546     0.038697231  
   3030000   0.048957491   -0.83483921     0.04632405    -0.71512631     0.0475738    
   3031000   0.052051995   -0.83550714     0.045112774   -0.71236675     0.045935924  
   3032000   0.050558965   -0.83659092     0.045373393   -0.71542801     0.05699716   
   3033000   0.054083377   -0.83685155     0.047941363   -0.70783746     0.033881787  
   3034000   0.051965975   -0.83452631     0.047087013   -0.70954062     0.0085011623 
   3035000   0.051175407   -0.83529763     0.043773859   -0.71481019     0.012372465  
   3036000   0.050925633   -0.8350357      0.045352073   -0.71334446     0.013960472  
   3037000   0.050616336   -0.83633078     0.045863531   -0.71459173     0.0077810735 
   3038000   0.051709865   -0.83541391     0.044383585   -0.71351557     0.012966509  
   3039000   0.051571174   -0.83533429     0.043723172   -0.71430426     0.021333005  
   3040000   0.051471542   -0.8359966      0.043591943   -0.71524715     0.038776701  
   3041000   0.051610407   -0.83390159     0.044485024   -0.7120509      0.036707908  
   3042000   0.049996178   -0.83614064     0.045344646   -0.71585011     0.010939569  
   3043000   0.050352524   -0.83503451     0.042366457   -0.71718799     0.023681015  
   3044000   0.051232801   -0.83387131     0.042885462   -0.71418623    -0.0027063762 
   3045000   0.051797307   -0.83555602     0.044245862   -0.71366432     0.028255975  
   3046000   0.051185134   -0.83553869     0.045359345   -0.71345118     0.012403752  
   3047000   0.052134343   -0.83482582     0.044770692   -0.71190406     0.025212986  
   3048000   0.050698776   -0.83345447     0.044795672   -0.7126597      0.012893469  
   3049000   0.05162037    -0.83389177     0.045648118   -0.71086305     0.0098854562 
   3050000   0.051228008   -0.83571197     0.047644639   -0.71127489     0.0011661487 
   3051000   0.052336395   -0.83534456     0.045928171   -0.71096245     0.0059127331 
   3052000   0.052655368   -0.83422399     0.045502607   -0.70978929     0.016442574  
   3053000   0.051842944   -0.83337352     0.044302215   -0.71135706     0.02777177   
   3054000   0.050967001   -0.83563024     0.044311624   -0.71491743     0.050719152  
   3055000   0.05112367    -0.83565973     0.04722216    -0.71180154     0.039276468  
   3056000   0.054171108   -0.83468653     0.045284996   -0.70819729     0.045545693  
   3057000   0.051788737   -0.83243964     0.04600737    -0.70879928     0.032756973  
   3058000   0.051007462   -0.83336934     0.045101796   -0.71180571     0.044121673  
   3059000   0.051974065   -0.83410396     0.045649707   -0.71054345     0.050478587  
   3060000   0.052212867   -0.8324025      0.045150717   -0.70898301     0.035099333  
   3061000   0.0538403     -0.83575713     0.045611015   -0.70943777     0.023738619  
   3062000   0.054314449   -0.83365537     0.044257271   -0.70797898     0.028190632  
   3063000   0.050903919   -0.83292183     0.044057856   -0.71255735     0.055694187  
   3064000   0.052192954   -0.83535654     0.046718679   -0.71039894     0.0037784959 
   3065000   0.051289158   -0.83522104     0.047133972   -0.71120297     0.015286679  
   3066000   0.049473718   -0.83428581     0.045520563   -0.71460255     0.022912094  
   3067000   0.051326904   -0.83453581     0.043682687   -0.71391243     0.030127594  
   3068000   0.0491253     -0.83380047     0.045124813   -0.71503525     0.0035947131 
   3069000   0.051525146   -0.83423318     0.045833567   -0.71116175     0.0089620071 
   3070000   0.050501683   -0.83357258     0.044158302   -0.71371062     0.019420364  
   3071000   0.051628349   -0.83246813     0.044271256   -0.71080432     0.025162619  
   3072000   0.050998916   -0.8349188      0.045512502   -0.71295728     0.024839136  
   3073000   0.051423364   -0.83351566     0.046249203   -0.71018118     0.022487108  
   3074000   0.054585767   -0.8328396      0.046075226   -0.70493855     0.034715581  
   3075000   0.053704001   -0.83369646     0.046854186   -0.70633824     0.0076370692 
   3076000   0.050659651   -0.83267742     0.044131727   -0.71260524     0.025067261  
   3077000   0.050352126   -0.8337666      0.044582754   -0.71370438     0.011059727  
   3078000   0.051345202   -0.83439704     0.044236421   -0.71319251     0.031066141  
   3079000   0.0507045     -0.83402527     0.048021901   -0.70999568     0.036454919  
   3080000   0.051515046   -0.83268545     0.043178865   -0.71228387     0.0015905337 
   3081000   0.050759081   -0.83324046     0.044308602   -0.71284236     0.020483643  
   3082000   0.051771141   -0.8342212      0.044257565   -0.71235702     0.018559956  
   3083000   0.053691966   -0.83252681     0.04663838    -0.70540244     0.026679537  
   3084000   0.051289264   -0.83366634     0.047960234   -0.70882184     0.040674759  
   3085000   0.052694693   -0.83328271     0.04746897    -0.70682269    -0.011668027  
   3086000   0.052107633   -0.83254648     0.044426913   -0.71000855     0.0039401989 
   3087000   0.0509752     -0.83439639     0.048687607   -0.70929531     0.037655843  
   3088000   0.050160574   -0.83276176     0.046317847   -0.7112516      0.023276597  
   3089000   0.051369193   -0.83218926     0.046085726   -0.70909945     0.034546036  
   3090000   0.052975613   -0.83379412     0.04528499    -0.70909697     0.018538     
   3091000   0.049996997   -0.83214274     0.045229679   -0.71196595     0.035875281  
   3092000   0.054719304   -0.83359969     0.045284255   -0.70628943     0.03164379   
   3093000   0.051063481   -0.83447808     0.047898809   -0.71003346     0.016119925  
   3094000   0.050766514   -0.8350785      0.04690432    -0.71207353     0.0043832944 
   3095000   0.050749236   -0.832804       0.04429774    -0.71243151    -0.0025411545 
   3096000   0.049904815   -0.83392879     0.044919966   -0.71419989     0.024023666  
   3097000   0.051106895   -0.83391773     0.046956471   -0.71035038     0.048470182  
   3098000   0.050984803   -0.83457141     0.044117153   -0.7140264      0.023894852  
   3099000   0.051999986   -0.83324542     0.045189786   -0.71010598     0.030487862  
   3100000   0.050131839   -0.83344448     0.046064433   -0.7122308      0.038181585  
   3101000   0.053181185   -0.83309033     0.047744343   -0.70562568     0.018239494  
   3102000   0.051770632   -0.8348769      0.046971319   -0.71029973     0.022382941  
   3103000   0.053728523   -0.83355843     0.047295645   -0.705722       0.0033413302 
   3104000   0.052227496   -0.8321886      0.048764206   -0.7051337      0.030472217  
   3105000   0.05317171    -0.83079973     0.047122908   -0.70397072     0.020354196  
   3106000   0.051902356   -0.83184098     0.047876456   -0.70616122     0.055616329  
   3107000   0.051345124   -0.831887       0.05015581    -0.7047632      0.069454368  
   3108000   0.051999076   -0.831319       0.045590209   -0.7077805      0.023367464  
   3109000   0.050722455   -0.83275024     0.047218231   -0.70949741     0.031681352  
   3110000   0.052689423   -0.83355891     0.046622606   -0.70795316     0.053029302  
   3111000   0.052321939   -0.8310101      0.046140936   -0.70643688     0.031100091  
   3112000   0.052052703   -0.83270577     0.046621954   -0.70805514     0.032053559  
   3113000   0.052385515   -0.83362198     0.047990604   -0.70710379     0.020232765  
   3114000   0.052183043   -0.83235484     0.04710993    -0.70702085     0.044837554  
   3115000   0.052247326   -0.83253585     0.045777894   -0.70843753     0.052468177  
   3116000   0.051376996   -0.83283413     0.045463575   -0.71035479     0.035771596  
   3117000   0.051097534   -0.83264521     0.04731906    -0.70872929     0.034663418  
   3118000   0.053335915   -0.83410888     0.047260495   -0.70689613     0.014226253  
   3119000   0.051861401   -0.83349235     0.047939689   -0.70781075     0.017457573  
   3120000   0.054551951   -0.83220294     0.046324625   -0.70410318     0.02801304   
   3121000   0.051159863   -0.83184383     0.048728806   -0.70642474     0.064666669  
   3122000   0.050418036   -0.83128207     0.044720461   -0.71098335     0.045984981  
   3123000   0.05121373    -0.83393601     0.046050387   -0.71111459     0.058319996  
   3124000   0.052641148   -0.83356345     0.044902739   -0.70974993     0.04008939   
   3125000   0.052101047   -0.83147251     0.045768201   -0.70760316     0.043881429  
   3126000   0.052115502   -0.82985421     0.046695667   -0.70503572     0.043555396  
   3127000   0.051656112   -0.83045474     0.046225084   -0.70679548     0.0058635489 
   3128000   0.051887367   -0.83178008     0.044280971   -0.70971828     0.050894288  
   3129000   0.050680336   -0.83072892     0.046644624   -0.70811283     0.039073383  
   3130000   0.051732563   -0.83241815     0.047068637   -0.70780073     0.070596483  
   3131000   0.052790112   -0.831915       0.044639132   -0.70814178     0.049671856  
   3132000   0.050728881   -0.83131269     0.045998441   -0.70927002     0.072781291  
   3133000   0.052857191   -0.83102501     0.047305774   -0.70448461     0.038260976  
   3134000   0.054256827   -0.8321805      0.04611291    -0.70473486     0.031271176  
   3135000   0.051103726   -0.83177759     0.046705858   -0.7084656      0.063025876  
   3136000   0.052403156   -0.83086804     0.046252613   -0.70606141     0.033952068  
   3137000   0.052382661   -0.83002981     0.046484485   -0.70502202     0.067720978  
   3138000   0.051434026   -0.83025309     0.046544776   -0.70660705     0.057036383  
   3139000   0.052644509   -0.83058687     0.045627075   -0.70604398     0.061431022  
   3140000   0.051872157   -0.83190219     0.045714962   -0.70842919     0.052633964  
   3141000   0.052415605   -0.83069597     0.047224515   -0.70489877     0.056502548  
   3142000   0.053127452   -0.82970277     0.045586425   -0.70447658     0.031181096  
   3143000   0.052842948   -0.83128298     0.046792413   -0.70527729     0.032512322  
   3144000   0.051261224   -0.83025359     0.047471152   -0.70594021     0.04184758   
   3145000   0.053379451   -0.83058278     0.046855795   -0.70370946     0.064608065  
   3146000   0.053140977   -0.83154941     0.046621159   -0.70526822     0.036388931  
   3147000   0.052329839   -0.83085577     0.046100106   -0.70631155     0.030983547  
   3148000   0.049604556   -0.83156631     0.046174317   -0.71103316     0.043982334  
   3149000   0.051333784   -0.83098406     0.046512954   -0.70752011     0.056619684  
   3150000   0.05124752    -0.83096608     0.046437043   -0.70770735     0.055028035  
   3151000   0.053082327   -0.83081513     0.048645657   -0.70259735     0.071570679  
   3152000   0.052441989   -0.83164029     0.045873769   -0.70715429     0.061387413  
   3153000   0.05151118    -0.83097961     0.047744619   -0.70601807     0.025821296  
   3154000   0.05273211    -0.8306476      0.049633222   -0.70196724     0.053774695  
   3155000   0.050959064   -0.82862386     0.046385111   -0.70584947     0.046553026  
   3156000   0.052023996   -0.82821382     0.045450153   -0.70477801     0.030553595  
   3157000   0.053215815   -0.8313858      0.046515706   -0.70509787     0.028594291  
   3158000   0.052112409   -0.83134552     0.046108172   -0.70711916     0.060622525  
   3159000   0.052550451   -0.83135635     0.048281646   -0.70429988     0.058285036  
   3160000   0.053619077   -0.83103291     0.044887654   -0.70576853     0.020254621  
   3161000   0.050097453   -0.829834       0.045835061   -0.70890124     0.053826351  
   3162000   0.05093032    -0.83089579     0.048219664   -0.70632994     0.06789935   
   3163000   0.051301322   -0.83170274     0.045678185   -0.70912222     0.080750116  
   3164000   0.05162768    -0.83044273     0.046259588   -0.70679158     0.048974296  
   3165000   0.052837095   -0.83038689     0.043550191   -0.70763219     0.046970054  
   3166000   0.049082105   -0.83187239     0.048022385   -0.71027435     0.020437355  
   3167000   0.050787896   -0.83060871     0.045185683   -0.70929033     0.062876347  
   3168000   0.051703589   -0.82993708     0.046741213   -0.70569051     0.0300066    
   3169000   0.051676411   -0.83119382     0.04765493    -0.70607428     0.059617162  
   3170000   0.050003775   -0.83133188     0.046603292   -0.70977131     0.039464395  
   3171000   0.051925077   -0.82975767     0.04424276    -0.70767754     0.045359168  
   3172000   0.05195727    -0.82976074     0.047978882   -0.70389624     0.063210416  
   3173000   0.052468604   -0.8300268      0.044864214   -0.70651046     0.054879737  
   3174000   0.05107587    -0.82945615     0.046992991   -0.70589878     0.083661923  
   3175000   0.051347236   -0.83168792     0.049781065   -0.70493569     0.050893683  
   3176000   0.052792417   -0.83114127     0.046494934   -0.7055088      0.049797476  
   3177000   0.049978025   -0.83004286     0.047274605   -0.70784959     0.051384523  
   3178000   0.051666462   -0.83057075     0.049464886   -0.70365617     0.06073698   
   3179000   0.051995586   -0.83047799     0.049165182   -0.70336975     0.025608022  
   3180000   0.050390998   -0.83202604     0.047493248   -0.70899506     0.019606381  
   3181000   0.051590561   -0.82984648     0.048464988   -0.70404557     0.048306628  
   3182000   0.054173969   -0.83147551     0.047598061   -0.70266892     0.023089364  
   3183000   0.051083577   -0.83143123     0.046752825   -0.70810248     0.048007971  
   3184000   0.051512912   -0.83050408     0.047140947   -0.70614361     0.0037676362 
   3185000   0.049996683   -0.83101318     0.04746554    -0.708601       0.047020304  
   3186000   0.05130572    -0.83207111     0.045901575   -0.70926061     0.040937088  
   3187000   0.0514925     -0.82888403     0.044153128   -0.70754199     0.024721222  
   3188000   0.052116666   -0.83041665     0.046063469   -0.70622862     0.026022277  
   3189000   0.051388329   -0.83075354     0.046406605   -0.70731417     0.043979037  
   3190000   0.050777355   -0.83117637     0.045856552   -0.70920293     0.034783707  
   3191000   0.052086133   -0.83393632     0.046733663   -0.70912386     0.037977059  
   3192000   0.051445628   -0.83260562     0.048666869   -0.7068201      0.039137309  
   3193000   0.052183412   -0.83346367     0.049760673   -0.70547837     0.0011075036 
   3194000   0.050190907   -0.8310006      0.048524105   -0.7072387      0.034792233  
   3195000   0.050614907   -0.83030504     0.044566133   -0.70986553     0.057368136  
   3196000   0.052222233   -0.83105542     0.046767607   -0.706005       0.059580167  
   3197000   0.050970407   -0.83163442     0.046624669   -0.70860347     0.04972063   
   3198000   0.051314302   -0.83074524     0.044081284   -0.70974216     0.070338268  
   3199000   0.052263304   -0.83207257     0.043595992   -0.7101322      0.021118925  
   3200000   0.04974868    -0.83161245     0.045395124   -0.71164245     0.018258902  
   3201000   0.05276622    -0.83210031     0.04857274    -0.7044293      0.03914492   
   3202000   0.051039292   -0.83254739     0.045827553   -0.71021029     0.0644507    
   3203000   0.051376646   -0.83292919     0.045251558   -0.71066238     0.044177319  
   3204000   0.049969006   -0.83304338     0.047782022   -0.71035621     0.033297667  
   3205000   0.051709495   -0.83377871     0.046117494   -0.71014701     0.015059521  
   3206000   0.052032256   -0.83285685     0.047173003   -0.70768582     0.043944465  
   3207000   0.050368524   -0.83335671     0.047259912   -0.71059276     0.039635127  
   3208000   0.050731103   -0.83219904     0.045982688   -0.71016879     0.064700699  
   3209000   0.052500092   -0.83229099     0.046122562   -0.70746909     0.0097618091 
   3210000   0.0490423     -0.83248179     0.047329637   -0.71163616     0.029849411  
   3211000   0.050879494   -0.83038102     0.047397022   -0.706714       0.033903192  
   3212000   0.051725406   -0.83108429     0.046614237   -0.706932       0.060765635  
   3213000   0.051824407   -0.82963273     0.046259777   -0.7056865      0.026673546  
   3214000   0.050326581   -0.83028736     0.046518254   -0.70832793     0.069500622  
   3215000   0.051940182   -0.82885798     0.044870243   -0.70612773     0.062017141  
   3216000   0.052239033   -0.82967531     0.047937174   -0.70343014     0.052791251  
   3217000   0.050831855   -0.82965768     0.045366122   -0.70809297     0.051096247  
   3218000   0.05146211    -0.82902891     0.046858441   -0.70502711     0.048315263  
   3219000   0.051728054   -0.83125209     0.048416893   -0.70529318     0.048935586  
   3220000   0.050854522   -0.82986319     0.047000388   -0.70663024     0.055147373  
   3221000   0.052762184   -0.82960085     0.04668416    -0.70382447     0.0702446    
   3222000   0.051560437   -0.82981598     0.047341288   -0.70518393     0.0081136645 
   3223000   0.052579558   -0.83017691     0.047347128   -0.70401132     0.040176928  
   3224000   0.051939549   -0.82859424     0.048077612   -0.70265756     0.046982236  
   3225000   0.051738071   -0.83050777     0.049373017   -0.70357771     0.034711037  
   3226000   0.054702593   -0.82952503     0.046125422   -0.70139866     0.090222271  
   3227000   0.053054232   -0.82860178     0.049768086   -0.69930369     0.036775251  
   3228000   0.051314457   -0.82633943     0.047554242   -0.70186316     0.037367327  
   3229000   0.050740614   -0.82962146     0.045851688   -0.70770796     0.048332404  
   3230000   0.050056073   -0.82870514     0.048126944   -0.70554252     0.044550596  
   3231000   0.051422828   -0.82761009     0.045290268   -0.70523534     0.033828966  
   3232000   0.053594602   -0.82766964     0.048180617   -0.69914899     0.011739389  
   3233000   0.052514482   -0.82766242     0.048469635   -0.70047188     0.011249929  
   3234000   0.051236499   -0.82759936     0.04796051    -0.70283369     0.0080136815 
   3235000   0.050933082   -0.82950513     0.046970282   -0.70618451     0.035827631  
   3236000   0.051596288   -0.82797509     0.046781956   -0.70384863     0.022417707  
   3237000   0.051291693   -0.82932562     0.046104511   -0.7063332      0.028255141  
   3238000   0.052790323   -0.82722873     0.046288157   -0.70180618     0.012328588  
   3239000   0.052771292   -0.8293807      0.047823224   -0.70245161     0.018960429  
   3240000   0.050695418   -0.82847531     0.048922502   -0.70355874     0.026279713  
   3241000   0.051234937   -0.82882125     0.04574835    -0.70627008     0.0094582748 
   3242000   0.050917434   -0.83008666     0.045385925   -0.70837386     0.0037435882 
   3243000   0.052202491   -0.83134325     0.046483852   -0.70660618     0.044266087  
   3244000   0.051298481   -0.82879163     0.049302762   -0.70259079     0.032708188  
   3245000   0.051588195   -0.83090575     0.046353507   -0.70721988     0.0083251051 
   3246000   0.050039171   -0.83057673     0.048535987   -0.70703041     0.024272978  
   3247000   0.05284097    -0.82939548     0.046993432   -0.70319173     0.02031053   
   3248000   0.051684276   -0.82955363     0.049298364   -0.70277887     0.027812039  
   3249000   0.051649319   -0.82874966     0.047145935   -0.70417973     0.026119619  
   3250000   0.051670713   -0.83021503     0.048511598   -0.70424737     0.027784254  
   3251000   0.051669495   -0.82892801     0.048348508   -0.70312526     0.021743484  
   3252000   0.051707158   -0.82995307     0.048525096   -0.70391728     0.035808558  
   3253000   0.052204937   -0.82911055     0.044426692   -0.70642698     0.040626332  
   3254000   0.05252537    -0.83016466     0.048046073   -0.70338136     0.03381769   
   3255000   0.049669949   -0.83046508     0.049186332   -0.7068219      0.036652568  
   3256000   0.051503049   -0.82981579     0.047925395   -0.70468566     0.036508317  
   3257000   0.052672026   -0.83053341     0.047317658   -0.70425869     0.046629113  
   3258000   0.050514201   -0.83013947     0.045171724   -0.70924533     0.051260515  
   3259000   0.05200063    -0.83017896     0.046032458   -0.70619588     0.03924443   
   3260000   0.050564072   -0.83121116     0.045680833   -0.70973315     0.036278708  
   3261000   0.051737682   -0.82956078     0.046550154   -0.70545417     0.01315133   
   3262000   0.051810314   -0.82845049     0.046358317   -0.70442684     0.032693691  
   3263000   0.049741348   -0.8296488      0.047438988   -0.70764593     0.0039608817 
   3264000   0.052017939   -0.82792539     0.045949504   -0.70399931     0.015478776  
   3265000   0.052512092   -0.82972671     0.046598079   -0.70441131     0.038247193  
   3266000   0.051759834   -0.83044827     0.047495411   -0.7053632      0.00018680739
   3267000   0.052158556   -0.82910145     0.045957737   -0.70495635     0.045478665  
   3268000   0.053746635   -0.83032412     0.046095776   -0.70366041     0.033200904  
   3269000   0.051093652   -0.83070228     0.048287875   -0.70582337     0.024523066  
   3270000   0.052065332   -0.83205437     0.047957541   -0.70604921     0.01504279   
   3271000   0.051067546   -0.83146838     0.045869876   -0.70904661     0.014619503  
   3272000   0.050290358   -0.83015759     0.048370836   -0.70639988     0.017073348  
   3273000   0.051825575   -0.82984742     0.044864437   -0.70729477     0.032866671  
   3274000   0.051732009   -0.83154335     0.04669811    -0.70729729     0.048371224  
   3275000   0.053604145   -0.83002893     0.045682736   -0.70399185     0.04401354   
   3276000   0.051235826   -0.83020233     0.046312036   -0.70708614     0.05085242   
   3277000   0.051760809   -0.83222165     0.047757799   -0.70687273     0.068582107  
   3278000   0.050517702   -0.82910141     0.045819274   -0.70755447     0.042899405  
   3279000   0.051591773   -0.8319892      0.047013604   -0.70763786     0.050970126  
   3280000   0.054072714   -0.82973528     0.046880324   -0.70179821     0.029658472  
   3281000   0.053135206   -0.83008426     0.047229673   -0.7032032      0.053307199  
   3282000   0.053735433   -0.83048319     0.046730882   -0.70320116     0.026518044  
   3283000   0.054700065   -0.83052091     0.046803171   -0.70172058     0.044939791  
   3284000   0.053224078   -0.83060943     0.046619173   -0.70420564     0.035886096  
   3285000   0.053044848   -0.83078466     0.045205275   -0.70606344     0.018708318  
   3286000   0.051271777   -0.83061727     0.047791782   -0.70596744     0.032950029  
   3287000   0.049959787   -0.83225539     0.047111768   -0.71025229     0.023008155  
   3288000   0.052210189   -0.83084691     0.043545892   -0.70903626     0.030868166  
   3289000   0.050480173   -0.82994139     0.046688899   -0.70758108     0.020960082  
   3290000   0.051746791   -0.83083601     0.045003768   -0.70826213     0.028886963  
   3291000   0.051919569   -0.83112935     0.047204057   -0.70609618     0.039377185  
   3292000   0.051714518   -0.83183445     0.047380205   -0.70693252     0.039165271  
   3293000   0.049696143   -0.8323476      0.046426669   -0.71142481     0.04743379   
   3294000   0.049529465   -0.83280408     0.045202512   -0.71335531     0.034456721  
   3295000   0.052830529   -0.83253596     0.046276932   -0.70706436     0.0081027572 
   3296000   0.051202433   -0.83154181     0.047997633   -0.70679007     0.040752097  
   3297000   0.052333914   -0.83038373     0.046014257   -0.70591924     0.026104668  
   3298000   0.051799138   -0.82942435     0.046926286   -0.70484949     0.031171886  
   3299000   0.050548999   -0.82973424     0.045268533   -0.70869113     0.033403597  
   3300000   0.052669998   -0.8326713      0.046815098   -0.70690218     0.0048099135 
   3301000   0.052537641   -0.83113922     0.047612252   -0.70477135     0.042709262  
   3302000   0.050355382   -0.82974709     0.047328284   -0.70693446     0.035943474  
   3303000   0.051277308   -0.83060222     0.049020742   -0.70471514     0.026510702  
   3304000   0.049157059   -0.83040669     0.045160994   -0.71155767    -0.00066585537
   3305000   0.049784687   -0.83086054     0.046565445   -0.70966624     0.015597356  
   3306000   0.051024042   -0.83319522     0.046663789   -0.71004475     0.028394699  
   3307000   0.051768461   -0.8307129      0.046279129   -0.70683118     0.024867871  
   3308000   0.051232593   -0.83013287     0.047119002   -0.70621455     0.057746651  
   3309000   0.052175108   -0.83180865     0.048682369   -0.70491411     0.033415565  
   3310000   0.050452272   -0.83002565     0.046402636   -0.70799343     0.0060496737 
   3311000   0.051794498   -0.83126014     0.045467681   -0.70815084     0.030716444  
   3312000   0.051592541   -0.83221322     0.048471463   -0.70640287     0.0058936883 
   3313000   0.049995719   -0.83112783     0.047756538   -0.70842609     0.016393558  
   3314000   0.051453436   -0.83091577     0.045849012   -0.7079364      0.041512436  
   3315000   0.050672913   -0.83196654     0.047913895   -0.70809231     0.041800611  
   3316000   0.052456437   -0.83035014     0.045352902   -0.70636335     0.056404446  
   3317000   0.052002112   -0.83276545     0.046962726   -0.70784988     0.029409462  
   3318000   0.051549229   -0.83098831     0.04726816    -0.70644619     0.029962393  
   3319000   0.051400715   -0.83299025     0.047227868   -0.70871106     0.055601326  
   3320000   0.051545622   -0.83162654     0.04528244    -0.70907555     0.034452066  
   3321000   0.051336597   -0.83162321     0.046936869   -0.70773113     0.035817882  
   3322000   0.050645615   -0.83185868     0.044969908   -0.71096937     0.049972827  
   3323000   0.049195367   -0.83304205     0.048507335   -0.71078927     0.023206612  
   3324000   0.0505422     -0.83192997     0.045843584   -0.710322       0.031422894  
   3325000   0.049445158   -0.83192358     0.047550726   -0.71025296     0.041682446  
   3326000   0.053409375   -0.8298692      0.044457056   -0.70534977     0.049157909  
   3327000   0.050769429   -0.83078475     0.048014703   -0.70666504     0.06785233   
   3328000   0.052169729   -0.83164175     0.04466238    -0.70877527     0.033222024  
   3329000   0.052287346   -0.83330784     0.046832697   -0.70809472     0.032245406  
   3330000   0.052348253   -0.83305075     0.048161693   -0.70641734     0.027938314  
   3331000   0.050660051   -0.83147368     0.045788168   -0.70974446     0.054564148  
   3332000   0.050694953   -0.83328912     0.043722493   -0.71357326     0.071754115  
   3333000   0.051325268   -0.8320969      0.045450834   -0.70970784     0.042594308  
   3334000   0.050551892   -0.83200672     0.045931044   -0.71029676     0.049651876  
   3335000   0.050454056   -0.83204808     0.046689005   -0.70972682     0.042655186  
   3336000   0.052370653   -0.83234805     0.046874073   -0.70696868     0.046580673  
   3337000   0.052550604   -0.83220346     0.046327864   -0.70710055     0.055347533  
   3338000   0.051905508   -0.83278037     0.046547339   -0.708425       0.05154603   
   3339000   0.053631717   -0.8324276      0.048897862   -0.70313407     0.032696939  
   3340000   0.050844047   -0.83334768     0.047091532   -0.71003928     0.034576974  
   3341000   0.052041844   -0.83235344     0.046295083   -0.70804595     0.024148089  
   3342000   0.05224099    -0.8313558      0.0474475     -0.70559737     0.033585139  
   3343000   0.051191454   -0.83214197     0.046025368   -0.70937896     0.04885996   
   3344000   0.052676328   -0.8317764      0.048116858   -0.70469602     0.075280855  
   3345000   0.051594377   -0.83075199     0.047273171   -0.70613719     0.03142195   
   3346000   0.049809864   -0.83089677     0.046595772   -0.70963441     0.051535991  
   3347000   0.051828733   -0.83096973     0.045452385   -0.70782441     0.039044697  
   3348000   0.052078419   -0.83204332     0.046160509   -0.70781558     0.049543747  
   3349000   0.051045266   -0.83195181     0.047946685   -0.70748662    -0.0087748004 
   3350000   0.052770308   -0.83287168     0.046024928   -0.70774236     0.028931657  
   3351000   0.053280785   -0.8326568      0.048528773   -0.70425841    -0.0048133171 
   3352000   0.051563867   -0.83292557     0.049309961   -0.70631971     0.023540245  
   3353000   0.048958604   -0.83007135     0.047017704   -0.70966312     0.035015512  
   3354000   0.052185474   -0.83103862     0.047774566   -0.70503635     0.019768106  
   3355000   0.051265711   -0.83145602     0.046317009   -0.70829006     0.044489541  
   3356000   0.053824129   -0.83148266     0.04848321    -0.70231534     0.020724916  
   3357000   0.052571824   -0.83267063     0.047064664   -0.7067991      0.018316355  
   3358000   0.050999329   -0.83188206     0.045152034   -0.71028039     0.063530123  
   3359000   0.050671958   -0.83155484     0.045307795   -0.71028814     0.018186882  
   3360000   0.048976496   -0.83283483     0.046595446   -0.71282203     0.036260792  
   3361000   0.051419548   -0.83195233     0.047887726   -0.70698504     0.0045156873 
   3362000   0.051340372   -0.83300531     0.046591648   -0.70945279     0.025295622  
   3363000   0.051699884   -0.83089367     0.046203842   -0.70719003     0.039722921  
   3364000   0.049665929   -0.83060635     0.047946793   -0.70820873     0.0050017341 
   3365000   0.052027699   -0.83103769     0.049839117   -0.70320737     0.015666932  
   3366000   0.054129963   -0.83174141     0.046018402   -0.70458045     0.039357194  
   3367000   0.051261929   -0.83027291     0.046836184   -0.70659345     0.026100408  
   3368000   0.05157741    -0.8299816      0.045786399   -0.706879       0.043000605  
   3369000   0.050107215   -0.82954832     0.046008474   -0.70842751     0.049929012  
   3370000   0.052150693   -0.83103737     0.046739677   -0.70612212     0.040604637  
   3371000   0.051555243   -0.83131445     0.045843831   -0.70818765     0.032327042  
   3372000   0.051152311   -0.83201506     0.046749262   -0.70858683     0.031853777  
   3373000   0.05189626    -0.83190441     0.047239697   -0.70687054     0.045875946  
   3374000   0.050119197   -0.83155606     0.044913745   -0.71151202     0.014734469  
   3375000   0.052106065   -0.83038303     0.045587329   -0.70668702    -0.0016209774 
   3376000   0.048698945   -0.83102979     0.047162755   -0.71086575     0.019569979  
   3377000   0.050689075   -0.83110825     0.047846786   -0.70727691     0.035026518  
   3378000   0.051334044   -0.83205673     0.047901562   -0.70720378     0.03997878   
   3379000   0.051979493   -0.83035064     0.04610901    -0.70632269     0.0072647288 
   3380000   0.051841952   -0.83080287     0.046467489   -0.70662263     0.035760216  
   3381000   0.052036423   -0.83246792     0.046069212   -0.70839443     0.050579034  
   3382000   0.05165464    -0.83063185     0.046602633   -0.70659724     0.040075985  
   3383000   0.050392299   -0.8315177      0.047716767   -0.70826125     0.039067085  
   3384000   0.050245441   -0.83197782     0.044141042   -0.71251724     0.024368413  
   3385000   0.051380564   -0.83308499     0.046718691   -0.70934518     0.0086672826 
   3386000   0.053764673   -0.83139707     0.045473204   -0.70532889     0.026600844  
   3387000   0.054346026   -0.83274062     0.047835769   -0.70343841     0.007085014  
   3388000   0.051010528   -0.83123781     0.048360957   -0.70641042     0.011554011  
   3389000   0.051472825   -0.83449888     0.049525102   -0.70781436     0.015449174  
   3390000   0.052808033   -0.83122037     0.04746075    -0.70459867     0.034633162  
   3391000   0.051377446   -0.83055605     0.046871518   -0.70666809     0.023866795  
   3392000   0.051486579   -0.83222171     0.048156458   -0.70688521     0.05676807   
   3393000   0.052311003   -0.83179833     0.048099192   -0.70528326     0.047717361  
   3394000   0.05030731    -0.83162994     0.046592214   -0.70962545     0.040694795  
   3395000   0.05223391    -0.83103041     0.046044917   -0.70668518     0.030769383  
   3396000   0.051998651   -0.83052572     0.047100481   -0.70547758     0.022786496  
   3397000   0.051308319   -0.83075537     0.047692831   -0.70614972     0.033097747  
   3398000   0.050606952   -0.83245777     0.048146979   -0.70844933     0.033428135  
   3399000   0.050771855   -0.83204849     0.047377265   -0.70856257     0.0176441    
   3400000   0.051836393   -0.83210242     0.048303088   -0.7060949      0.03253416   
   3401000   0.052518467   -0.83158894     0.048242728   -0.70461934     0.029196882  
   3402000   0.051429798   -0.83151931     0.047628899   -0.70679548     0.042903456  
   3403000   0.050709338   -0.83279896     0.046442607   -0.71034142     0.049622339  
   3404000   0.049894482   -0.83246989     0.047144746   -0.7105317      0.031629959  
   3405000   0.050804966   -0.83106951     0.046270047   -0.70864118     0.015856231  
   3406000   0.050692805   -0.83211082     0.04622351    -0.70989716     0.027811469  
   3407000   0.051246684   -0.83192724     0.046728211   -0.7083786      0.022958323  
   3408000   0.050222342   -0.83152727     0.046190863   -0.7100515      0.039624003  
   3409000   0.051100346   -0.83052811     0.046674174   -0.70725287     0.03809746   
   3410000   0.050995104   -0.83146207     0.048067408   -0.70695135     0.019565334  
   3411000   0.053493725   -0.83045291     0.047054478   -0.70320962     0.0094541429 
   3412000   0.051844111   -0.83127254     0.049174312   -0.70438223     0.013887859  
   3413000   0.051749639   -0.8304684      0.047741588   -0.70515244     0.025059156  
   3414000   0.051465912   -0.83052641     0.049422605   -0.70395474     0.023641472  
   3415000   0.052557146   -0.83091653     0.048518378   -0.70361329     0.019828962  
   3416000   0.05199589    -0.82969921     0.047411449   -0.70434425     0.029924647  
   3417000   0.052106078   -0.83158178     0.047721448   -0.70575164     0.03114192   
   3418000   0.052911524   -0.83015641     0.047483266   -0.70335706     0.0058459865 
   3419000   0.052947905   -0.83080598     0.048624939   -0.70281042     0.051818701  
   3420000   0.051582776   -0.8322737      0.047815401   -0.70713405     0.029218629  
   3421000   0.052365843   -0.83041917     0.045786133   -0.70613494     0.040835051  
   3422000   0.05180513    -0.83177593     0.045918058   -0.70820032     0.037754973  
   3423000   0.050859359   -0.83005852     0.047236906   -0.70658179     0.030343044  
   3424000   0.052676368   -0.83217009     0.049477998   -0.70372852     0.028233733  
   3425000   0.052264555   -0.82988683     0.046092853   -0.70544772     0.028992913  
   3426000   0.051268127   -0.83232911     0.049747368   -0.70572916     0.011333378  
   3427000   0.052079221   -0.8335517      0.050396175   -0.70508709     0.037126143  
   3428000   0.051024377   -0.83171278     0.046637522   -0.70858807     0.024341389  
   3429000   0.051449281   -0.83252886     0.04756808    -0.70783665     0.030787378  
   3430000   0.052400883   -0.83248008     0.047603436   -0.70632603     0.052801597  
   3431000   0.051870742   -0.83238604     0.049000783   -0.70562934     0.043296793  
   3432000   0.051391299   -0.83168237     0.047509198   -0.70713596     0.049490797  
   3433000   0.049112228   -0.833059       0.047105485   -0.7123327      0.021302638  
   3434000   0.051703835   -0.8322229      0.046000662   -0.70871652     0.025989957  
   3435000   0.050860505   -0.83268338     0.048153878   -0.70828797     0.031645087  
   3436000   0.051125351   -0.83086026     0.047663744   -0.70655796     0.022847827  
   3437000   0.052873672   -0.83174908     0.04880509    -0.70368465     0.045014891  
   3438000   0.052496371   -0.83185389     0.049522344   -0.70363779     0.011032408  
   3439000   0.050534729   -0.83206031     0.046735528   -0.7095716      0.018529036  
   3440000   0.051996422   -0.83147914     0.047954713   -0.70558011     0.029999291  
   3441000   0.052081882   -0.83024788     0.046572356   -0.7056031      0.017074962  
   3442000   0.052061063   -0.83131882     0.048449812   -0.7048278      0.026975325  
   3443000   0.051020955   -0.8308858      0.048176988   -0.70622675     0.038124748  
   3444000   0.050109319   -0.83108142     0.047289984   -0.70867595     0.044419995  
   3445000   0.0511567     -0.83199081     0.048971173   -0.70633409     0.007213989  
   3446000   0.050373839   -0.83104319     0.050311116   -0.70522007     0.013569789  
   3447000   0.050515394   -0.83062335     0.047927395   -0.70697175     0.026875241  
   3448000   0.051256351   -0.8312175      0.048718186   -0.70566439    -0.00070524604
   3449000   0.052966284   -0.83126777     0.047956769   -0.70391284     0.032810529  
   3450000   0.05173478    -0.83154905     0.048638385   -0.70535856     0.013611762  
   3451000   0.051675689   -0.83229812     0.048229866   -0.70660473     0.0044428723 
   3452000   0.051252095   -0.83151062     0.046396462   -0.70828561     0.027770867  
   3453000   0.050328447   -0.83309074     0.045864734   -0.71178204     0.033497586  
   3454000   0.053062103   -0.8319876      0.046481804   -0.705964       0.014264815  
   3455000   0.050783868   -0.83187361     0.049687041   -0.70605991     0.03482659   
   3456000   0.052188209   -0.83296157     0.048562491   -0.70616727     0.017726458  
   3457000   0.05203489    -0.83197419     0.050488739   -0.70348347     0.019784047  
   3458000   0.051750235   -0.83154345     0.049162199   -0.70480598     0.035335393  
   3459000   0.049881951   -0.83135494     0.046968403   -0.70961188     0.024532843  
   3460000   0.051481833   -0.83144871     0.045059104   -0.70921668     0.041847965  
   3461000   0.049028165   -0.83103075     0.046211612   -0.71132434     0.029808229  
   3462000   0.050490985   -0.83417617     0.046890394   -0.71159816     0.0038563547 
   3463000   0.05208262    -0.83073582     0.048533097   -0.7041292      0.051680753  
   3464000   0.050899313   -0.83031317     0.046351438   -0.70766202     0.03589059   
   3465000   0.05079844    -0.83112978     0.047456836   -0.70752444    -0.010345101  
   3466000   0.052517277   -0.83124085     0.048473119   -0.70404263    -0.00010451647
   3467000   0.050014514   -0.83165763     0.047865415   -0.70881884     0.0037057211 
   3468000   0.050176784   -0.83174161     0.045293018   -0.71123197     0.024464462  
   3469000   0.052845021   -0.83227125     0.047109135   -0.70594572     0.01501167   
   3470000   0.052468881   -0.83088023     0.048371256   -0.70385643     0.022045405  
   3471000   0.05287305    -0.82849856     0.046407006   -0.70283314     0.017353807  
   3472000   0.052688787   -0.83236458     0.049384268   -0.70399812     0.034267589  
   3473000   0.053183903   -0.8328082      0.049138219   -0.70394559     0.039692854  
   3474000   0.051222305   -0.83218392     0.046401203   -0.70899883     0.036684833  
   3475000   0.05097719    -0.83268441     0.047256362   -0.70901159     0.0074217858 
   3476000   0.051370808   -0.83083276     0.047877524   -0.70594874     0.047747497  
   3477000   0.051805003   -0.83059338     0.047465165   -0.70547084     0.027946566  
   3478000   0.050385213   -0.83335849     0.048496496   -0.70933294    -0.0038796491 
   3479000   0.052550084   -0.83164083     0.045808046   -0.70705851     0.0037133248 
   3480000   0.051187538   -0.83164805     0.047161817   -0.70775446     0.017847397  
   3481000   0.052238572   -0.83113073     0.045805157   -0.70701827     0.030258132  
   3482000   0.052221223   -0.83356948     0.047161905   -0.70812628     0.0062954997 
   3483000   0.053647685   -0.83119518     0.049858388   -0.70091718     0.01656806   
   3484000   0.04948073    -0.83093952     0.048629079   -0.70813723     0.021940434  
   3485000   0.052496851   -0.83282422     0.048818622   -0.70531112     0.025044769  
   3486000   0.051374874   -0.8319757      0.048218102   -0.70674501     0.04526962   
   3487000   0.051337918   -0.83170553     0.046481005   -0.70826733     0.022424684  
   3488000   0.052056811   -0.83073831     0.046897764   -0.70580571     0.032173869  
   3489000   0.054622118   -0.833121       0.048634844   -0.70260584     0.050793532  
   3490000   0.053098551   -0.83103577     0.048824521   -0.70261481     0.046825165  
   3491000   0.050191842   -0.83089938     0.04657598    -0.70908421     0.039823532  
   3492000   0.051682775   -0.83234012     0.049095871   -0.70577011     0.035877408  
   3493000   0.051794568   -0.83181915     0.045055451   -0.70912197     0.060260681  
   3494000   0.049751198   -0.8316636      0.048817446   -0.7082675      0.036607406  
   3495000   0.049678673   -0.83195422     0.04777419    -0.70971009     0.034343472  
   3496000   0.051789816   -0.8327412      0.049383273   -0.70572332     0.047147787  
   3497000   0.051008956   -0.83138215     0.047769153   -0.70714893     0.022649554  
   3498000   0.050251057   -0.83059014     0.046843697   -0.70841849     0.034344248  
   3499000   0.052581977   -0.83016182     0.04735717    -0.70398257     0.031495299  
   3500000   0.0512291     -0.82959968     0.045320804   -0.7074848      0.038808219  
   3501000   0.051886652   -0.8311821      0.047809483   -0.70559285     0.049802827  
   3502000   0.050607377   -0.8319325      0.047777645   -0.70829277     0.019051156  
   3503000   0.051793395   -0.83197492     0.048666442   -0.70566851     0.017356057  
   3504000   0.053423571   -0.83254709     0.04719787    -0.70526556     0.046274181  
   3505000   0.052063343   -0.83156299     0.046169809   -0.70734855     0.034964614  
   3506000   0.051341904   -0.83308937     0.049661888   -0.70646431    -0.0092841769 
   3507000   0.05182744    -0.83320466     0.047863944   -0.70764972     0.03762128   
   3508000   0.052962274   -0.83085591     0.049068375   -0.70239538     0.042943303  
   3509000   0.051077767   -0.83173844     0.048507359   -0.70666386     0.021462412  
   3510000   0.051509706   -0.83251972     0.04850987    -0.70679513     0.036283833  
   3511000   0.052773444   -0.8320044      0.045437565   -0.70745774     0.053031842  
   3512000   0.052312222   -0.83160438     0.046261744   -0.70692493     0.04275838   
   3513000   0.051392093   -0.83109976     0.045752691   -0.70830867     0.024186281  
   3514000   0.051166178   -0.83173992     0.048961757   -0.70607841     0.06330518   
   3515000   0.052663621   -0.8317308      0.046525657   -0.70626068     0.02114063   
   3516000   0.053972239   -0.83040098     0.047133139   -0.70236171     0.041460082  
   3517000   0.053421452   -0.8291451      0.046338937   -0.70272569     0.06239448   
   3518000   0.050597752   -0.82969386     0.048940934   -0.70490527     0.067449007  
   3519000   0.051190822   -0.83004196     0.047772843   -0.70553242     0.050465501  
   3520000   0.050899119   -0.83052683     0.04741615    -0.70681126     0.050265357  
   3521000   0.05241815    -0.83137012     0.04575441    -0.70703921     0.030986195  
   3522000   0.050918546   -0.83147085     0.047216046   -0.70792626     0.03375498   
   3523000   0.050150605   -0.83154076     0.045377789   -0.7109856      0.055025279  
   3524000   0.052733463   -0.83008082     0.047958564   -0.7030731      0.050835262  
   3525000   0.052499614   -0.83199811     0.047639897   -0.7056596      0.071541845  
   3526000   0.052142538   -0.83098526     0.047610646   -0.70521127     0.056843831  
   3527000   0.051431469   -0.83070623     0.047732521   -0.70587628     0.0026736186 
   3528000   0.053460206   -0.83074346     0.048226712   -0.70237818     0.041243137  
   3529000   0.053506951   -0.82935848     0.04770417    -0.70144567     0.061394975  
   3530000   0.051850894   -0.82916457     0.047037298   -0.70440111     0.010007214  
   3531000   0.052291774   -0.83188324     0.047993686   -0.7055025      0.036509138  
   3532000   0.052452457   -0.83041728     0.045636945   -0.70615241     0.056214395  
   3533000   0.052246806   -0.83055565     0.048938327   -0.70329767     0.039830134  
   3534000   0.052776376   -0.82928418     0.050258178   -0.69991251     0.0092561078 
   3535000   0.053070334   -0.82893276     0.04647318    -0.70290544     0.021102356  
   3536000   0.051757905   -0.83036842     0.046700834   -0.70608082     0.0011511303 
   3537000   0.053046488   -0.83099917     0.048888688   -0.70259208     0.021820407  
   3538000   0.053170355   -0.83084412     0.047286991   -0.70385305     0.011438304  
   3539000   0.052583094   -0.8297715      0.047960708   -0.70298704     0.023732278  
   3540000   0.054103619   -0.82908915     0.046382226   -0.70160386     0.029028196  
   3541000   0.052846801   -0.82948699     0.048260861   -0.70200707     0.0044177599 
   3542000   0.052047306   -0.82872116     0.04776312    -0.70293745     0.0051362884 
   3543000   0.053257391   -0.83061918     0.047110624   -0.70367401     0.039064227  
   3544000   0.050197124   -0.82825256     0.048157724   -0.70484773    -0.0083608342 
   3545000   0.050252903   -0.82899119     0.048198263   -0.7054622      0.002832877  
   3546000   0.050674034   -0.82998108     0.049160402   -0.70485867    -0.024264333  
   3547000   0.052823933   -0.82896328     0.047296462   -0.70248204     0.0061099978 
   3548000   0.050516775   -0.830219       0.048718894   -0.70577383     0.016396236  
   3549000   0.053011326   -0.82957001     0.048027172   -0.70207715     0.027442812  
   3550000   0.051956758   -0.82901308     0.049056525   -0.7020717      0.016005734  
   3551000   0.050565229   -0.82895609     0.047291643   -0.70586554     0.043512214  
   3552000   0.051703058   -0.82951807     0.048868952   -0.70314457     0.035740385  
   3553000   0.052276587   -0.83026652     0.048092685   -0.70380955     0.020210192  
   3554000   0.050759441   -0.82836271     0.048682817   -0.70358985     0.020006905  
   3555000   0.051659823   -0.8301317      0.049562474   -0.70312948     0.037804088  
   3556000   0.052386002   -0.82892761     0.047170873   -0.70322843     0.031703459  
   3557000   0.051896756   -0.82799222     0.04858098    -0.70161633     0.022982799  
   3558000   0.054133732   -0.82823652     0.04830908    -0.69877923     0.011999978  
   3559000   0.050153256   -0.82693035     0.04911391    -0.70263509     0.035757771  
   3560000   0.052769985   -0.82551141     0.048061777   -0.69834573     0.026716354  
   3561000   0.052687964   -0.82847539     0.047984668   -0.70150976     0.012906382  
   3562000   0.051855744   -0.82924443     0.049145433   -0.70236557     0.027876863  
   3563000   0.052004136   -0.82819815     0.049121714   -0.70112056     0.0085304948 
   3564000   0.052363723   -0.82838346     0.046882252   -0.7030063      0.0087018619 
   3565000   0.051015236   -0.83000209     0.048998548   -0.70453006     0.0040114251 
   3566000   0.052651848   -0.82984439     0.047458741   -0.70345883     0.029215614  
   3567000   0.050989848   -0.82848699     0.049132821   -0.70291874     0.037322055  
   3568000   0.050705408   -0.82910255     0.047881529   -0.70521198     0.036239407  
   3569000   0.052385658   -0.83050726     0.048650793   -0.70332868     0.02812755   
   3570000   0.051974826   -0.82989294     0.048880319   -0.70310068     0.0036353708 
   3571000   0.0509346     -0.82946533     0.048804966   -0.70430776     0.027601447  
   3572000   0.053727879   -0.82867439     0.048644294   -0.69949027     0.0035597895 
   3573000   0.049877099   -0.82903047     0.050290255   -0.70397283     0.021494671  
   3574000   0.050789976   -0.82997396     0.047432189   -0.70640596     0.037175284  
   3575000   0.052625687   -0.82858076     0.047955834   -0.70173732     0.023949628  
   3576000   0.051105948   -0.82921143     0.04919555    -0.70340642     0.029521663  
   3577000   0.050822027   -0.83023121     0.048201011   -0.70584634     0.021529182  
   3578000   0.051318456   -0.82863753     0.049288466   -0.70242104     0.038069847  
   3579000   0.051500856   -0.82714493     0.047848379   -0.70209511     0.030539374  
   3580000   0.05264702    -0.82635701     0.046589302   -0.70084813     0.05538516   
   3581000   0.0523867     -0.82824716     0.048329303   -0.70138851     0.050564244  
   3582000   0.052866717   -0.83005485     0.049691031   -0.70111491     0.011097411  
   3583000   0.051554132   -0.82953166     0.049523338   -0.70272701     0.030343656  
   3584000   0.052100257   -0.82886719     0.048026245   -0.70274098     0.031328982  
   3585000   0.050872947   -0.82927152     0.049321138   -0.7036902      0.044379517  
   3586000   0.051498146   -0.8296473      0.050796925   -0.70165299     0.0249216    
   3587000   0.051316797   -0.82919936     0.049147774   -0.70312605     0.027674821  
   3588000   0.051777247   -0.83025852     0.045968739   -0.70667402     0.015529218  
   3589000   0.05185492    -0.82858633     0.048441337   -0.70241279     0.0060976193 
   3590000   0.051830213   -0.8295913      0.04900527    -0.70289087     0.014739531  
   3591000   0.055177165   -0.8290681      0.048240921   -0.69811482    -0.0010228569 
   3592000   0.05418076    -0.82961938     0.049267787   -0.69913289     0.031118233  
   3593000   0.052665913   -0.82886408     0.048051446   -0.70186474     0.02412434   
   3594000   0.052067503   -0.82870926     0.049966726   -0.70069166     0.01237978   
   3595000   0.053419529   -0.82893615     0.046517876   -0.70234068     0.029776469  
   3596000   0.053987111   -0.82755577     0.047569576   -0.69905777     0.056669577  
   3597000   0.053772841   -0.8292363      0.047241585   -0.70138749    -0.0075798037 
   3598000   0.052283181   -0.82943542     0.047432779   -0.70362846     0.01360653   
   3599000   0.053098698   -0.82778615     0.048425298   -0.69976419     0.0087075591 
   3600000   0.052499955   -0.82898701     0.047958998   -0.70232888     0.047714059  
   3601000   0.05075884    -0.82776851     0.049060844   -0.70261852     0.023593746  
   3602000   0.050950926   -0.82729525     0.050121473   -0.7007967      0.031615203  
   3603000   0.05055677    -0.82849392     0.048210532   -0.70449716     0.048101222  
   3604000   0.050838832   -0.82964585     0.048489255   -0.70494754     0.020299402  
   3605000   0.052316182   -0.82931003     0.048990039   -0.70189634     0.043020016  
   3606000   0.050904502   -0.82851661     0.048274736   -0.70393438     0.02019938   
   3607000   0.051380763   -0.82751306     0.048286678   -0.70220496     0.044733987  
   3608000   0.052188883   -0.82833662     0.049267117   -0.70083668     0.018660639  
   3609000   0.053716683   -0.82943006     0.049231362   -0.69967566     0.010700156  
   3610000   0.051443291   -0.8295876      0.048100257   -0.70437219    -0.0074444085 
   3611000   0.051989115   -0.82899598     0.047782361   -0.70328026     0.0026158205 
   3612000   0.051303108   -0.82948097     0.050251636   -0.70232432     0.0077096768 
   3613000   0.051279221   -0.82719749     0.047577753   -0.70275053     0.020858552  
   3614000   0.051153225   -0.82713576     0.046751527   -0.7037039      0.031187178  
   3615000   0.051424834   -0.82731361     0.047083521   -0.70314261     0.019913706  
   3616000   0.051801186   -0.82886158     0.047742792   -0.70346714     0.030997435  
   3617000   0.049500403   -0.82894977     0.048822094   -0.70592498     0.0026208183 
   3618000   0.051680453   -0.82892745     0.047658946   -0.70379783     0.037318374  
   3619000   0.052540639   -0.82833936     0.047005406   -0.70257384    -0.0040705468 
   3620000   0.052851121   -0.8294432      0.048546169   -0.70167149    -0.0092527585 
   3621000   0.048796079   -0.82793235     0.048308146   -0.70647731     0.0058962834 
   3622000   0.052168349   -0.82895319     0.049498389   -0.70125276     0.020199104  
   3623000   0.052895658   -0.8288558      0.048878528   -0.70068497     0.019410626  
   3624000   0.051290236   -0.82951624     0.050659225   -0.7019713      0.013516321  
   3625000   0.051529652   -0.82919771     0.048217824   -0.70373527     0.02318592   
   3626000   0.052128192   -0.82806649     0.048415109   -0.70150954     0.016005145  
   3627000   0.052080312   -0.82935048     0.049822665   -0.70145775     0.013606196  
   3628000   0.050232711   -0.82822136     0.048095901   -0.704825      -0.0021182452 
   3629000   0.052995293   -0.82851606     0.047780316   -0.70129409     0.0311657    
   3630000   0.051289276   -0.82769923     0.047958681   -0.70285627     0.018236454  
   3631000   0.048731294   -0.82686529     0.049259316   -0.70455619     0.030169415  
   3632000   0.051541138   -0.82877167     0.050075484   -0.70143436     0.019591305  
   3633000   0.049511437   -0.82826684     0.048078075   -0.70596952     0.034235054  
   3634000   0.052989615   -0.82847555     0.048805154   -0.70023725     0.025824604  
   3635000   0.050613181   -0.83024787     0.049515908   -0.70486117     0.0036034183 
   3636000   0.051977088   -0.8304444      0.049299372   -0.7032297     -0.0020555636 
   3637000   0.051928268   -0.82941147     0.05178228    -0.69978705     0.02235814   
   3638000   0.05157229    -0.8306604      0.051168676   -0.7021832     -0.0074056522 
   3639000   0.051505097   -0.83066713     0.046067753   -0.70739157     0.017303497  
   3640000   0.052099222   -0.82932184     0.049116613   -0.70210681     0.039057271  
   3641000   0.052642355   -0.82773094     0.049768396   -0.69904996     0.05178191   
   3642000   0.05301969    -0.82940454     0.049625305   -0.70030101     0.041415203  
   3643000   0.051969251   -0.82789713     0.050145065   -0.69984848     0.017735896  
   3644000   0.052640295   -0.82952992     0.04835441    -0.70226601     0.03184462   
   3645000   0.052838948   -0.82866144     0.049830488   -0.69962367     0.05184877   
   3646000   0.050989425   -0.83039754     0.048687208   -0.70527554     0.041508056  
   3647000   0.051196281   -0.82831718     0.04768328    -0.70388902     0.01240622   
   3648000   0.0523499     -0.82643383     0.047529263   -0.70043038     0.038861944  
   3649000   0.051698832   -0.82862465     0.047836135   -0.70329029     0.02321532   
   3650000   0.050502535   -0.8274834      0.049882392   -0.70189608     0.026130742  
   3651000   0.052455492   -0.8297811      0.047912716   -0.70323591     0.025894371  
   3652000   0.052184328   -0.82870701     0.051439517   -0.6990415      0.036458088  
   3653000   0.054207705   -0.82923747     0.048394334   -0.69958404     0.019175407  
   3654000   0.05214449    -0.82899857     0.049795163   -0.70103714     0.0036275308 
   3655000   0.05244903    -0.82847516     0.050087751   -0.69976462     0.028565054  
   3656000   0.051644061   -0.82883494     0.048708146   -0.70271068     0.023649979  
   3657000   0.050052738   -0.82882974     0.049945714   -0.70385335     0.021742621  
   3658000   0.051657784   -0.82813573     0.048387704   -0.70231134     0.046449784  
   3659000   0.051811728   -0.82725714     0.049649714   -0.69993998     0.023141674  
   3660000   0.051790887   -0.8276311      0.048611722   -0.70138317     0.023544853  
   3661000   0.052398794   -0.82993102     0.048223022   -0.70316052     0.042920913  
   3662000   0.049573732   -0.82893999     0.050912156   -0.70371521     0.027577988  
   3663000   0.050447938   -0.82895322     0.050114218   -0.70321591     0.018865229  
   3664000   0.04966502    -0.82834714     0.049380288   -0.70451738     0.018415087  
   3665000   0.051563491   -0.8300055      0.04966287    -0.7030473      0.035671121  
   3666000   0.052106725   -0.82930316     0.047285077   -0.70390842     0.042538466  
   3667000   0.053763747   -0.82698113     0.047120065   -0.69926747     0.05698406   
   3668000   0.051888329   -0.82860891     0.050008933   -0.70081769     0.018670745  
   3669000   0.049791165   -0.82705818     0.048467218   -0.7039524      0.01645592   
   3670000   0.051717651   -0.83093005     0.051375734   -0.70202789     0.010498136  
   3671000   0.050152843   -0.82694814     0.048700565   -0.70306685     0.014113913  
   3672000   0.050406217   -0.82993578     0.048451289   -0.70592394     0.039925739  
   3673000   0.052032906   -0.83140993     0.049600344   -0.70381058     0.019906005  
   3674000   0.051497005   -0.83081529     0.046461815   -0.70715781     0.049762567  
   3675000   0.048914111   -0.82876514     0.048947603   -0.70649371     0.0033936778 
   3676000   0.051097797   -0.82756658     0.048949352   -0.70201998     0.018715434  
   3677000   0.051896596   -0.83007017     0.047748592   -0.70452691     0.046531317  
   3678000   0.05042602    -0.82855275     0.051043807   -0.70191871     0.027465511  
   3679000   0.049879115   -0.82783696     0.049812652   -0.7032539      0.012456512  
   3680000   0.0520241     -0.83054871     0.049693558   -0.70286935     0.051958385  
   3681000   0.050732686   -0.82818871     0.050981802   -0.70115697     0.050061524  
   3682000   0.050732449   -0.82997364     0.04880462    -0.70511944     0.025767381  
   3683000   0.050876755   -0.82841197     0.049497396   -0.70264868     0.051281781  
   3684000   0.051284918   -0.82955006     0.047507538   -0.70516477     0.028733874  
   3685000   0.05277331    -0.82803742     0.047921961   -0.70100657     0.0097298421 
   3686000   0.051166465   -0.830647       0.046836916   -0.7071099      0.023138089  
   3687000   0.050798413   -0.82940073     0.049736898   -0.70351537     0.040849272  
   3688000   0.050146877   -0.82820926     0.047593917   -0.70544355     0.048096258  
   3689000   0.051389156   -0.83036078     0.051324663   -0.70200211     0.029525217  
   3690000   0.050021476   -0.82907022     0.048940642   -0.70514577     0.041812086  
   3691000   0.053008962   -0.83074038     0.048533018   -0.70274522     0.020187324  
   3692000   0.051165957   -0.82828081     0.047058317   -0.70452308     0.038270141  
   3693000   0.053815226   -0.82752555     0.04571645    -0.70113834     0.017445458  
   3694000   0.050956674   -0.83018923     0.049057507   -0.70474603     0.018337153  
   3695000   0.052086553   -0.82784477     0.049724858   -0.70004049     0.0092280281 
   3696000   0.051575507   -0.82912993     0.050287069   -0.70152952     0.045160163  
   3697000   0.051794722   -0.82941305     0.047179952   -0.70459113     0.011648799  
   3698000   0.051089001   -0.8308517      0.046728477   -0.70753916     0.015847463  
   3699000   0.049017518   -0.82903858     0.048144033   -0.70741571     0.011802393  
   3700000   0.049794159   -0.82879187     0.046847066   -0.70730175     0.036059435  
   3701000   0.051057349   -0.8268887      0.048104774   -0.70224731     0.05387313   
   3702000   0.053284801   -0.82876799     0.048024297   -0.70086806     0.0015367492 
   3703000   0.051890554   -0.83050306     0.048510372   -0.70420707     0.0052375869 
   3704000   0.050138668   -0.8290891      0.048243108   -0.70568651     0.048040374  
   3705000   0.049707879   -0.82815982     0.049438561   -0.70420755     0.015852274  
   3706000   0.052847996   -0.82780922     0.046315639   -0.70227273     0.040865944  
   3707000   0.052710201   -0.82849469     0.048589389   -0.70089101     0.052936973  
   3708000   0.052205271   -0.83001294     0.048293021   -0.70346253     0.046738339  
   3709000   0.051125692   -0.83030953     0.050782504   -0.70288796     0.024491713  
   3710000   0.05328247    -0.82960457     0.049290663   -0.70044176     0.0022018796 
   3711000   0.051159147   -0.82902148     0.048906126   -0.70342614     0.016477471  
   3712000   0.053475103   -0.83109634     0.048558053   -0.70237738     0.014375485  
   3713000   0.05047591    -0.82829501     0.047336572   -0.70529342     0.039494     
   3714000   0.052776304   -0.82786465     0.047194448   -0.70155682     0.040480033  
   3715000   0.050789239   -0.8303554      0.049931109   -0.70428958     0.018977501  
   3716000   0.052071302   -0.82975846     0.049722173   -0.70197972     0.034114452  
   3717000   0.053724898   -0.82958003     0.04998464    -0.69906004     0.0086526912 
   3718000   0.052395467   -0.82840436     0.049299689   -0.70056218     0.043301399  
   3719000   0.054297558   -0.82885614     0.048855217   -0.69860713    -0.0095086758 
   3720000   0.05085925    -0.82913214     0.050385998   -0.70250649     0.023847483  
   3721000   0.053333834   -0.83015325     0.048845047   -0.70135907     0.0034208052 
   3722000   0.052962468   -0.83119122     0.047955497   -0.70384328     0.03925775   
   3723000   0.053367981   -0.83039883     0.047216615   -0.70318189     0.065942396  
   3724000   0.050124109   -0.82865704     0.047924228   -0.70559515     0.038494917  
   3725000   0.050351655   -0.82823381     0.050142105   -0.70261295     0.042332214  
   3726000   0.051564955   -0.82998958     0.049008748   -0.70368331     0.016468387  
   3727000   0.051339707   -0.82812592     0.050324295   -0.70084175     0.018731231  
   3728000   0.051213843   -0.82848206     0.046427349   -0.70528351     0.010545312  
   3729000   0.051456468   -0.82986559     0.050137089   -0.7025936      0.033035204  
   3730000   0.052609603   -0.82799993     0.046347818   -0.70278862     0.013995613  
   3731000   0.051995877   -0.82793584     0.047489496   -0.70250285     0.025511627  
   3732000   0.051888444   -0.82832846     0.046708936   -0.70383707     0.01085215   
   3733000   0.051149788   -0.8301161      0.048151061   -0.70528986     0.016151568  
   3734000   0.053676294   -0.83025754     0.048198914   -0.70159613     0.005810946  
   3735000   0.054716501   -0.82934897     0.047894275   -0.69943289     0.023402155  
   3736000   0.052035122   -0.82913425     0.046735224   -0.7043967      0.015923257  
   3737000   0.052853049   -0.83016948     0.049865931   -0.70107512    -0.0011054767 
   3738000   0.052699986   -0.82973803     0.049889191   -0.70084986     0.025535567  
   3739000   0.051649543   -0.8305523      0.051363595   -0.70176437     0.028659874  
   3740000   0.052037878   -0.82991873     0.050463906   -0.70144837     0.026534649  
   3741000   0.050598085   -0.83037767     0.049167302   -0.70536221     0.013165595  
   3742000   0.048867524   -0.82974197     0.04709537    -0.7093926      0.011442183  
   3743000   0.050235414   -0.82861939     0.04770819    -0.7056067      0.007949073  
   3744000   0.049870234   -0.82816152     0.047010408   -0.70639402     0.043689864  
   3745000   0.052779541   -0.82987668     0.048730718   -0.70202773     0.020586546  
   3746000   0.052576946   -0.83061578     0.049887926   -0.70191331     0.014653715  
   3747000   0.051249857   -0.8289811      0.048138046   -0.70401786     0.022050339  
   3748000   0.051426123   -0.83060955     0.048781849   -0.70473829     0.0023545961 
   3749000   0.052348245   -0.82995078     0.050177603   -0.70130147     0.015432832  
   3750000   0.051534013   -0.82968739     0.048084313   -0.70435193     0.0035210704 
   3751000   0.051860561   -0.83033204     0.045214915   -0.70737647    -0.00059601307
   3752000   0.051668946   -0.82874491     0.046344672   -0.70494682     0.019223187  
   3753000   0.050208454   -0.83023395     0.048518305   -0.70645155    -0.00045143223
   3754000   0.050877204   -0.82926851     0.047387876   -0.70561406    -0.00032181403
   3755000   0.051968678   -0.82974215     0.045475788   -0.70636364    -0.0034684472 
   3756000   0.053363378   -0.82744685     0.04719611    -0.70025731     0.027525558  
   3757000   0.053887191   -0.82903786     0.047732981   -0.70052624     0.0091704316 
   3758000   0.051891266   -0.82796402     0.048152472   -0.70202486     0.017664231  
   3759000   0.051263308   -0.82978865     0.04922386    -0.70371943    -0.010496027  
   3760000   0.052299404   -0.82791966     0.048875088   -0.70064608     0.015340557  
   3761000   0.051575358   -0.82775691     0.048093285   -0.7023505      0.02564165   
   3762000   0.052012804   -0.82799167     0.047088937   -0.70293386    -0.00083216308
   3763000   0.051597589   -0.82770148     0.048466378   -0.70188865     0.025954995  
   3764000   0.052251339   -0.82909147     0.047482622   -0.70328241    -0.0064534834 
   3765000   0.052004686   -0.82897395     0.050158185   -0.70085907     0.0067301249 
   3766000   0.051920174   -0.82905492     0.050881496   -0.70034341     0.00015192852
   3767000   0.050708184   -0.82832222     0.048003375   -0.70430564     0.017762076  
   3768000   0.051822169   -0.82912452     0.048731892   -0.70270952     0.01057067   
   3769000   0.051009225   -0.82961291     0.049007935   -0.7041405      0.014524923  
   3770000   0.052590161   -0.83243916     0.04910531    -0.7044995      0.027771561  
   3771000   0.051894938   -0.82930431     0.049602151   -0.70190997     0.0041177298 
   3772000   0.053250176   -0.82983675     0.048579981   -0.70143304     0.01146003   
   3773000   0.051010831   -0.83057225     0.050774779   -0.70333059     0.0019207584 
   3774000   0.051256334   -0.83003236     0.050618732   -0.70257873     0.029461809  
   3775000   0.053030048   -0.82899518     0.048376626   -0.70112481     0.015526337  
   3776000   0.052925256   -0.82777687     0.04990615    -0.69853405     0.022672526  
   3777000   0.053375483   -0.82904422     0.04833332    -0.70069932     0.0031250802 
   3778000   0.051708109   -0.82892688     0.051177569   -0.70023719     0.030979653  
   3779000   0.051464164   -0.82891975     0.048699652   -0.70307366     0.052605637  
   3780000   0.052139094   -0.83030431     0.050536372   -0.70160975    -0.0052736833 
   3781000   0.051424324   -0.82847826     0.048835154   -0.70255638     0.026648667  
   3782000   0.053682385   -0.82958695     0.047712496   -0.70140283     0.020027914  
   3783000   0.050145474   -0.82808852     0.050048468   -0.70287037     0.052934421  
   3784000   0.052080012   -0.82806086     0.049256528   -0.70073471     0.0076807093 
   3785000   0.051035238   -0.82992374     0.05130472    -0.70211555     0.032440447  
   3786000   0.051607449   -0.8285517      0.049817829   -0.70137264     0.0095664293 
   3787000   0.054425182   -0.82738658     0.049384991   -0.69641648     0.018419877  
   3788000   0.05344485    -0.82739251     0.049435771   -0.69784119     0.015386414  
   3789000   0.052041902   -0.82867781     0.051739433   -0.69892588     0.018119293  
   3790000   0.049911654   -0.82622442     0.049339046   -0.70206619     0.016113309  
   3791000   0.050924674   -0.82857303     0.050656231   -0.70157907     0.025890438  
   3792000   0.05192272    -0.8295052      0.05011168    -0.70155969     0.014817828  
   3793000   0.050201015   -0.82898085     0.048377728   -0.70535018     0.028210438  
   3794000   0.050719256   -0.82813644     0.049646847   -0.70245979    -0.0069016528 
   3795000   0.052068257   -0.82999699     0.048227584   -0.70371741     0.054261657  
   3796000   0.052142099   -0.82804813     0.050751987   -0.69913346     0.0096321781 
   3797000   0.051449251   -0.82771454     0.049661148   -0.70092931     0.011613916  
   3798000   0.053699771   -0.83063456     0.051191345   -0.69894553     0.010318559  
   3799000   0.052620517   -0.82891236     0.050337707   -0.6996948      0.029838036  
   3800000   0.051866742   -0.82937338     0.049216112   -0.70240735     0.014298834  
   3801000   0.050760252   -0.83063417     0.049546352   -0.70499656    -0.0078775531 
   3802000   0.051310574   -0.8288606      0.048012757   -0.70393163     0.026841849  
   3803000   0.053777151   -0.82889548     0.047655998   -0.7006258      0.037117863  
   3804000   0.052821797   -0.82920508     0.050231459   -0.69979204     0.013937395  
   3805000   0.052830579   -0.82907489     0.048541255   -0.7013389      0.020906773  
   3806000   0.053677915   -0.82944521     0.048371704   -0.70060858     0.034793601  
   3807000   0.052112608   -0.82917429     0.049518929   -0.70153688     0.01830442   
   3808000   0.054319233   -0.83029024     0.048421321   -0.70044264     0.034894739  
   3809000   0.052235312   -0.8291723      0.049685578   -0.7011843      0.020267326  
   3810000   0.054076842   -0.82903456     0.044700533   -0.7032711      0.0049689699 
   3811000   0.049846884   -0.82830179     0.04874121    -0.7048385      0.010723291  
   3812000   0.050560663   -0.8304607      0.049427307   -0.70524133     0.0095643447 
   3813000   0.051338771   -0.83083241     0.050316959   -0.70355698     0.031852031  
   3814000   0.052893128   -0.8299367      0.050032499   -0.7006157      0.026202384  
   3815000   0.050278259   -0.83031594     0.048785457   -0.70616175     0.028489796  
   3816000   0.051181481   -0.82962142     0.048255996   -0.70464273     0.0096507016 
   3817000   0.052419143   -0.83085679     0.048755737   -0.70352307     0.032052441  
   3818000   0.051262671   -0.8306643      0.050722234   -0.70309767     0.043541006  
   3819000   0.052014726   -0.82979397     0.049349455   -0.70247276    -0.0061430911 
   3820000   0.051520944   -0.83057297     0.048834364   -0.70450705     0.015975987  
   3821000   0.051083953   -0.82754378     0.050835564   -0.70013172     0.024829939  
   3822000   0.051555257   -0.82961572     0.051536785   -0.70079594     0.028479475  
   3823000   0.052010188   -0.82978076     0.048263366   -0.70355244    -0.00057402728
   3824000   0.052048392   -0.82942586     0.048451452   -0.70295219     0.030933437  
   3825000   0.050889978   -0.83049707     0.050188514   -0.70402284     0.0054818827 
   3826000   0.053077031   -0.82940716     0.050847135   -0.69899584     0.020801086  
   3827000   0.051205061   -0.82992469     0.0498516     -0.70331506     0.014119504  
   3828000   0.052343282   -0.83052269     0.050409785   -0.70164863     0.022963822  
   3829000   0.052411714   -0.82956261     0.048671082   -0.70232468     0.016830055  
   3830000   0.0515885     -0.82998284     0.049244049   -0.70340597     0.036634924  
   3831000   0.053329011   -0.82952604     0.049466571   -0.70011756     0.041525776  
   3832000   0.050920129   -0.82866658     0.047653618   -0.70468205     0.032637747  
   3833000   0.051456909   -0.8308613      0.049579318   -0.70414642     0.023063579  
   3834000   0.051341577   -0.83070217     0.048491579   -0.70524791     0.012900475  
   3835000   0.050621636   -0.82973114     0.04952133    -0.70432635     0.014170485  
   3836000   0.052136705   -0.83099269     0.048757133   -0.70408096     0.0065521279 
   3837000   0.052391612   -0.83007069     0.052339945   -0.69919403     0.02115738   
   3838000   0.051759223   -0.82967787     0.047839656   -0.70424947     0.02361608   
   3839000   0.053333715   -0.82983389     0.048635292   -0.70124964     0.0059327867 
   3840000   0.053350747   -0.82913271     0.048062609   -0.70109561     0.0021267573 
   3841000   0.050155298   -0.82911722     0.048566123   -0.70536669     0.015200945  
   3842000   0.050595418   -0.82811576     0.048728287   -0.70354331     0.024063965  
   3843000   0.051959693   -0.8294818      0.049555211   -0.70203733     0.024355798  
   3844000   0.051870632   -0.82954994     0.046319527   -0.70547466     0.041378395  
   3845000   0.050389197   -0.83143446     0.049108061   -0.70679136     0.0078955136 
   3846000   0.052588156   -0.82997904     0.047421808   -0.70372589     0.027605655  
   3847000   0.051947763   -0.8287954      0.049796487   -0.70112754     0.039692415  
   3848000   0.049403123   -0.83073846     0.051341649   -0.70533993    -0.00922104   
   3849000   0.05190551    -0.8297881      0.050045623   -0.70193444     0.0028728227 
   3850000   0.051661236   -0.82744077     0.047120275   -0.70287864     0.016310493  
   3851000   0.053173346   -0.82895972     0.046722083   -0.70252907     0.025763514  
   3852000   0.05123267    -0.82811222     0.051723653   -0.69958914     0.019465465  
   3853000   0.052277071   -0.82624495     0.048848546   -0.69903139     0.020867383  
   3854000   0.053807058   -0.82926135     0.051698851   -0.69690399     0.02003097   
   3855000   0.053082694   -0.8290784      0.048804901   -0.70070083     0.00745025   
   3856000   0.051081417   -0.83099592     0.050415939   -0.70400729     0.013084061  
   3857000   0.052281302   -0.83081504     0.050889931   -0.70155375     0.0030652975 
   3858000   0.050498836   -0.82923374     0.048359595   -0.70517476     0.0011791886 
   3859000   0.051509961   -0.83026979     0.048165155   -0.70488955    -0.0018130758 
   3860000   0.050760899   -0.82672679     0.050103495   -0.70053107     0.017581144  
   3861000   0.051926016   -0.82545829     0.05231829    -0.69530123     0.02667927   
   3862000   0.051380739   -0.8262373      0.050088213   -0.6991277      0.035217163  
   3863000   0.052304415   -0.82866087     0.051013374   -0.69924149     0.023371815  
   3864000   0.052515072   -0.82666076     0.049353977   -0.698585       0.034707824  
   3865000   0.05188398    -0.82588567     0.051927519   -0.69618239     0.030437115  
   3866000   0.052989704   -0.82662011     0.053059699   -0.69412714     0.0075466065 
   3867000   0.05326494    -0.82516932     0.050766141   -0.69455732     0.0038722679 
   3868000   0.052879144   -0.82602227     0.051667813   -0.69508692     0.0074443722 
   3869000   0.054485757   -0.82739594     0.051559289   -0.69416075     0.014611524  
   3870000   0.052263219   -0.8274316      0.051820361   -0.69726699     0.029990746  
   3871000   0.052381242   -0.82898357     0.05382852    -0.69663388     0.023285468  
   3872000   0.052709376   -0.82719607     0.051070018   -0.697113       0.019109311  
   3873000   0.052407375   -0.82704519     0.051180814   -0.69730403     0.028560359  
   3874000   0.052630471   -0.82692197     0.051167612   -0.69685958    -3.3190219e-05
   3875000   0.052902981   -0.82561555     0.049874048   -0.69643822     0.03737552   
   3876000   0.05270552    -0.82592741     0.049102248   -0.69781789     0.0274369    
   3877000   0.052787548   -0.82788458     0.04906773    -0.69968661     0.028972219  
   3878000   0.05201851    -0.82657956     0.052097367   -0.69650477     0.0041237801 
   3879000   0.051496788   -0.82700579     0.0522866     -0.69752384     0.0057420014 
   3880000   0.051005552   -0.82646216     0.051443933   -0.69855926     0.004049196  
   3881000   0.053962667   -0.82695873     0.051332466   -0.69473449     0.023742871  
   3882000   0.053086814   -0.82665279     0.051682965   -0.69539098     0.028169333  
   3883000   0.05038828    -0.82687104     0.051611984   -0.6997254      0.0089780607 
   3884000   0.052750045   -0.82739411     0.052114002   -0.69620609     0.0086055085 
   3885000   0.053494555   -0.82607696     0.049903195   -0.6959837      0.040360286  
   3886000   0.052755142   -0.82584697     0.046685152   -0.70008015     0.01342537   
   3887000   0.050172233   -0.82853142     0.048379497   -0.70494212     0.0081021773 
   3888000   0.051426413   -0.82627947     0.049218277   -0.69997134     0.018351245  
   3889000   0.050488774   -0.82453612     0.050003642   -0.69884818     0.024004359  
   3890000   0.05174815    -0.82599437     0.050202937   -0.69821929    -0.012054894  
   3891000   0.051933256   -0.82836848     0.049232331   -0.70128652     0.00021624167
   3892000   0.05130698    -0.8271017      0.050549939   -0.69964095     0.0077634184 
   3893000   0.050019356   -0.82662769     0.049767664   -0.70187939     0.022993608  
   3894000   0.050748321   -0.82706341     0.049867601   -0.70112244     0.02070945   
   3895000   0.052340323   -0.82536142     0.049677548   -0.69722404     0.0094542229 
   3896000   0.051924741   -0.82751722     0.05034277    -0.69933759     0.0081196228 
   3897000   0.051818517   -0.82716345     0.052153353   -0.69733246     0.01476856   
   3898000   0.052821166   -0.82610606     0.051642525   -0.6952829      0.030799058  
   3899000   0.050669184   -0.82403386     0.049458407   -0.69862071     0.0034723298 
   3900000   0.049555524   -0.82806369     0.053044934   -0.70073343     0.0051831807 
   3901000   0.051775072   -0.82824412     0.049374535   -0.70125708     0.0058511461 
   3902000   0.051583742   -0.8278688      0.047632525   -0.70291058    -0.0030288841 
   3903000   0.053647807   -0.82739805     0.04908303    -0.69789523     0.018437828  
   3904000   0.051954223   -0.82647298     0.050871577   -0.69772034     0.002857924  
   3905000   0.051629457   -0.82776762     0.049621628   -0.70075177     0.026751223  
   3906000   0.05263808    -0.82600764     0.049265176   -0.69783628     0.020347849  
   3907000   0.05133011    -0.82514804     0.048336514   -0.69986604     0.012736181  
   3908000   0.051647455   -0.82677098     0.048779642   -0.70057013     0.0042033445 
   3909000   0.0502098     -0.82661018     0.049835087   -0.70150898     0.011058982  
   3910000   0.050946299   -0.82559927     0.048899307   -0.70032981     0.031805708  
   3911000   0.050886708   -0.82705761     0.049715107   -0.70106169     0.028870236  
   3912000   0.051862845   -0.8265872      0.049436523   -0.6994066      0.0048072187 
   3913000   0.051271104   -0.82617672     0.047559448   -0.70176023     0.0066045053 
   3914000   0.052569711   -0.82674679     0.049388638   -0.69855446     0.014466453  
   3915000   0.053549879   -0.82690807     0.04815583    -0.69847924     0.017584972  
   3916000   0.05373462    -0.82449155     0.046154742   -0.69778688     0.023966861  
   3917000   0.052056598   -0.82653619     0.04924263    -0.69925904    -0.0096930916 
   3918000   0.052204717   -0.82606847     0.04760833    -0.70020359     0.023873931  
   3919000   0.052366262   -0.82642356     0.048957218   -0.69896763    -0.00065944685
   3920000   0.051705398   -0.82674563     0.048991745   -0.70024582     0.0046782547 
   3921000   0.052941838   -0.82844898     0.049434152   -0.6996533      0.0034163276 
   3922000   0.050918444   -0.82696252     0.051620068   -0.69901406     0.0059582968 
   3923000   0.051356737   -0.82663567     0.050973279   -0.69867699     0.011889295  
   3924000   0.052191991   -0.82747073     0.050638684   -0.69859456     0.015464697  
   3925000   0.051807118   -0.82659574     0.048892442   -0.70004276     0.042514892  
   3926000   0.052622481   -0.82626455     0.048196788   -0.69918496     0.039463021  
   3927000   0.050337077   -0.82662567     0.050113408   -0.70105536     0.027932938  
   3928000   0.052128203   -0.82603713     0.050991814   -0.69690346     0.0015821357 
   3929000   0.052935162   -0.82592865     0.050191652   -0.69638549     0.020992358  
   3930000   0.051620617   -0.82687019     0.048174963   -0.70131425     0.0092736508 
   3931000   0.049894501   -0.82853064     0.048722586   -0.70501459     0.029948092  
   3932000   0.050542309   -0.82726463     0.050224189   -0.70127589     0.0046063837 
   3933000   0.050140604   -0.82529759     0.049681597   -0.70045361    -0.0082624714 
   3934000   0.051213764   -0.82595231     0.046967095   -0.70221413     0.00060288275
   3935000   0.049096356   -0.82647395     0.049543862   -0.70333307     0.014295196  
   3936000   0.053489343   -0.82755342     0.046992418   -0.70037876    -0.006135266  
   3937000   0.049591969   -0.82660838     0.048696792   -0.70357162     0.021799246  
   3938000   0.053263932   -0.82729546     0.051013915   -0.69643719     0.017963684  
   3939000   0.05209277    -0.82740718     0.049795969   -0.69952247     0.034166901  
   3940000   0.050746294   -0.82598344     0.049525873   -0.70038723    -0.0075947    
   3941000   0.052989716   -0.82541041     0.049533843   -0.69644327     0.0078189792 
   3942000   0.051331379   -0.82487726     0.047694125   -0.70023574     0.00045445171
   3943000   0.052230212   -0.82655453     0.048474229   -0.69978553    -0.0058747346 
   3944000   0.050186846   -0.82496154     0.04932661    -0.70040322     0.012624611  
   3945000   0.052379292   -0.8271198      0.050859045   -0.69774251     0.009646005  
   3946000   0.051796601   -0.82459289     0.048559295   -0.69838882    -0.0024627277 
   3947000   0.052457679   -0.82576289     0.051251434   -0.6958757      0.0087704104 
   3948000   0.051713771   -0.82675218     0.048914811   -0.70031676     0.0050410263 
   3949000   0.051657472   -0.82770632     0.048985299   -0.70128481     0.012480051  
   3950000   0.051336376   -0.82666171     0.049601297   -0.70010553     0.0034576584 
   3951000   0.05163877    -0.82635651     0.050465828   -0.6984825      0.02297332   
   3952000   0.052679025   -0.82633715     0.047493388   -0.69987621     0.0098101452 
   3953000   0.049732441   -0.82692068     0.048972154   -0.70339799     0.0028788486 
   3954000   0.051364015   -0.82594477     0.050939733   -0.69800872     0.022528633  
   3955000   0.052348336   -0.82617018     0.050450616   -0.69724772     0.025910066  
   3956000   0.051207358   -0.82594894     0.049135313   -0.70005215     0.025913436  
   3957000   0.052256089   -0.82564113     0.048042286   -0.69926528     0.031233314  
   3958000   0.051664065   -0.82510341     0.050482014   -0.6971753      0.018092461  
   3959000   0.050508945   -0.82556373     0.049454561   -0.70039463     0.0057949396 
   3960000   0.051099913   -0.82768637     0.048627245   -0.70245871     0.00061385684
   3961000   0.052002357   -0.82803011     0.051041885   -0.69903501    -0.001074013  
   3962000   0.051904773   -0.82626103     0.050205626   -0.69824848     0.012591931  
   3963000   0.051590081   -0.82625739     0.050680182   -0.69824201    -0.0027806797 
   3964000   0.052104591   -0.82729725     0.048539147   -0.70065164     0.0054838804 
   3965000   0.051484481   -0.82435992     0.048860337   -0.69832268     0.0036078415 
   3966000   0.050731446   -0.82710316     0.048513609   -0.70254148     0.019908699  
   3967000   0.049791766   -0.82502468     0.048636415   -0.7017488     -0.0022452802 
   3968000   0.051925471   -0.82553896     0.048548406   -0.6991526      0.023193063  
   3969000   0.051791085   -0.82361844     0.049199967   -0.69678196     0.033947804  
   3970000   0.053712562   -0.82607109     0.048285583   -0.69726864     0.025285265  
   3971000   0.052185823   -0.82539095     0.049305702   -0.69785702     0.024762768  
   3972000   0.053069515   -0.8257569      0.050907299   -0.69529669    -0.01085797   
   3973000   0.051527501   -0.82742696     0.052507711   -0.69767786    -0.013508809  
   3974000   0.052337379   -0.82592694     0.049655513   -0.69781601     0.024392473  
   3975000   0.05151358    -0.82547525     0.049693746   -0.69856098     0.0044664847 
   3976000   0.052767601   -0.82510911     0.051812851   -0.69419592     0.032941066  
   3977000   0.053445127   -0.82763844     0.050212298   -0.69731017     0.0042286527 
   3978000   0.050514046   -0.82669971     0.052575037   -0.69840249     0.00011394906
   3979000   0.053895174   -0.82612469     0.048845118   -0.69648896     0.032997598  
   3980000   0.053976377   -0.82850264     0.055404834   -0.69218547     0.028396717  
   3981000   0.051742516   -0.82593326     0.049046561   -0.69932299     0.03386627   
   3982000   0.053086328   -0.82774525     0.051121062   -0.69704607     0.029505664  
   3983000   0.052361208   -0.82722011     0.052314315   -0.69641465     0.022008132  
   3984000   0.051572337   -0.82814675     0.05079658    -0.70004157     0.026993965  
   3985000   0.050127553   -0.82788138     0.049191772   -0.70354679     0.023646981  
   3986000   0.050339454   -0.82851087     0.051584302   -0.7014661      0.015570568  
   3987000   0.050807501   -0.82730652     0.052279251   -0.69886519     0.027819723  
   3988000   0.051344827   -0.82713646     0.051512084   -0.69865682     0.011786733  
   3989000   0.052574594   -0.82672713     0.049038554   -0.69887756     0.010385719  
   3990000   0.051679932   -0.82666967     0.049874124   -0.69932566     0.044362586  
   3991000   0.051205773   -0.82665197     0.050849752   -0.69904311     0.0030312827 
   3992000   0.053440153   -0.82806903     0.046994373   -0.70096615     0.017901403  
   3993000   0.052121901   -0.82759837     0.051308579   -0.69815738     0.043774619  
   3994000   0.053432901   -0.82759026     0.050981877   -0.69651074     0.0070591604 
   3995000   0.052712616   -0.82679055     0.05074972    -0.69702292     0.017191504  
   3996000   0.053671084   -0.82832286     0.048007941   -0.69986023     0.0098389674 
   3997000   0.052906146   -0.82615818     0.048069275   -0.69878088     0.039537178  
   3998000   0.053030027   -0.8272822      0.05085234    -0.69693614     0.018625697  
   3999000   0.051966222   -0.82751355     0.05019405    -0.69942045     0.012408311  
   4000000   0.051425548   -0.82757301     0.049812516   -0.70067194     0.035992046  
   4001000   0.050961868   -0.82921676     0.048201133   -0.70462215     0.041338132  
   4002000   0.051822787   -0.82642481     0.047939721   -0.70080106     0.018016001  
   4003000   0.052222577   -0.82698218     0.050385061   -0.69831379     0.0069067285 
   4004000   0.05163788    -0.82812994     0.049974642   -0.70074845    -0.0075560613 
   4005000   0.052350428   -0.82786708     0.048363297   -0.70102881     0.0038867011 
   4006000   0.051772105   -0.8261505      0.049238657   -0.69930379     0.027470202  
   4007000   0.050879947   -0.82660471     0.04817013    -0.7021639      0.012348075  
   4008000   0.052110195   -0.82728566     0.046739189   -0.70243161     0.034369256  
   4009000   0.049192042   -0.82737813     0.050146868   -0.7034908      0.033776477  
   4010000   0.053029874   -0.82696285     0.048629261   -0.6988401      0.014232834  
   4011000   0.054613565   -0.82794726     0.051292057   -0.69478771     0.039615768  
   4012000   0.051811311   -0.8285057      0.049421634   -0.70141724    -0.0048736572 
   4013000   0.050949108   -0.8273466      0.050475882   -0.70049636     0.023286877  
   4014000   0.048500226   -0.82847923     0.049466356   -0.70630947     0.010443486  
   4015000   0.0502051     -0.82792337     0.05012377    -0.70254053     0.023694354  
   4016000   0.050636185   -0.82824969     0.050228923   -0.70211549     0.017180626  
   4017000   0.050979475   -0.82679885     0.051214376   -0.6991646      0.023643824  
   4018000   0.053490656   -0.82542122     0.047686883   -0.69755012     0.032280382  
   4019000   0.052653424   -0.82465222     0.049468013   -0.69625503     0.028057724  
   4020000   0.052174891   -0.82674422     0.049251875   -0.6992805      0.005387325  
   4021000   0.050889844   -0.82914139     0.051409136   -0.70144674     0.0015938689 
   4022000   0.05162576    -0.82714084     0.050091808   -0.69966036     0.015864946  
   4023000   0.051656217   -0.82817984     0.051844494   -0.69890101     0.031768985  
   4024000   0.051851808   -0.82520341     0.047403664   -0.70007221     0.045336058  
   4025000   0.053066863   -0.82578163     0.049739123   -0.69649356     0.024633097  
   4026000   0.051869754   -0.82683443     0.051136626   -0.69794337     0.023150038  
   4027000   0.051718598   -0.82767864     0.04859763    -0.70155316     0.034881926  
   4028000   0.050748204   -0.82648856     0.051163481   -0.69925188     0.011429768  
   4029000   0.050411223   -0.82605791     0.049871525   -0.70061834     0.022145584  
   4030000   0.052304281   -0.82674438     0.050252894   -0.69808568     0.044800975  
   4031000   0.053610377   -0.82792266     0.048896213   -0.69866277     0.042387956  
   4032000   0.052749023   -0.82883826     0.052052767   -0.697713       0.05715794   
   4033000   0.052513181   -0.82691901     0.049731617   -0.69846844     0.051931713  
   4034000   0.052784175   -0.82654237     0.049493688   -0.6979235      0.029913541  
   4035000   0.052850383   -0.82789848     0.049868457   -0.69880559     0.023713617  
   4036000   0.050167375   -0.82746624     0.050729386   -0.70153434     0.036194333  
   4037000   0.052090955   -0.82531528     0.050364409   -0.69686485     0.016490226  
   4038000   0.052801197   -0.82967484     0.048352638   -0.7021715      0.0078663041 
   4039000   0.052549529   -0.82741601     0.051068812   -0.69757376     0.033156754  
   4040000   0.052504429   -0.82828735     0.048990559   -0.70059095     0.031867978  
   4041000   0.052067809   -0.82745338     0.050512951   -0.6988891      0.023568287  
   4042000   0.052590276   -0.82849639     0.050190971   -0.6994709      0.018207839  
   4043000   0.051886226   -0.82907505     0.050183267   -0.70111266     0.025887564  
   4044000   0.051542431   -0.82978386     0.05006015    -0.70245994     0.034325958  
   4045000   0.052874804   -0.82849609     0.05065548    -0.69857957     0.014042661  
   4046000   0.05210509    -0.82890524     0.049222927   -0.7015751      0.033538316  
   4047000   0.050751953   -0.82783339     0.050517876   -0.7012367      0.033742266  
   4048000   0.051500614   -0.82810329     0.05027573    -0.70062648     0.017883669  
   4049000   0.052193161   -0.82843045     0.049324258   -0.70086696     0.024283499  
   4050000   0.051270074   -0.8268367      0.048909733   -0.70107147     0.024956318  
   4051000   0.05073457    -0.82923001     0.051254111   -0.70192314    -0.00062940937
   4052000   0.050741009   -0.82996431     0.052175134   -0.70172676     0.0036501901 
   4053000   0.051552427   -0.82866674     0.052029544   -0.69935845     0.017360044  
   4054000   0.050914349   -0.82735902     0.048646881   -0.70238988     0.043843382  
   4055000   0.053294618   -0.82944036     0.050042985   -0.69950702     0.015818997  
   4056000   0.051890176   -0.83074159     0.050051611   -0.70290493     0.014161094  
   4057000   0.050476929   -0.82815422     0.051204419   -0.70128326     0.037016094  
   4058000   0.052008476   -0.82848943     0.049478562   -0.70104849     0.012435028  
   4059000   0.052168741   -0.82812444     0.05445374    -0.69546808     0.022888355  
   4060000   0.05102877    -0.82988103     0.051190531   -0.70219673     0.029442552  
   4061000   0.053320218   -0.82861582     0.049538072   -0.69914902     0.053558515  
   4062000   0.050034741   -0.82955381     0.049563133   -0.70498699     0.054817542  
   4063000   0.051812251   -0.82915351     0.050481555   -0.70100372     0.030538384  
   4064000   0.051747511   -0.82947716     0.051352735   -0.70055324     0.031744491  
   4065000   0.05301543    -0.82916199     0.053045265   -0.69664489     0.038919429  
   4066000   0.053771011   -0.82936357     0.050988361   -0.69777073     0.023773418  
   4067000   0.05268483    -0.8281361      0.051239058   -0.69792078     0.030740728  
   4068000   0.052173799   -0.82884289     0.049948131   -0.70068455     0.052988586  
   4069000   0.050705199   -0.82711399     0.04964572    -0.70145954     0.022757245  
   4070000   0.052145495   -0.82936786     0.051744484   -0.6994556      0.011527542  
   4071000   0.05230264    -0.82828604     0.048356524   -0.70152617     0.043621716  
   4072000   0.052488552   -0.82986646     0.050071004   -0.70111342     0.04371331   
   4073000   0.050624303   -0.82931556     0.050215859   -0.70321224     0.0033909683 
   4074000   0.051224791   -0.82976381     0.051142534   -0.70183366     0.010235447  
   4075000   0.053283541   -0.82871605     0.050629049   -0.69821325     0.0081078331 
   4076000   0.050257597   -0.82932961     0.047951342   -0.70604051     0.012485082  
   4077000   0.052535444   -0.82817627     0.048617751   -0.7008062      0.018359479  
   4078000   0.050819515   -0.82858789     0.050005463   -0.70240233     0.009526051  
   4079000   0.051787766   -0.82897672     0.048850158   -0.70249503     0.01546077   
   4080000   0.052219063   -0.82784666     0.05010671    -0.69946189    -0.0073828489 
   4081000   0.052610638   -0.8299628      0.04972093    -0.70137682     0.01676505   
   4082000   0.050884378   -0.83009867     0.04875573    -0.70506562     0.03674549   
   4083000   0.05031806    -0.83020325     0.052112965   -0.70266189     0.013599772  
   4084000   0.0520954     -0.83044899     0.048283191   -0.70407312     0.0093845894 
   4085000   0.051391917   -0.82880253     0.048274935   -0.70348945     0.011700239  
   4086000   0.049682901   -0.82889962     0.049478937   -0.70494441     0.043791469  
   4087000   0.051028083   -0.82910717     0.048810052   -0.70380438     0.010822258  
   4088000   0.050551342   -0.82847886     0.049460846   -0.70323992     0.021051643  
   4089000   0.05316403    -0.82725704     0.048981544   -0.6985809      0.035358964  
   4090000   0.052806698   -0.82881245     0.050369869   -0.69928364     0.027227434  
   4091000   0.05129474    -0.82774951     0.052046966   -0.69881007     0.019374781  
   4092000   0.050593725   -0.82863393     0.051165228   -0.70162707     0.02773043   
   4093000   0.05046479    -0.82836253     0.048783435   -0.70393075     0.039220043  
   4094000   0.051283449   -0.8290812      0.051139331   -0.70106632     0.014777146  
   4095000   0.051968005   -0.82836095     0.050273525   -0.70018571     0.032041076  
   4096000   0.050955323   -0.82674824     0.05092261    -0.69944195     0.047996238  
   4097000   0.050856373   -0.82794693     0.050003924   -0.70170766     0.013634265  
   4098000   0.052490482   -0.82930946     0.05214493    -0.69847961     0.031088341  
   4099000   0.053743244   -0.83031505     0.053211759   -0.69654043     0.030405149  
   4100000   0.053373586   -0.82759743     0.050809464   -0.69677924     0.055695821  
   4101000   0.053144678   -0.82813918     0.050646103   -0.69782749     0.074116017  
   4102000   0.051830031   -0.82736043     0.051347766   -0.69831777     0.034058013  
   4103000   0.052231305   -0.83039839     0.050113374   -0.7019886      0.034134048  
   4104000   0.052252938   -0.82789868     0.049010645   -0.7005592      0.01311661   
   4105000   0.051334537   -0.82984225     0.05168904    -0.70120108     0.018842193  
   4106000   0.053214481   -0.82678413     0.050073437   -0.69694047     0.05145263   
   4107000   0.051055643   -0.82874588     0.049430305   -0.70278152     0.04897811   
   4108000   0.051651538   -0.82814141     0.050026158   -0.70068793     0.032027981  
   4109000   0.052961876   -0.82774629     0.049471873   -0.69888286     0.024429307  
   4110000   0.051321103   -0.82599413     0.049778145   -0.69928399     0.0079739064 
   4111000   0.051574442   -0.82384741     0.052134587   -0.69440107     0.021537532  
   4112000   0.05132032    -0.82368863     0.051749887   -0.69500793     0.038978856  
   4113000   0.053304298   -0.82385678     0.051575115   -0.6923768      0.017669195  
   4114000   0.052642996   -0.82320137     0.050309584   -0.69397824     0.035049928  
   4115000   0.053144215   -0.82291551     0.049105241   -0.69414537     0.04867836   
   4116000   0.05326439    -0.82293997     0.051513917   -0.69158101     0.061447907  
   4117000   0.05229266    -0.82248328     0.049977075   -0.69411783     0.039478705  
   4118000   0.049951663   -0.82221686     0.051188162   -0.69614955     0.031371406  
   4119000   0.052189012   -0.82370503     0.048445316   -0.6970267      0.040386954  
   4120000   0.051824947   -0.8215265      0.048752091   -0.69508714     0.02911533   
   4121000   0.053338522   -0.8220662      0.047287478   -0.69482256     0.060249177  
   4122000   0.052367375   -0.82091755     0.050544616   -0.69187255     0.047083261  
   4123000   0.0527262     -0.82265723     0.051536883   -0.69208207     0.028674277  
   4124000   0.051913737   -0.82154871     0.049627453   -0.69410089     0.050497361  
   4125000   0.053009809   -0.82231639     0.049271831   -0.69358114     0.030432584  
   4126000   0.051852504   -0.82551035     0.051554887   -0.69622689    -0.0067004566 
   4127000   0.051973114   -0.82486857     0.051789481   -0.69516971     0.00041877475
   4128000   0.051035474   -0.82287067     0.050468204   -0.69589865     0.006216364  
   4129000   0.052862623   -0.82126796     0.049849018   -0.69217616    -0.010577072  
   4130000   0.053662704   -0.82022081     0.048875618   -0.69090307     0.0062021841 
   4131000   0.053143635   -0.82209459     0.05057466    -0.69185591     0.02557708   
   4132000   0.051270764   -0.82387165     0.050243764   -0.69677136     0.019263151  
   4133000   0.05059879    -0.82403436     0.051038716   -0.69714643     0.027628431  
   4134000   0.050984832   -0.82209626     0.051381501   -0.69428685    -0.0077100277 
   4135000   0.052480666   -0.82257825     0.050294149   -0.69361389     0.028567052  
   4136000   0.053145925   -0.82539785     0.050481503   -0.69524889     0.017363518  
   4137000   0.050435831   -0.82287672     0.050324296   -0.69694749     0.046107002  
   4138000   0.052026173   -0.82496307     0.052211425   -0.69476274     0.0071721812 
   4139000   0.051889183   -0.82411775     0.051871463   -0.69446273     0.026810908  
   4140000   0.054214561   -0.82369779     0.052652106   -0.68977631    -0.0059361097 
   4141000   0.05284814    -0.82434312     0.052206089   -0.69291596    -0.0093680779 
   4142000   0.051869585   -0.82390266     0.049995919   -0.69615256     0.010949143  
   4143000   0.051174695   -0.82492518     0.050232636   -0.69798002     0.010828132  
   4144000   0.051267117   -0.82368847     0.050107265   -0.69673015     0.049330846  
   4145000   0.051179371   -0.82351868     0.050397977   -0.69640118     0.038660054  
   4146000   0.050258809   -0.82331097     0.050634515   -0.69733688     0.048220247  
   4147000   0.05287687    -0.82217014     0.049255708   -0.6936503      0.03890716   
   4148000   0.052654849   -0.82368892     0.049749276   -0.69500833     0.025007356  
   4149000   0.051145832   -0.8236226      0.050531323   -0.69642203     0.035619348  
   4150000   0.051415084   -0.82399889     0.049976813   -0.69694921     0.024012874  
   4151000   0.052825276   -0.82301331     0.049592094   -0.69423442     0.023353699  
   4152000   0.051219282   -0.82491498     0.049459408   -0.69867622    -0.012054523  
   4153000   0.051099601   -0.82589769     0.052249937   -0.6970478      0.026126844  
   4154000   0.051104114   -0.82345153     0.052405914   -0.6944389      0.032975953  
   4155000   0.050641812   -0.82483614     0.052110705   -0.69681173     0.034832895  
   4156000   0.051279742   -0.82347276     0.05044327    -0.69615951     0.032846829  
   4157000   0.052435388   -0.82384242     0.050230876   -0.69500921     0.023655777  
   4158000   0.05220824    -0.82300205     0.05117417    -0.69356604     0.027866076  
   4159000   0.052929047   -0.82337675     0.053711208   -0.69032319     0.01561282   
   4160000   0.04918813    -0.8232159      0.05098703    -0.69849427     0.04802893   
   4161000   0.050472481   -0.82300868     0.050056442   -0.69729236     0.041363226  
   4162000   0.050449299   -0.82348533     0.049968541   -0.69789166     0.039471807  
   4163000   0.050014      -0.8231017      0.049067944   -0.69906116     0.023271563  
   4164000   0.050926524   -0.82464214     0.049547689   -0.69875395     0.024816364  
   4165000   0.049464455   -0.8255367      0.049072605   -0.70231528     0.042805426  
   4166000   0.05268868    -0.82310981     0.049700057   -0.69442772     0.020469199  
   4167000   0.051299622   -0.82236967     0.050579205   -0.69489068     0.045142717  
   4168000   0.052262176   -0.82455627     0.051325066   -0.69488852     0.022704431  
   4169000   0.05212747    -0.82492539     0.054082829   -0.6927018      0.021330204  
   4170000   0.052790055   -0.82412519     0.051922579   -0.69306862     0.0087366717 
   4171000   0.051930366   -0.82300366     0.052875082   -0.69228329     0.0080507472 
   4172000   0.053754743   -0.82451111     0.050507276   -0.69342374     0.033937971  
   4173000   0.055129279   -0.82278218     0.050847755   -0.68929385     0.040088215  
   4174000   0.055229913   -0.8240573      0.051544668   -0.68972121     0.02504834   
   4175000   0.05298311    -0.82299396     0.053368187   -0.69020238     0.011890681  
   4176000   0.051770447   -0.82297749     0.053045891   -0.69232603     0.021720437  
   4177000   0.051564498   -0.823213       0.049987715   -0.69592844     0.036753368  
   4178000   0.050792915   -0.82209672     0.049058753   -0.69689775     0.0039588806 
   4179000   0.051609593   -0.8231641      0.051544855   -0.6942548      0.038170767  
   4180000   0.051556459   -0.82216879     0.048106923   -0.69677707     0.044952952  
   4181000   0.051690776   -0.8222757      0.049357432   -0.69543213     0.064395801  
   4182000   0.05140745    -0.82147418     0.048992337   -0.69542041     0.026961934  
   4183000   0.052030262   -0.82197815     0.050583292   -0.69339982     0.058537435  
   4184000   0.051307786   -0.82067334     0.048796208   -0.6949651      0.038467088  
   4185000   0.054024334   -0.82100884     0.048982123   -0.6910425      0.039008005  
   4186000   0.052966702   -0.82195391     0.050859687   -0.69169543     0.012137386  
   4187000   0.050410899   -0.82299635     0.048101429   -0.69932736     0.014492332  
   4188000   0.051180359   -0.82235001     0.049707656   -0.69592135     0.053871851  
   4189000   0.053082657   -0.82193021     0.048991711   -0.69336588     0.054693544  
   4190000   0.051551394   -0.82213963     0.052533623   -0.6923288      0.0393274    
   4191000   0.052087522   -0.82399559     0.051926534   -0.69398818     0.032069565  
   4192000   0.051497735   -0.82266756     0.050317351   -0.69515344     0.014731299  
   4193000   0.052154053   -0.82198889     0.049822189   -0.69398609     0.0091761607 
   4194000   0.052044141   -0.82226415     0.053849002   -0.69039931     0.021315818  
   4195000   0.050595414   -0.82321054     0.052279194   -0.69508719     0.025610424  
   4196000   0.050247849   -0.82183572     0.050989606   -0.69552296     0.031214926  
   4197000   0.05173413    -0.82196515     0.04881207    -0.69560195     0.023667678  
   4198000   0.051586168   -0.82296416     0.050083828   -0.69555101     0.042072595  
   4199000   0.051269907   -0.82351385     0.049922918   -0.69673569     0.059032795  
   4200000   0.050606191   -0.82438402     0.048585894   -0.69993781     0.0777862    
   4201000   0.051751735   -0.82381043     0.05034521    -0.6958877      0.063893676  
   4202000   0.053762876   -0.82294392     0.047031333   -0.6953203      0.064598137  
   4203000   0.051848377   -0.82228476     0.050020584   -0.69454178     0.028228243  
   4204000   0.05143707    -0.82086648     0.050161129   -0.69359953     0.06044003   
   4205000   0.052071671   -0.82177103     0.048383845   -0.69533007     0.065060124  
   4206000   0.051833255   -0.82248741     0.04750176    -0.69728593     0.023260814  
   4207000   0.052199628   -0.82302469     0.053331787   -0.69144397     0.021211037  
   4208000   0.053012632   -0.82245626     0.053378801   -0.68960982     0.0072084493 
   4209000   0.053655542   -0.82221459     0.049703701   -0.69207951     0.037646053  
   4210000   0.052610685   -0.82209408     0.04988353    -0.69334544     0.03372706   
   4211000   0.052396944   -0.82311064     0.051147063   -0.69341887     0.0095978411 
   4212000   0.051560426   -0.82194869     0.050210416   -0.69444753     0.015565514  
   4213000   0.051290483   -0.82017133     0.049556622   -0.69372862     0.027373575  
   4214000   0.050155032   -0.82362889     0.051339586   -0.6971053      0.014829582  
   4215000   0.051382315   -0.82172008     0.049029986   -0.69566635     0.011578837  
   4216000   0.052562241   -0.82271314     0.050529862   -0.69339078     0.016813376  
   4217000   0.050750645   -0.8214219      0.051775789   -0.69356925     0.010303889  
   4218000   0.052768611   -0.82414832     0.051229899   -0.69381657     0.022653925  
   4219000   0.052242357   -0.82416589     0.050477952   -0.69537496    -0.0036873914 
   4220000   0.053188418   -0.8252957      0.048608871   -0.69695567     0.036401441  
   4221000   0.05381498    -0.82478354     0.050090515   -0.69402264     0.023360176  
   4222000   0.051476647   -0.82328755     0.05110369    -0.6950187      0.025476146  
   4223000   0.051357797   -0.82185429     0.050298938   -0.69456836     0.031255671  
   4224000   0.050100251   -0.82468532     0.051846611   -0.69773682     0.029575109  
   4225000   0.052288725   -0.82321196     0.050494225   -0.69433525     0.026213644  
   4226000   0.051587482   -0.82319044     0.050372188   -0.69548695     0.0032122142 
   4227000   0.051608687   -0.82328978     0.049383588   -0.6965431      0.055682111  
   4228000   0.050606575   -0.82299049     0.051490003   -0.69563959     0.026329689  
   4229000   0.05046957    -0.82302713     0.048675304   -0.69869631     0.059327616  
   4230000   0.052174491   -0.82529632     0.05196359    -0.69512148     0.053544199  
   4231000   0.052907279   -0.82410368     0.051770118   -0.69302385     0.020083607  
   4232000   0.053457833   -0.82348385     0.049228867   -0.69411997     0.027195541  
   4233000   0.050833701   -0.82462098     0.049810402   -0.69860922     0.035748134  
   4234000   0.050962415   -0.82465536     0.052489462   -0.69577159     0.017165648  
   4235000   0.049451622   -0.82354392     0.05162519    -0.69778915     0.017519721  
   4236000   0.053157704   -0.8247793      0.04974705    -0.69534714     0.010950483  
   4237000   0.051728267   -0.82561608     0.051032488   -0.69704125     0.033941692  
   4238000   0.052658499   -0.82569547     0.049619127   -0.69713955     0.019923842  
   4239000   0.052946312   -0.82424593     0.051753417   -0.69312429     0.040402861  
   4240000   0.052738011   -0.82304337     0.048860741   -0.69512665     0.01975355   
   4241000   0.051510045   -0.82201857     0.047836953   -0.6969664      0.031502833  
   4242000   0.052821129   -0.8240807      0.050676982   -0.69422314     0.037069014  
   4243000   0.050169738   -0.82135088     0.050341334   -0.69580349     0.04675687   
   4244000   0.05213639    -0.82358621     0.050235458   -0.69519662     0.0074021899 
   4245000   0.051313763   -0.82613384     0.054620959   -0.69459189     0.026882002  
   4246000   0.052435429   -0.82373915     0.052574759   -0.69256199     0.026826974  
   4247000   0.050731473   -0.82194465     0.049889994   -0.69600654    -0.013049165  
   4248000   0.052027425   -0.82228858     0.049681107   -0.69461669     0.028578705  
   4249000   0.051528394   -0.82079826     0.049249607   -0.69430593     0.03072956   
   4250000   0.053457055   -0.82354179     0.05182015    -0.69158779     0.025104672  
   4251000   0.051178248   -0.82308713     0.050653438   -0.69571584     0.033017131  
   4252000   0.052818043   -0.82354021     0.050329602   -0.69403466     0.0189178    
   4253000   0.050995244   -0.82292273     0.051352738   -0.69512647     0.042003078  
   4254000   0.052761032   -0.82155486     0.048586015   -0.69387835     0.0078511972 
   4255000   0.051306863   -0.82144537     0.051308129   -0.69322659     0.026017284  
   4256000   0.051758687   -0.82328577     0.052093507   -0.69360432     0.0060268008 
   4257000   0.05121677    -0.82529345     0.051579592   -0.69693827     0.011113137  
   4258000   0.052897716   -0.82257068     0.050717146   -0.69255816     0.021211816  
   4259000   0.051201056   -0.82333301     0.051609272   -0.69497171     0.010236059  
   4260000   0.053558561   -0.8238737      0.051161531   -0.69242616     0.010491593  
   4261000   0.054998543   -0.82409797     0.050940949   -0.69071243     0.012077395  
   4262000   0.051294918   -0.82360423     0.051342732   -0.69536876    -0.007509601  
   4263000   0.052475406   -0.82220926     0.052166478   -0.69138045     0.014772624  
   4264000   0.051406142   -0.82322769     0.052914823   -0.69325341     0.0076728845 
   4265000   0.051650819   -0.82351261     0.049337442   -0.69674892     0.008903898  
   4266000   0.05171367    -0.82413447     0.051562323   -0.69505169    -0.00046935336
   4267000   0.051790793   -0.82431001     0.049490636   -0.69718331     0.011337668  
   4268000   0.052067829   -0.82250602     0.050215863   -0.6942388      0.0024382026 
   4269000   0.050736598   -0.82212436     0.050564784   -0.69550378     0.0036827855 
   4270000   0.05045645    -0.82420961     0.050758019   -0.69781575    -0.0080669217 
   4271000   0.051562316   -0.82355602     0.050344152   -0.69591829     0.028807715  
   4272000   0.050541373   -0.82397068     0.050062505   -0.69814503     0.017001829  
   4273000   0.052094946   -0.82401999     0.050784978   -0.695143       0.029706965  
   4274000   0.052283064   -0.82228948     0.051137883   -0.6927776      0.0037197655 
   4275000   0.051301103   -0.82273139     0.051213988   -0.69461539     0.034617404  
   4276000   0.0507922     -0.82361591     0.050590131   -0.69688664     0.014560934  
   4277000   0.052926844   -0.8214835      0.048864561   -0.69327989     0.024129732  
   4278000   0.050942763   -0.82426572     0.05327589    -0.69462498     0.00626796   
   4279000   0.052598423   -0.82408239     0.050495407   -0.69474025    -0.0012044837 
   4280000   0.051572319   -0.8239306      0.05198951    -0.69463252    -0.010333341  
   4281000   0.051889891   -0.82370513     0.0506392     -0.69528131    -0.010161332  
   4282000   0.050789198   -0.82413089     0.047839772   -0.70015647     0.002797993  
   4283000   0.050645573   -0.82115431     0.050527259   -0.6947077      0.0092419878 
   4284000   0.051068517   -0.82279125     0.050145251   -0.69609265    -0.0084323333 
   4285000   0.049720798   -0.82321669     0.050007121   -0.69867649    -0.0089813374 
   4286000   0.051339262   -0.82407862     0.051275398   -0.69584401     0.010571256  
   4287000   0.052886299   -0.82305835     0.047713419   -0.69606666     0.0083683342 
   4288000   0.053261885   -0.82310758     0.050779965   -0.69248633    -0.0049059743 
   4289000   0.052592158   -0.82274143     0.050559856   -0.69334423     0.010100686  
   4290000   0.052350442   -0.82372554     0.049411972   -0.69583857     0.015270722  
   4291000   0.052824981   -0.82286506     0.050662963   -0.69301575     0.0068952202 
   4292000   0.054821494   -0.82033467     0.051347784   -0.6868077     -0.0029172325 
   4293000   0.052138364   -0.82166162     0.048521385   -0.69498314     0.029741535  
   4294000   0.052283199   -0.82378093     0.049594193   -0.69581253     0.028259279  
   4295000   0.052035311   -0.82185059     0.050284123   -0.69356386     0.012868422  
   4296000   0.051374511   -0.82399081     0.051398015   -0.69558075     0.017099331  
   4297000   0.051479079   -0.82235052     0.051690657   -0.69349107     0.0070212289 
   4298000   0.052454186   -0.82282206     0.053367707   -0.69082384     0.0077367908 
   4299000   0.052322733   -0.82336624     0.049976258   -0.69495652     0.0061952149 
   4300000   0.051706572   -0.82461259     0.0504776     -0.69662518     0.0036156951 
   4301000   0.050286584   -0.82067432     0.050275038   -0.69501807     0.011853073  
   4302000   0.052082336   -0.82234024     0.050571549   -0.69369559     0.0095347153 
   4303000   0.051696696   -0.82479145     0.050529527   -0.69676691     0.0098027728 
   4304000   0.051221235   -0.82374475     0.051759414   -0.69520305     0.0069560239 
   4305000   0.053082703   -0.82258452     0.05145421    -0.69155763    -0.0065602584 
   4306000   0.052010833   -0.823916       0.052790403   -0.69315968     0.0077335132 
   4307000   0.05066335    -0.82311034     0.052536741   -0.69462761     0.01486535   
   4308000   0.054044324   -0.82160957     0.05415477    -0.68644062     0.0081708021 
   4309000   0.0528832     -0.82157023     0.050959514   -0.6913371      0.013569581  
   4310000   0.050407567   -0.82217576     0.050969382   -0.69564381     0.0094615172 
   4311000   0.048851006   -0.82445404     0.05227509    -0.69894971     0.016827665  
   4312000   0.051788433   -0.82507509     0.051073273   -0.69636928     0.012973667  
   4313000   0.051284129   -0.82236206     0.050189133   -0.69529637     0.039181273  
   4314000   0.052041044   -0.82449602     0.049384491   -0.69710033    -0.0040377933 
   4315000   0.052044531   -0.8227124      0.050767844   -0.69392812    -0.012724669  
   4316000   0.053151602   -0.82324905     0.049887783   -0.6936853      0.017024484  
   4317000   0.051545319   -0.8207872      0.050950377   -0.69256873    -0.0039747404 
   4318000   0.051442798   -0.82115495     0.052519724   -0.69152082    -0.0014247978 
   4319000   0.054768766   -0.82052954     0.048725603   -0.68970379    -0.0030150608 
   4320000   0.051298176   -0.81793873     0.047844152   -0.69319696     0.01199645   
   4321000   0.053447666   -0.82277819     0.049482449   -0.69317597     0.0064152555 
   4322000   0.052436549   -0.82098793     0.049954539   -0.69242932     0.030115801  
   4323000   0.052745793   -0.81909188     0.050515222   -0.68950902     0.028161101  
   4324000   0.052899986   -0.81884141     0.049992756   -0.68954987     0.035040294  
   4325000   0.052725093   -0.82134139     0.048919118   -0.69338566    -0.0060718777 
   4326000   0.052641748   -0.81955341     0.050048109   -0.69059362     0.017676587  
   4327000   0.050825542   -0.82048456     0.049151864   -0.69514357    -0.0051058498 
   4328000   0.051404717   -0.82231419     0.049489938   -0.69576693    -0.015606602  
   4329000   0.050817536   -0.8204239      0.050858075   -0.6933887      0.0032267557 
   4330000   0.051357279   -0.81924063     0.049458933   -0.69279547    -0.0013928499 
   4331000   0.052636672   -0.82007356     0.048857293   -0.6923122      0.011752642  
   4332000   0.051468049   -0.82209675     0.051804137   -0.69314034    -0.01345408   
   4333000   0.052475044   -0.81988598     0.049802152   -0.69142205    -0.00016016148
   4334000   0.05121332    -0.81938976     0.048834883   -0.69378446     0.018955646  
   4335000   0.050719438   -0.81905073     0.047961595   -0.69505906     0.013104713  
   4336000   0.052735693   -0.81976801     0.049511403   -0.6912041      0.01883819   
   4337000   0.051421161   -0.82010228     0.049597054   -0.69342325    -0.0089979524 
   4338000   0.05037833    -0.82041105     0.050525766   -0.69436654     0.0090643467 
   4339000   0.050792922   -0.8189825      0.050469681   -0.69237259     0.033102307  
   4340000   0.052323053   -0.82062873     0.050752572   -0.69144222     0.021982017  
   4341000   0.051962353   -0.82027754     0.050423009   -0.69196129    -0.012954326  
   4342000   0.053591443   -0.8199647      0.048885141   -0.69074426     0.011961095  
   4343000   0.052299565   -0.82024861     0.048601704   -0.69324817     0.018598384  
   4344000   0.05290455    -0.81836382     0.047715842   -0.69134235     0.012762984  
   4345000   0.053230185   -0.82066723     0.051006704   -0.68986676     0.0034209566 
   4346000   0.054293352   -0.82117311     0.049493598   -0.69029202     0.023041918  
   4347000   0.053664662   -0.82113099     0.048478519   -0.69220741     0.0051785134 
   4348000   0.052430448   -0.82082563     0.050064958   -0.69216574     0.0010330084 
   4349000   0.051301604   -0.8197425      0.048470534   -0.69436921     0.025534806  
   4350000   0.051450846   -0.82176805     0.048708792   -0.69593278     0.012673747  
   4351000   0.053755538   -0.82057521     0.047650707   -0.69234322     0.026098042  
   4352000   0.051619008   -0.82152351     0.050506349   -0.69363861    -0.0044784429 
   4353000   0.052121199   -0.8215923      0.048896461   -0.69456448     0.016992191  
   4354000   0.05185212    -0.82041435     0.049544574   -0.69314177     0.0014467892 
   4355000   0.052382965   -0.82285085     0.049249873   -0.69507722     0.0091933982 
   4356000   0.050472815   -0.81998063     0.050949447   -0.6933708     -0.0075301923 
   4357000   0.052560965   -0.82203634     0.051680757   -0.691565       0.014203615  
   4358000   0.051351952   -0.8215431      0.050632361   -0.69393251     0.004588678  
   4359000   0.051253871   -0.8193926      0.048722021   -0.69383937     0.018381528  
   4360000   0.051715542   -0.81987819     0.050729662   -0.69162527     0.015881315  
   4361000   0.052094916   -0.82218005     0.048564772   -0.69552332    -0.0008524107 
   4362000   0.050802491   -0.81858566     0.049783575   -0.69264752     0.03544976   
   4363000   0.050348219   -0.82053596     0.049887654   -0.6951747      0.010148059  
   4364000   0.051502445   -0.82041085     0.051274425   -0.6919326      0.014859357  
   4365000   0.052307637   -0.81980463     0.0482282     -0.69316559     0.024043088  
   4366000   0.051439622   -0.82120322     0.050533409   -0.69356016     0.01483367   
   4367000   0.051779455   -0.82123725     0.052850651   -0.69076752     0.031602171  
   4368000   0.051486893   -0.81989895     0.049202599   -0.69351584    -0.0026237946 
   4369000   0.052335933   -0.82146007     0.050204081   -0.69280274     0.011724233  
   4370000   0.051811854   -0.82131352     0.051246923   -0.69239895     0.022268537  
   4371000   0.052590079   -0.8231471      0.051999142   -0.69231373     0.01572796   
   4372000   0.052462974   -0.82176851     0.049100108   -0.69402471     0.0081914173 
   4373000   0.053930384   -0.82148047     0.050185381   -0.69045171     0.028959404  
   4374000   0.053466236   -0.81970169     0.049686849   -0.68986723     0.0090253008 
   4375000   0.051620346   -0.82062804     0.050211712   -0.69303577     0.021290928  
   4376000   0.051601466   -0.82085482     0.049859878   -0.69364268     0.02575082   
   4377000   0.051311629   -0.82156964     0.050389798   -0.69426205     0.033871698  
   4378000   0.053323394   -0.82140469     0.047743553   -0.69372765    -0.0024077367 
   4379000   0.054176123   -0.82197041     0.049103356   -0.6916553      0.019732098  
   4380000   0.051700894   -0.82164348     0.049849132   -0.69429304    -0.01143099   
   4381000   0.052939115   -0.81999656     0.050475007   -0.69016411     0.013022899  
   4382000   0.049065505   -0.82176881     0.049184504   -0.69903353    -0.012310491  
   4383000   0.050686542   -0.82194962     0.049654046   -0.69631481    -0.0054006026 
   4384000   0.051666164   -0.82143738     0.050051085   -0.69393704    -0.0007128955 
   4385000   0.05105635    -0.82122332     0.048662917   -0.69602529     0.013884274  
   4386000   0.05126294    -0.82134995     0.048771664   -0.69573349     0.03114352   
   4387000   0.050668165   -0.82092076     0.048362469   -0.69660508     0.012576957  
   4388000   0.051733465   -0.82102294     0.048403853   -0.69506896     0.0049824884 
   4389000   0.052504393   -0.81994078     0.047659141   -0.69357586     0.0029497618 
   4390000   0.05460959    -0.82158869     0.048693587   -0.69103357     0.020258192  
   4391000   0.051951725   -0.81963317     0.051037774   -0.69071808     0.0040903754 
   4392000   0.051934255   -0.82011474     0.050131924   -0.69213169     0.0021588415 
   4393000   0.051516702   -0.82001761     0.049144962   -0.69364745     0.012689946  
   4394000   0.053071937   -0.82232741     0.049617575   -0.69315329    -0.0032316634 
   4395000   0.052709376   -0.82117168     0.049881115   -0.69227751    -0.0023416549 
   4396000   0.050890301   -0.81971368     0.050265728   -0.69316175     0.013926042  
   4397000   0.050794297   -0.8229523      0.050467041   -0.69634297     0.00035011233
   4398000   0.051893075   -0.82017426     0.051597336   -0.69078753     0.01803077   
   4399000   0.051554561   -0.81942321     0.050411667   -0.69172959     0.015663356  
   4400000   0.051991204   -0.82129454     0.048950986   -0.69440706     0.039801764  
   4401000   0.051790751   -0.82060501     0.051048529   -0.69192048     0.027829465  
   4402000   0.049999726   -0.82095771     0.047875969   -0.69813054     0.020514331  
   4403000   0.051276321   -0.82297694     0.049984117   -0.69612797     0.00059126711
   4404000   0.051501306   -0.81959948     0.049200372   -0.69319698     0.013796506  
   4405000   0.052035652   -0.82227496     0.049593406   -0.69467844    -0.018816977  
   4406000   0.051993438   -0.8198465      0.050782447   -0.69112421     0.016403328  
   4407000   0.052743235   -0.81935023     0.050493726   -0.68979269     0.022499876  
   4408000   0.051729327   -0.82218249     0.048188242   -0.69645032     0.035321293  
   4409000   0.054217693   -0.82230062     0.051069846   -0.68995671     0.022638075  
   4410000   0.052779766   -0.81873429     0.049518672   -0.69009704     0.012342439  
   4411000   0.053780906   -0.82036817     0.049478071   -0.69027078     0.015514866  
   4412000   0.052092396   -0.82157016     0.048923102   -0.69455887     0.016954727  
   4413000   0.050919379   -0.82256519     0.048827907   -0.69740749     0.019375703  
   4414000   0.052204678   -0.82155898     0.049700899   -0.69360158     0.0046990548 
   4415000   0.054143065   -0.82040391     0.048930834   -0.69031088     0.00032300196
   4416000   0.053175257   -0.8205578      0.049461761   -0.69138461     0.017459976  
   4417000   0.051125359   -0.81859221     0.049125933   -0.69282771     0.033934879  
   4418000   0.052061997   -0.82069582     0.051583119   -0.69107008     0.0098635427 
   4419000   0.052405204   -0.81933242     0.051266233   -0.68950909     0.034636487  
   4420000   0.052242412   -0.8215401      0.0515308     -0.69169624     0.036495664  
   4421000   0.051551552   -0.82175637     0.052990104   -0.69148883    -0.01000079   
   4422000   0.0503341     -0.82179423     0.052436051   -0.69390574    -0.022195725  
   4423000   0.051874155   -0.82141263     0.050939014   -0.69271259    -0.0090049242 
   4424000   0.051466311   -0.81959913     0.050439167   -0.6920103      0.0067359797 
   4425000   0.052342047   -0.82039304     0.050668695   -0.69126193    -0.0033392219 
   4426000   0.052448139   -0.82083981     0.050108774   -0.69210958     0.016316064  
   4427000   0.051439085   -0.82010145     0.051401964   -0.69159063     0.015081695  
   4428000   0.05172114    -0.81931114     0.048552561   -0.69322692     0.016591534  
   4429000   0.052143687   -0.82189836     0.049507028   -0.69422626     0.0064596886 
   4430000   0.05140391    -0.82292993     0.049127149   -0.69674666    -0.004181701  
   4431000   0.052307507   -0.8210235      0.050493588   -0.69211927     0.0080445663 
   4432000   0.053389508   -0.82026123     0.051878187   -0.68835045     0.036862467  
   4433000   0.051296041   -0.82030487     0.049579879   -0.69383057     0.020377708  
   4434000   0.051960334   -0.81865759     0.049009327   -0.69175804     0.058917711  
   4435000   0.051892655   -0.82237259     0.050179497   -0.69440433     0.04852154   
   4436000   0.050785691   -0.8221986      0.051957048   -0.69411216     0.046598561  
   4437000   0.050729003   -0.81928149     0.049799097   -0.69343798     0.0097095358 
   4438000   0.054147423   -0.82037946     0.051067969   -0.68814276    -0.0040581709 
   4439000   0.052864166   -0.82107007     0.049914156   -0.69191082    -0.0039477591 
   4440000   0.052054041   -0.82144289     0.052071351   -0.69134085     0.020572418  
   4441000   0.052105204   -0.82077573     0.05113881    -0.69152954     0.010185939  
   4442000   0.054014123   -0.82135668     0.050722267   -0.6896655      0.027710577  
   4443000   0.052901229   -0.82233107     0.05121834    -0.69181208     0.017587266  
   4444000   0.052300263   -0.82077509     0.050975375   -0.69139993     0.015307346  
   4445000   0.052703542   -0.82075056     0.049366312   -0.69237994     0.018663464  
   4446000   0.053121649   -0.82111533     0.049251477   -0.69223279     0.0090269358 
   4447000   0.051919471   -0.81945223     0.051251804   -0.69037146     0.0060753687 
   4448000   0.052809461   -0.81998909     0.04957365    -0.69125235     0.023568254  
   4449000   0.051045918   -0.82053718     0.04899074    -0.69502696     0.036080827  
   4450000   0.051000871   -0.81950775     0.048532548   -0.69452325     0.029545283  
   4451000   0.0510352     -0.82123502     0.048490956   -0.69624065     0.010280561  
   4452000   0.053877877   -0.82198446     0.050407512   -0.69081227     0.0026292488 
   4453000   0.053022476   -0.8213097      0.050878963   -0.69094833     0.016227028  
   4454000   0.051566271   -0.82007821     0.050981753   -0.69179695    -0.0071472954 
   4455000   0.052004929   -0.82276534     0.051504064   -0.69330421    -0.0049980976 
   4456000   0.052094336   -0.81996552     0.051758007   -0.69011643    -0.011118207  
   4457000   0.052430087   -0.8195096      0.052560797   -0.68835441     0.0073640803 
   4458000   0.051780923   -0.82030779     0.051656762   -0.69102975     0.013526852  
   4459000   0.050498143   -0.82196737     0.050792078   -0.69547695    -0.0066114458 
   4460000   0.051570823   -0.82143849     0.04769348    -0.69643868     0.0026358818 
   4461000   0.051223515   -0.82031317     0.049296796   -0.69423067     0.013328075  
   4462000   0.051808681   -0.82138524     0.050319044   -0.69340331    -0.015321967  
   4463000   0.05032739    -0.81994748     0.048234295   -0.6962708      0.012513943  
   4464000   0.050293656   -0.82113833     0.049172442   -0.69657407     0.022085252  
   4465000   0.050127943   -0.8204947      0.049843433   -0.69550786     0.014510597  
   4466000   0.04905714    -0.82060715     0.049078611   -0.69799031     0.023068663  
   4467000   0.051401334   -0.82259652     0.049788993   -0.69575527     0.021866762  
   4468000   0.051980676   -0.82183805     0.048442129   -0.69547521     0.0091195398 
   4469000   0.050908102   -0.82268114     0.05015222    -0.69621604     0.035802121  
   4470000   0.051705606   -0.82167375     0.050598516   -0.69356686     0.036488076  
   4471000   0.053621932   -0.82336598     0.050621703   -0.69236327     0.0029647069 
   4472000   0.050964242   -0.81976063     0.04902691    -0.69433668     0.014630575  
   4473000   0.051636916   -0.82161886     0.051630285   -0.69258317     0.0090385499 
   4474000   0.052017125   -0.82157378     0.048059733   -0.69553869    -0.016722419  
   4475000   0.051501013   -0.82101375     0.048411286   -0.69540079     0.0095823042 
   4476000   0.05189214    -0.81975719     0.049175364   -0.69279383    -0.0023055715 
   4477000   0.053569924   -0.82053732     0.048938731   -0.69129554     0.0096060824 
   4478000   0.052691614   -0.82082183     0.048983474   -0.69285193     0.0023901236 
   4479000   0.052793487   -0.82050397     0.050057439   -0.69130739     0.027174359  
   4480000   0.050548515   -0.82192792     0.050759258   -0.69539481     0.00017353426
   4481000   0.051799592   -0.82348881     0.047931381   -0.69790817     0.01227979   
   4482000   0.050614559   -0.82151366     0.049115958   -0.69652484     0.0044637641 
   4483000   0.051484635   -0.82175325     0.051469615   -0.6931065      0.015254433  
   4484000   0.050899013   -0.82166193     0.050510267   -0.6948524     -0.0046421765 
   4485000   0.052014329   -0.82184304     0.051213127   -0.69265875     0.021126071  
   4486000   0.051636455   -0.81907795     0.049718712   -0.69195452    -0.0036828128 
   4487000   0.050546366   -0.82182085     0.049329285   -0.69672093     0.0086889394 
   4488000   0.051173178   -0.82043081     0.049043561   -0.69467701    -0.015476432  
   4489000   0.051610046   -0.81922835     0.049515315   -0.69234791    -0.0054733936 
   4490000   0.052541429   -0.81978166     0.051441704   -0.68957866     0.00044253961
   4491000   0.051412834   -0.82218295     0.048917163   -0.69619629    -0.01641436   
   4492000   0.052445031   -0.82103926     0.048619852   -0.69380262     0.0020766856 
   4493000   0.051230756   -0.82352963     0.050250337   -0.69648274    -0.0019532135 
   4494000   0.051760047   -0.82123897     0.049862219   -0.69378677     0.010731657  
   4495000   0.052668899   -0.82130416     0.050153597   -0.69219819     0.0028374421 
   4496000   0.051060958   -0.82092734     0.049007442   -0.69537788     0.0044187009 
   4497000   0.050605135   -0.82164624     0.04970383    -0.69608368    -0.0036863225 
   4498000   0.052599448   -0.81949773     0.050155033   -0.69049443     0.0098162015 
   4499000   0.051009529   -0.81875147     0.0502086     -0.69207794     8.4812855e-05
   4500000   0.05327825    -0.82175959     0.05166508    -0.6902287     -0.0020612782 
   4501000   0.052238922   -0.81998703     0.04840696    -0.69327224    -0.0017406169 
   4502000   0.051102463   -0.82176928     0.049385168   -0.69577987     0.0040180785 
   4503000   0.052347857   -0.82175828     0.050806409   -0.69248074     0.013085595  
   4504000   0.052172736   -0.82081139     0.049811155   -0.69279162    -0.00095866713
   4505000   0.050411239   -0.8210256      0.049853348   -0.69560417     0.023153633  
   4506000   0.051258417   -0.82120228     0.049845449   -0.69451881    -0.00079821142
   4507000   0.049274307   -0.82045844     0.050934467   -0.69566019     0.0034306689 
   4508000   0.051862963   -0.82209733     0.050207757   -0.69414532     0.0069177206 
   4509000   0.053589063   -0.81967034     0.048999582   -0.69033903     0.0019158726 
   4510000   0.052031839   -0.82241277     0.049959745   -0.69445562     0.0053065146 
   4511000   0.05161165    -0.82250626     0.049854668   -0.69528406    -0.0039273428 
   4512000   0.052989527   -0.82174308     0.047961324   -0.69434875    -0.0064793356 
   4513000   0.052165465   -0.82176082     0.049619708   -0.6939434      0.0060031251 
   4514000   0.053173333   -0.81939576     0.048349093   -0.69133812     0.012951709  
   4515000   0.051478691   -0.82024689     0.048421427   -0.69465724     0.015162282  
   4516000   0.051953994   -0.82249117     0.048553665   -0.69605679    -0.017504274  
   4517000   0.052508257   -0.8216414      0.050166157   -0.69276368    -0.0062896925 
   4518000   0.051243905   -0.82261272     0.053143431   -0.69265302    -0.010657065  
   4519000   0.051110535   -0.82055151     0.050154364   -0.6937808     -0.0015241803 
   4520000   0.053685333   -0.82125305     0.048995609   -0.6917814      0.0039268833 
   4521000   0.050873348   -0.82206371     0.051171695   -0.69463123    -0.0043870843 
   4522000   0.051930428   -0.82018901     0.051308208   -0.69103542     0.015712612  
   4523000   0.051077631   -0.82114739     0.05063795    -0.69394242     0.0087002361 
   4524000   0.053754567   -0.82036379     0.050494148   -0.68928981     0.010013561  
   4525000   0.052400466   -0.82034341     0.050007417   -0.691786       0.018632349  
   4526000   0.050850749   -0.81981192     0.049818904   -0.6937661      0.0042305743 
   4527000   0.052952789   -0.82076234     0.052779202   -0.6886052      0.012429083  
   4528000   0.053940874   -0.82091329     0.048372135   -0.69168204     0.015097116  
   4529000   0.052083028   -0.81894985     0.050228422   -0.69064728     0.017245795  
   4530000   0.051761401   -0.82119811     0.048552037   -0.69505406     0.012191196  
   4531000   0.051989484   -0.82148353     0.050595521   -0.6929541     -0.016725214  
   4532000   0.051797661   -0.81942189     0.049666867   -0.69210865     0.029574275  
   4533000   0.052442465   -0.82255933     0.04986134    -0.69408504     0.020834327  
   4534000   0.051763278   -0.82145229     0.048762911   -0.69509456     0.016428376  
   4535000   0.050611432   -0.82211078     0.049026119   -0.69721649     0.021662794  
   4536000   0.053201918   -0.82099533     0.048638198   -0.69260574     0.029608868  
   4537000   0.053902581   -0.82011607     0.047940212   -0.69137415     0.023311512  
   4538000   0.053335083   -0.82013387     0.050406633   -0.68977623     0.014620926  
   4539000   0.052549098   -0.820687       0.050708796   -0.69120541     0.016397772  
   4540000   0.05264315    -0.82136773     0.049600629   -0.69285332     0.013550403  
   4541000   0.052573846   -0.82264833     0.050774904   -0.69306353     0.0053013529 
   4542000   0.052020176   -0.82102838     0.049930408   -0.69311805     0.031255663  
   4543000   0.051753355   -0.82127254     0.050487583   -0.69320501     0.021943802  
   4544000   0.051675936   -0.82132076     0.051860039   -0.69199683     0.039499681  
   4545000   0.051585777   -0.82057946     0.050270197   -0.69298052     0.0081231694 
   4546000   0.05334145    -0.82152238     0.050226378   -0.69133544     0.011288017  
   4547000   0.051506446   -0.82060265     0.051168699   -0.69222413     0.010487548  
   4548000   0.05360682    -0.8200531      0.050856671   -0.68883808     0.015648058  
   4549000   0.053565787   -0.82152374     0.051002385   -0.69022452     0.012886805  
   4550000   0.051910986   -0.82089803     0.048929772   -0.69415201     0.036397261  
   4551000   0.050453961   -0.82064717     0.049550494   -0.69546456     0.019923718  
   4552000   0.05122802    -0.82013571     0.050228706   -0.69311455     0.032170907  
   4553000   0.050296793   -0.82049328     0.049275776   -0.69582099     0.0056437771 
   4554000   0.051125182   -0.82081136     0.049529037   -0.69464402     0.0048831275 
   4555000   0.052426546   -0.8211864      0.050428827   -0.69216849     0.019238151  
   4556000   0.052074654   -0.82065572     0.04986918    -0.69272496     0.02584575   
   4557000   0.050789223   -0.82136945     0.053304477   -0.69193029     0.012541742  
   4558000   0.051079516   -0.82175992     0.051991394   -0.69319868     0.022830267  
   4559000   0.051905096   -0.82044609     0.050711058   -0.69192762     0.019551975  
   4560000   0.051169256   -0.82100604     0.049570558   -0.69473112     0.033601581  
   4561000   0.052856948   -0.8200741      0.050274243   -0.69056558     0.028231705  
   4562000   0.051941175   -0.82101079     0.049653394   -0.6934959      0.01522094   
   4563000   0.052278022   -0.82202108     0.052429363   -0.69122527     0.019124137  
   4564000   0.049892634   -0.8194162      0.04943121    -0.69519432     0.038820675  
   4565000   0.052133769   -0.82066485     0.045855378   -0.69665927     0.037845269  
   4566000   0.051911297   -0.81900852     0.04885857    -0.69233324     0.0081953438 
   4567000   0.051190943   -0.82122796     0.051422868   -0.69306821     0.025121074  
   4568000   0.049584588   -0.82027868     0.049515639   -0.69643415     0.043899317  
   4569000   0.050659003   -0.82304741     0.051018687   -0.69608924     0.024133958  
   4570000   0.050446609   -0.82149052     0.049172754   -0.69669667     0.037173717  
   4571000   0.051291758   -0.82012422     0.046727031   -0.69650919     0.035973099  
   4572000   0.049708126   -0.82139248     0.049907971   -0.69697042     0.011043938  
   4573000   0.051047638   -0.82078266     0.048775048   -0.69548555     0.018618401  
   4574000   0.053026397   -0.82177788     0.049167778   -0.69312182     0.010487483  
   4575000   0.05149682    -0.81994739     0.04911535    -0.69363665     0.00022081267
   4576000   0.050382623   -0.82142056     0.048823364   -0.69707202     0.00028545776
   4577000   0.051887605   -0.82194884     0.048449702   -0.69571794     0.0088152404 
   4578000   0.049990173   -0.8226168      0.049017692   -0.69866223     0.018244151  
   4579000   0.051820761   -0.82074409     0.048788802   -0.69427429     0.011795729  
   4580000   0.050907463   -0.82165488     0.051792248   -0.6935507      0.020806688  
   4581000   0.052343077   -0.8204346      0.049542942   -0.69242769     0.023068725  
   4582000   0.051308303   -0.82028049     0.050608525   -0.69275916     0.041050746  
   4583000   0.051673258   -0.82035408     0.049075167   -0.69381904     0.013986285  
   4584000   0.051099663   -0.81977493     0.048864213   -0.69431067     0.015387032  
   4585000   0.051597335   -0.81970646     0.049080512   -0.69327987    -0.0035841131 
   4586000   0.052918099   -0.82208594     0.05081016    -0.69194984     0.011318358  
   4587000   0.053767704   -0.82132056     0.049568952   -0.69115208     0.0051527395 
   4588000   0.053076321   -0.81921766     0.049505344   -0.6901492      0.012767078  
   4589000   0.051347709   -0.81874785     0.050096919   -0.69167906     0.028752796  
   4590000   0.054039679   -0.82153805     0.050433736   -0.69009709     0.015786871  
   4591000   0.052694947   -0.82087606     0.050816163   -0.69106848    -0.0057099767 
   4592000   0.052332324   -0.8225318      0.04842084    -0.69566312     0.00099090289
   4593000   0.051469365   -0.82080318     0.051116153   -0.69253279     0.040782464  
   4594000   0.050873598   -0.81973462     0.05138857    -0.69208488     0.030775931  
   4595000   0.052122943   -0.8211782      0.050357011   -0.69268721     0.013413348  
   4596000   0.053183861   -0.82185506     0.050492519   -0.69163822     0.0030708171 
   4597000   0.052451414   -0.82082666     0.050573823   -0.69162647    -0.00061404556
   4598000   0.052440669   -0.82171783     0.051864957   -0.69124262     0.00084489462
   4599000   0.051652996   -0.82214188     0.048938727   -0.69577365     0.0042745748 
   4600000   0.053115587   -0.82150638     0.049758961   -0.69212544     0.040554669  
   4601000   0.053823082   -0.82031397     0.049673164   -0.68995827     0.024387457  
   4602000   0.051126452   -0.82010741     0.048640153   -0.69482705     0.040946835  
   4603000   0.050338185   -0.82170496     0.050931931   -0.69531447     0.02105912   
   4604000   0.05062533    -0.81995224     0.049444052   -0.69461919     0.012910017  
   4605000   0.052708372   -0.82027003     0.048743723   -0.69251476     0.0061033218 
   4606000   0.050733889   -0.82104803     0.049570343   -0.69542595     0.012091302  
   4607000   0.053221618   -0.82043352     0.048947282   -0.69170531     0.016134666  
   4608000   0.051720891   -0.82085441     0.049751718   -0.69357141     0.0062524381 
   4609000   0.053256966   -0.82122247     0.050574829   -0.69081373     0.029337336  
   4610000   0.052807333   -0.82028072     0.049120426   -0.6920004      0.025408261  
   4611000   0.052832053   -0.82109713     0.048441929   -0.69345825     0.034486252  
   4612000   0.052827186   -0.82014654     0.05035686    -0.69060003     0.0091845944 
   4613000   0.052713174   -0.82186956     0.048700037   -0.69415078     0.021542415  
   4614000   0.051164869   -0.8200076      0.049586061   -0.69372375     0.021606411  
   4615000   0.051888128   -0.82338951     0.050212144   -0.69539538     0.018583767  
   4616000   0.053591796   -0.82078806     0.049261342   -0.69119089     0.031042054  
   4617000   0.050993594   -0.82122619     0.048808274   -0.69597687     0.023523004  
   4618000   0.050867318   -0.82154886     0.049461256   -0.69583585     0.0066407662 
   4619000   0.0500387     -0.82138211     0.049677076   -0.6966954      0.0082439459 
   4620000   0.051275063   -0.82048603     0.049023103   -0.69459995     0.048085994  
   4621000   0.050411666   -0.82041418     0.047437824   -0.69740764     0.0071981701 
   4622000   0.05099131    -0.8204633      0.049911615   -0.69411407     0.025703326  
   4623000   0.051691388   -0.8203522      0.049960663   -0.69290448     0.0055179545 
   4624000   0.051919368   -0.82156002     0.049730512   -0.6940007      0.013919395  
   4625000   0.050889392   -0.8216229      0.048586867   -0.69675119     0.01101453   
   4626000   0.050508024   -0.82081309     0.047965282   -0.69713465     0.010819024  
   4627000   0.053122174   -0.82133869     0.048454112   -0.69325273     0.010192975  
   4628000   0.053455079   -0.82122293     0.048645023   -0.69244702     0.0046637986 
   4629000   0.051678004   -0.82164643     0.051056804   -0.69312263     0.011080996  
   4630000   0.051949097   -0.8242573      0.051335191   -0.69504873     0.011251721  
   4631000   0.052767202   -0.82093954     0.048940051   -0.69289975     0.025328365  
   4632000   0.052456106   -0.82240865     0.049635666   -0.69413959     0.024545216  
   4633000   0.052209716   -0.82095951     0.050573547   -0.69212192     0.0055832626 
   4634000   0.051707993   -0.82298351     0.050298184   -0.69517338     0.0028193271 
   4635000   0.051692816   -0.82183825     0.047446908   -0.69690214     0.018537226  
   4636000   0.053063451   -0.82290734     0.047995351   -0.69536817    -0.014141917  
   4637000   0.05209645    -0.81929775     0.048536118   -0.69266737     0.015570215  
   4638000   0.051841403   -0.82397813     0.050930173   -0.69533603     0.019527426  
   4639000   0.054278412   -0.82281404     0.051647649   -0.6898013      0.0069057851 
   4640000   0.052121675   -0.82153628     0.048508273   -0.69489594     0.02744893   
   4641000   0.053395231   -0.82268912     0.051135096   -0.69151285     0.0069345515 
   4642000   0.050991747   -0.82140331     0.049550908   -0.69541413    -0.0040790866 
   4643000   0.051118823   -0.82121246     0.051427086   -0.69315661     0.031350561  
   4644000   0.051557543   -0.8218736      0.047705017   -0.69688216     0.034797064  
   4645000   0.051830654   -0.82235569     0.04860759    -0.69605228     0.033264115  
   4646000   0.050779405   -0.82197773     0.052692741   -0.69316502    -0.014656131  
   4647000   0.051667677   -0.82118905     0.050961351   -0.69277618     0.022453033  
   4648000   0.052995387   -0.82204371     0.049286337   -0.69331558     0.011103267  
   4649000   0.052158483   -0.82348075     0.048737155   -0.69655635     0.014046673  
   4650000   0.051557304   -0.82464346     0.050658979   -0.69669842     0.018138722  
   4651000   0.054593401   -0.82509254     0.049868671   -0.6933866      0.0057328515 
   4652000   0.052499357   -0.82233307     0.049783899   -0.69385094     0.010799573  
   4653000   0.05207815    -0.82339722     0.051460074   -0.69387032     0.045308038  
   4654000   0.051723398   -0.82276803     0.050337694   -0.69489529     0.0049799466 
   4655000   0.050514848   -0.82213683     0.051067541   -0.6953459      0.017940825  
   4656000   0.052326258   -0.8245774      0.051655918   -0.69448273    -0.0036518475 
   4657000   0.05130958    -0.82247428     0.048390136   -0.69716942     0.041354136  
   4658000   0.051382753   -0.82471969     0.052956876   -0.6947384      0.03481942   
   4659000   0.053480181   -0.82579023     0.052429569   -0.69319215     0.031633293  
   4660000   0.051675309   -0.82452927     0.049434508   -0.69763181     0.0087773169 
   4661000   0.052041604   -0.82236966     0.050562016   -0.6937956      0.059289934  
   4662000   0.052972467   -0.82299822     0.048873625   -0.69471716     0.04929665   
   4663000   0.052604258   -0.82375285     0.051190828   -0.69370654     0.026970168  
   4664000   0.051999841   -0.82373182     0.050748617   -0.69503377     0.020949403  
   4665000   0.051050986   -0.82274677     0.049850646   -0.69636905     0.052785623  
   4666000   0.050583191   -0.82358839     0.048800091   -0.69896246     0.062651381  
   4667000   0.052653931   -0.82334332     0.052373806   -0.69203957     0.031408389  
   4668000   0.052116324   -0.82220572     0.051740323   -0.69234135     0.040141923  
   4669000   0.050750852   -0.82226407     0.048348865   -0.69783804     0.033860606  
   4670000   0.051924796   -0.8248118      0.051517008   -0.69545784     0.039919667  
   4671000   0.050917138   -0.8221988      0.048300418   -0.69757195     0.031070586  
   4672000   0.051138889   -0.82331183     0.047837067   -0.69881592     0.014955759  
   4673000   0.05107547    -0.82524114     0.048903741   -0.69977363     0.031219959  
   4674000   0.05208954    -0.82301257     0.046883278   -0.6980454      0.044284399  
   4675000   0.050047132   -0.82203585     0.047937124   -0.69907646     0.03003574   
   4676000   0.052085469   -0.82329354     0.050869203   -0.69434654     0.018700212  
   4677000   0.05010806    -0.82299253     0.051578009   -0.69630093     0.034738578  
   4678000   0.05166566    -0.8229037      0.050640269   -0.69481494     0.027076152  
   4679000   0.052316025   -0.82362833     0.050392136   -0.69481278     0.043845589  
   4680000   0.052283476   -0.82330906     0.049446729   -0.69548771     0.025260316  
   4681000   0.051829878   -0.82376628     0.05129544    -0.69477618     0.019232813  
   4682000   0.05168829    -0.82226664     0.051972125   -0.6928121      0.010839431  
   4683000   0.050661965   -0.82397352     0.050163735   -0.69786586     0.020148339  
   4684000   0.051429638   -0.82175181     0.049068808   -0.69558832     0.030662725  
   4685000   0.052292986   -0.82326213     0.050525853   -0.6943474      0.025884795  
   4686000   0.05250367    -0.82358952     0.049303818   -0.695581       0.039477736  
   4687000   0.04988301    -0.82474863     0.049339509   -0.70063288     0.038759841  
   4688000   0.051340325   -0.82268337     0.047242446   -0.69848012     0.031460052  
   4689000   0.052192282   -0.82388877     0.049337188   -0.69631367     0.014601995  
   4690000   0.053774626   -0.82338899     0.052229696   -0.6905494      0.012228303  
   4691000   0.052904769   -0.82384408     0.051345303   -0.69319282     0.014167261  
   4692000   0.052623777   -0.82432867     0.051548364   -0.69389557    -0.011529832  
   4693000   0.053607723   -0.82175464     0.049526485   -0.69186845     0.02336246   
   4694000   0.052505497   -0.82175327     0.050266566   -0.69277927     0.037287798  
   4695000   0.052629703   -0.82392992     0.04853408    -0.69650222     0.018641918  
   4696000   0.051831446   -0.8240206      0.048265655   -0.69805793     0.0004759056 
   4697000   0.051112327   -0.82339144     0.049768205   -0.69700421     0.016288323  
   4698000   0.050610652   -0.82298897     0.050862629   -0.69625934     0.034281757  
   4699000   0.053828639   -0.82221984     0.049032745   -0.69249623     0.010784551  
   4700000   0.054049385   -0.8227741      0.049830715   -0.69192162     0.030113086  
   4701000   0.0517398     -0.82364043     0.051148501   -0.6949323      0.031972995  
   4702000   0.052695873   -0.82236376     0.048642922   -0.69472803     0.024203438  
   4703000   0.053986393   -0.82295187     0.050308274   -0.69171625     0.025102052  
   4704000   0.051041083   -0.82195434     0.051935393   -0.69350672     0.027628896  
   4705000   0.053311143   -0.82343896     0.048792665   -0.69473118     0.012639867  
   4706000   0.051873402   -0.82392365     0.050134838   -0.69602891     0.0068180773 
   4707000   0.052685397   -0.82329624     0.051379608   -0.69293952     0.035755555  
   4708000   0.050885036   -0.82430235     0.049134626   -0.69888941     0.020533607  
   4709000   0.051859601   -0.82352188     0.050032203   -0.69575046     0.03102408   
   4710000   0.051052041   -0.8243987      0.050758034   -0.69711201     0.014096079  
   4711000   0.052071556   -0.8237759      0.048372521   -0.69734644     0.049272636  
   4712000   0.049547933   -0.82310399     0.04923185    -0.69959819     0.030807212  
   4713000   0.051082762   -0.82483108     0.049234642   -0.69902173     0.0068982062 
   4714000   0.049574093   -0.82330096     0.051035987   -0.69795181     0.031414135  
   4715000   0.051386124   -0.82270442     0.049780613   -0.69589435     0.017410699  
   4716000   0.051870959   -0.82208202     0.049270554   -0.69505523     0.052531688  
   4717000   0.050085163   -0.82187542     0.0516243     -0.69517184     0.016567995  
   4718000   0.050876611   -0.82411461     0.049164089   -0.69868484     0.034976577  
   4719000   0.050543757   -0.82190599     0.048891032   -0.69724823     0.049917224  
   4720000   0.053873626   -0.82322409     0.048984854   -0.69348093     0.056671854  
   4721000   0.051717435   -0.82234652     0.047873169   -0.69694725     0.0460974    
   4722000   0.050737916   -0.82126503     0.04966212    -0.69554514     0.026900522  
   4723000   0.052052122   -0.82194704     0.050879441   -0.69303979     0.027923034  
   4724000   0.049987393   -0.8206708      0.048750542   -0.69698754     0.065355988  
   4725000   0.050897231   -0.82241125     0.048391197   -0.69772347     0.043136296  
   4726000   0.052176407   -0.8231329      0.046055983   -0.6988628      0.029268933  
   4727000   0.054145543   -0.82296442     0.048830868   -0.69296764     0.047100548  
   4728000   0.052909493   -0.82211456     0.049520919   -0.69328061     0.016849599  
   4729000   0.052585913   -0.82417651     0.051515384   -0.69383315     0.03537553   
   4730000   0.050319484   -0.82339226     0.051195234   -0.6967665      0.020747744  
   4731000   0.053889495   -0.82215611     0.049078987   -0.69229503     0.030966722  
   4732000   0.052780495   -0.82369721     0.053025061   -0.69155249     0.042978794  
   4733000   0.05358163    -0.8216641      0.050239118   -0.69110439     0.070103712  
   4734000   0.053713787   -0.82304697     0.050639725   -0.69188855     0.029371266  
   4735000   0.051198293   -0.82302977     0.050638802   -0.69564308     0.045538187  
   4736000   0.05307985    -0.82255851     0.047126624   -0.69586348     0.04739173   
   4737000   0.052494478   -0.82182166     0.048673517   -0.69445722     0.038390812  
   4738000   0.050267231   -0.82317521     0.048790659   -0.69903235     0.023476525  
   4739000   0.050116882   -0.82380292     0.049248819   -0.69942728     0.010691702  
   4740000   0.051240648   -0.82501389     0.051629601   -0.6965729      0.030165083  
   4741000   0.050017756   -0.82296363     0.046531611   -0.70145379     0.041287289  
   4742000   0.051882265   -0.82383908     0.048707945   -0.69735794     0.056446333  
   4743000   0.050699558   -0.8244104      0.05099176    -0.69741837     0.037086265  
   4744000   0.052260547   -0.82341874     0.047693012   -0.69738548     0.03375471   
   4745000   0.05153655    -0.82255594     0.04928051    -0.69602048     0.058483633  
   4746000   0.05174664    -0.82179127     0.048050883   -0.6961705      0.014640328  
   4747000   0.05059611    -0.82409891     0.050400216   -0.69785349     0.0046080691 
   4748000   0.050490614   -0.82176884     0.049080199   -0.69700158     0.025627337  
   4749000   0.052709092   -0.82356095     0.048626457   -0.69592186     0.035099536  
   4750000   0.052313331   -0.82197845     0.048620509   -0.69493858     0.051160477  
   4751000   0.051328618   -0.82193217     0.048619533   -0.69636938     0.02904525   
   4752000   0.052306875   -0.82269979     0.049535356   -0.69475474     0.02847963   
   4753000   0.051969475   -0.82289152     0.051468412   -0.69351919     0.023730503  
   4754000   0.052665849   -0.82402221     0.050657949   -0.69441645     0.033471534  
   4755000   0.051558861   -0.8259441      0.049727376   -0.69892833     0.025809847  
   4756000   0.052880031   -0.82574086     0.049120158   -0.69735183     0.050518251  
   4757000   0.051524677   -0.82432113     0.048087161   -0.69899681     0.018155759  
   4758000   0.053198457   -0.82247238     0.048114686   -0.69461149     0.084792645  
   4759000   0.051946531   -0.82422533     0.051116867   -0.69523894     0.023083972  
   4760000   0.052407556   -0.82305398     0.050742286   -0.69375108     0.024948117  
   4761000   0.050797039   -0.82363091     0.051514411   -0.6959701      0.050301609  
   4762000   0.051688391   -0.82162064     0.048124551   -0.69601352     0.041837148  
   4763000   0.051347815   -0.8235596      0.048156799   -0.69843077     0.014233292  
   4764000   0.049299865   -0.82201691     0.047680532   -0.70043429     0.033819038  
   4765000   0.05062922    -0.82500208     0.049336565   -0.69977068     0.029142636  
   4766000   0.051092244   -0.82445598     0.047223006   -0.70064405     0.0088889051 
   4767000   0.049368509   -0.82371127     0.050188378   -0.6995179      0.03868556   
   4768000   0.051382756   -0.8204943      0.047050826   -0.69641907     0.043134988  
   4769000   0.051967839   -0.82254905     0.050743486   -0.6939041      0.031584938  
   4770000   0.051147473   -0.82306185     0.04876953    -0.69762061     0.040506108  
   4771000   0.052743831   -0.82331749     0.049979274   -0.69427351     0.0044047258 
   4772000   0.050756717   -0.82378694     0.050576296   -0.69712469     0.0058145822 
   4773000   0.051749984   -0.82304939     0.049144736   -0.69632976     0.032145204  
   4774000   0.05289063    -0.82403534     0.051719057   -0.69303152     0.043928384  
   4775000   0.050867486   -0.82326087     0.048448973   -0.6985599      0.021150365  
   4776000   0.052575177   -0.82266365     0.048657672   -0.69519409     0.028385337  
   4777000   0.051739684   -0.82518371     0.049501455   -0.6981228      0.026717799  
   4778000   0.051436878   -0.82380082     0.051471727   -0.69522355     0.0033005811 
   4779000   0.051403311   -0.82300102     0.049319083   -0.69662672     0.048988806  
   4780000   0.052486751   -0.821165       0.050587201   -0.69189847     0.034512888  
   4781000   0.053646833   -0.8236664      0.051146817   -0.69210125    -0.0078950794 
   4782000   0.052577798   -0.82335457     0.048107635   -0.69643112     0.027188287  
   4783000   0.050427488   -0.82438168     0.050271416   -0.69851783     0.0061558639 
   4784000   0.051105891   -0.82135335     0.049558997   -0.69518498    -0.010568356  
   4785000   0.052303444   -0.82313643     0.049556931   -0.69517495     0.025585656  
   4786000   0.052937794   -0.82107098     0.050556531   -0.69115898     0.011203467  
   4787000   0.052229344   -0.82249964     0.05202494    -0.69218123     0.0020420938 
   4788000   0.050427199   -0.82365906     0.052138306   -0.69592876    -0.0011137816 
   4789000   0.051118404   -0.82186539     0.051725732   -0.69351152     0.020869956  
   4790000   0.051585107   -0.82290975     0.048473153   -0.69710886     0.042253091  
   4791000   0.050893149   -0.82127547     0.050669168   -0.69431583     0.019225993  
   4792000   0.052140673   -0.82501732     0.048748347   -0.69810842     0.018346622  
   4793000   0.052372598   -0.82150936     0.050343338   -0.69265781     0.013534924  
   4794000   0.049276148   -0.82383758     0.048422547   -0.70154849     0.0055827091 
   4795000   0.050807595   -0.82314927     0.048602455   -0.69838459     0.013760105  
   4796000   0.049752544   -0.8227002      0.049662676   -0.69845686     0.00054035034
   4797000   0.049054632   -0.82222375     0.050246684   -0.69844259     0.012939626  
   4798000   0.051566743   -0.82155939     0.050385035   -0.69387414     0.0085917319 
   4799000   0.052087043   -0.82474973     0.051261358   -0.69540821    -0.0017105755 
   4800000   0.051617176   -0.82452261     0.051821943   -0.69532485    -0.0043136756 
   4801000   0.051407204   -0.82296429     0.050186873   -0.69571636     0.011848286  
   4802000   0.052499854   -0.82291522     0.0509541     -0.69326215     0.029109714  
   4803000   0.050143531   -0.82390224     0.049188211   -0.69954726     0.020071708  
   4804000   0.052364155   -0.82297819     0.050089337   -0.69439329     0.022990094  
   4805000   0.054519668   -0.82134353     0.050089021   -0.68952777     0.010771942  
   4806000   0.050977755   -0.82172665     0.052400847   -0.6929085      0.02218847   
   4807000   0.05102628    -0.81967782     0.050794011   -0.69239377     0.044826532  
   4808000   0.052593587   -0.82228595     0.050355795   -0.69309067     0.014268879  
   4809000   0.052570428   -0.82056651     0.051687669   -0.69007407     0.014024573  
   4810000   0.051879229   -0.82210731     0.049905694   -0.69443298     0.029525159  
   4811000   0.051702051   -0.82142431     0.047526623   -0.69639465    -0.0014686492 
   4812000   0.051262601   -0.8229158      0.047391974   -0.69867953     0.0084603552 
   4813000   0.051944775   -0.82135035     0.049319128   -0.69416433     0.022028909  
   4814000   0.051514935   -0.82245694     0.047777662   -0.69745673     0.031387421  
   4815000   0.050717068   -0.82290994     0.049099261   -0.69778416    -0.0039107155 
   4816000   0.052901516   -0.82344402     0.051963838   -0.6921791      0.040791865  
   4817000   0.050657657   -0.82069072     0.047214937   -0.69753832     0.013864229  
   4818000   0.049831873   -0.82332089     0.048686168   -0.69993514     0.005483075  
   4819000   0.051735609   -0.82279522     0.046316681   -0.6989252      0.0097507108 
   4820000   0.052411516   -0.82352837     0.050047909   -0.69491391     0.01811993   
   4821000   0.051764796   -0.82235158     0.049232974   -0.69552151    -0.0010192066 
   4822000   0.050847445   -0.8227204      0.051825809   -0.69467264     0.032774016  
   4823000   0.053228981   -0.82143539     0.048903788   -0.69273964     0.043034862  
   4824000   0.051264808   -0.8225692      0.049999187   -0.69572241     0.023431082  
   4825000   0.053337706   -0.8245558      0.048973955   -0.6956269      0.014566223  
   4826000   0.051591385   -0.82337057     0.04760661    -0.69842681     0.0082460084 
   4827000   0.050253431   -0.82194676     0.049283294   -0.69733195     0.015929647  
   4828000   0.0492128     -0.8216264      0.049292421   -0.69856241     0.016621911  
   4829000   0.050767468   -0.82320451     0.050919062   -0.69618338     0.016148443  
   4830000   0.051766997   -0.82476176     0.050747349   -0.69641401     0.031392783  
   4831000   0.05049064    -0.82248808     0.047583716   -0.69921727     0.013831966  
   4832000   0.049802363   -0.82325396     0.049577904   -0.69902071     0.022925101  
   4833000   0.052251672   -0.82356877     0.049169453   -0.69607237     0.0029976357 
   4834000   0.052437172   -0.82457339     0.048841177   -0.6971272      0.0080415828 
   4835000   0.051824504   -0.82303909     0.050358996   -0.69499349    -0.00083111341
   4836000   0.053216382   -0.8228746      0.047726785   -0.69537474     0.0073412823 
   4837000   0.050354962   -0.82305005     0.048136666   -0.69942967     0.019954662  
   4838000   0.050212064   -0.82315578     0.050432487   -0.69745379     0.012999403  
   4839000   0.052141562   -0.82417207     0.048131731   -0.69787846     0.03214209   
   4840000   0.051481976   -0.82439935     0.049314524   -0.69791168     0.011173765  
   4841000   0.051072946   -0.82466609     0.049438604   -0.69866749     0.020139334  
   4842000   0.052777868   -0.82280749     0.048812768   -0.694879       0.027363841  
   4843000   0.05095624    -0.82238196     0.049500511   -0.6964964      0.029214719  
   4844000   0.052328509   -0.82253925     0.05100282    -0.69309431     0.030012368  
   4845000   0.050655937   -0.82173929     0.048489924   -0.69731448     0.018577564  
   4846000   0.050406089   -0.82277586     0.049282843   -0.69793266     0.024356836  
   4847000   0.050435719   -0.82361486     0.050293928   -0.69771616     0.0040097305 
   4848000   0.049716894   -0.82237848     0.048284941   -0.69956631     0.014880793  
   4849000   0.049514877   -0.82311789     0.049165802   -0.69972769     0.010800795  
   4850000   0.051608191   -0.82334782     0.049962567   -0.69602291    -0.00068284618
   4851000   0.050381468   -0.82255052     0.048345296   -0.69868178     0.031212053  
   4852000   0.050867482   -0.82279809     0.047304934   -0.69924116     0.01433193   
   4853000   0.051872675   -0.82345084     0.049824991   -0.69586703     0.01409828   
   4854000   0.05000546    -0.82277148     0.048517915   -0.69929377     0.012302892  
   4855000   0.050670675   -0.82249809     0.048486991   -0.69805412     0.0030752002 
   4856000   0.051453721   -0.82358335     0.046634194   -0.69981837     0.014388467  
   4857000   0.051737052   -0.82373498     0.046137029   -0.70004244     0.0055302657 
   4858000   0.049131733   -0.82123872     0.046367212   -0.70122145     0.022201458  
   4859000   0.050085744   -0.82194952     0.049307673   -0.6975617      0.022269572  
   4860000   0.05265778    -0.8231817      0.049351006   -0.69489499     0.021249684  
   4861000   0.050840216   -0.82288636     0.049335361   -0.69733987     0.0099903401 
   4862000   0.053207272   -0.82087191     0.047408307   -0.69370419     0.003063012  
   4863000   0.052043147   -0.82308475     0.051683747   -0.69338665     0.03739749   
   4864000   0.051829155   -0.81867582     0.048768926   -0.69221332     0.031662876  
   4865000   0.0499231     -0.82184165     0.047396597   -0.69960872     0.018353925  
   4866000   0.052044301   -0.8238308      0.04768966    -0.69812506     0.00090608278
   4867000   0.051779503   -0.82133115     0.053012377   -0.69069963     0.019468186  
   4868000   0.051388227   -0.82139826     0.048731      -0.69563465    -0.002961937  
   4869000   0.053724619   -0.82348899     0.050239892   -0.69271416    -0.0060022267 
   4870000   0.051992962   -0.82392833     0.049239001   -0.6967502      0.0046762925 
   4871000   0.051442351   -0.82219899     0.049234966   -0.69585028     0.01389055   
   4872000   0.050280565   -0.82227758     0.048052507   -0.69885288     0.0073026847 
   4873000   0.050621907   -0.82361703     0.050248016   -0.69748514     0.0064903373 
   4874000   0.052099189   -0.82476811     0.050505574   -0.69616418     0.012336148  
   4875000   0.054021002   -0.82183115     0.04890627    -0.69194565     0.010246379  
   4876000   0.052266537   -0.82028174     0.048988112   -0.69294441     0.014010739  
   4877000   0.053097123   -0.82136603     0.047918246   -0.69385349     0.034283303  
   4878000   0.051985881   -0.82313935     0.046662202   -0.69854864     0.024050854  
   4879000   0.053279112   -0.82174181     0.048106439   -0.69376827     0.019030919  
   4880000   0.052975545   -0.82206918     0.047805307   -0.69485182     0.010106685  
   4881000   0.0523942     -0.8235483      0.050233054   -0.69477465     0.020121243  
   4882000   0.052195732   -0.82188192     0.048588346   -0.69505049    -0.0039698207 
   4883000   0.051712479   -0.8223975      0.048239853   -0.69663897     0.00073918173
   4884000   0.05061207    -0.82404162     0.047576389   -0.70059611     0.015936875  
   4885000   0.052594571   -0.82335297     0.047741081   -0.69677094     0.022843497  
   4886000   0.052358127   -0.82373519     0.048524035   -0.69672463     0.056207803  
   4887000   0.050494848   -0.82342499     0.050622116   -0.69710947     0.012505691  
   4888000   0.052946556   -0.82460734     0.050218432   -0.69502031     0.039759106  
   4889000   0.050771871   -0.82258784     0.047143431   -0.69933574     0.016827119  
   4890000   0.051515456   -0.82301905     0.047935074   -0.69786065     0.0065303519 
   4891000   0.052026623   -0.82260061     0.046162139   -0.69844889     0.015445017  
   4892000   0.049513094   -0.8226038      0.047228674   -0.7011534      0.010076481  
   4893000   0.052074561   -0.82557056     0.049241569   -0.69826755    -0.0076939488 
   4894000   0.053251264   -0.82325814     0.046525952   -0.69690682    -0.005738569  
   4895000   0.049905969   -0.82205243     0.049992127   -0.69724965     0.016008929  
   4896000   0.051639622   -0.82239104     0.050438338   -0.69454324     0.014207829  
   4897000   0.051827135   -0.82287        0.049613973   -0.69556547     0.0086679547 
   4898000   0.052226822   -0.82140708     0.049040037   -0.69407735     0.025961526  
   4899000   0.051925694   -0.82561743     0.049186768   -0.69859237     0.015590501  
   4900000   0.05186146    -0.82317764     0.047037684   -0.69839795    -0.0043655885 
   4901000   0.053486056   -0.82108639     0.049320192   -0.69158887    -0.0067353424 
   4902000   0.050792242   -0.82569295     0.0513068     -0.69824694    -0.0036939224 
   4903000   0.052459657   -0.8238414      0.050159627   -0.69504306     0.011537937  
   4904000   0.052248387   -0.82183075     0.049591135   -0.6939176      0.023693952  
   4905000   0.052917677   -0.82114525     0.047522513   -0.69429744     0.020720737  
   4906000   0.049956702   -0.82455496     0.048341889   -0.70132636     0.018212686  
   4907000   0.049749956   -0.82210542     0.046997058   -0.70053157    -0.0029028897 
   4908000   0.051567799   -0.82256032     0.051332723   -0.6939258     -0.017339651  
   4909000   0.051876586   -0.8229829      0.049603427   -0.69561479     0.0040307234 
   4910000   0.052582897   -0.82401567     0.048925383   -0.69626683     0.02391528   
   4911000   0.052163281   -0.82352208     0.048491414   -0.69683622     0.026149586  
   4912000   0.051376009   -0.82307012     0.04994202    -0.69611381     0.0056938424 
   4913000   0.053342764   -0.82218174     0.051604804   -0.69061441    -0.0023975529 
   4914000   0.054526063   -0.82233        0.048253909   -0.69233977     0.019985685  
   4915000   0.053209418   -0.82153621     0.049577765   -0.69219581     0.00051713026
   4916000   0.0534014     -0.82185952     0.050180913   -0.69162818     0.009947905  
   4917000   0.052717794   -0.82174871     0.050550211   -0.69217283    -0.0080389099 
   4918000   0.054402343   -0.82322741     0.052189303   -0.68948724    -0.0040439439 
   4919000   0.052903312   -0.82104809     0.048423689   -0.69332063     0.0019018132 
   4920000   0.051387173   -0.82306227     0.049730471   -0.69630077    -0.004802188  
   4921000   0.052172483   -0.82124867     0.050991569   -0.69204887     0.022996207  
   4922000   0.051912018   -0.82256795     0.050231054   -0.6945191     -0.017370207  
   4923000   0.051321935   -0.82029036     0.050813887   -0.69254324     0.03019578   
   4924000   0.051088181   -0.82340467     0.048536915   -0.69828493     0.0032209213 
   4925000   0.051237702   -0.82240948     0.049312291   -0.69629022     0.021273818  
   4926000   0.052029051   -0.8219455      0.048367693   -0.69558458     0.021203833  
   4927000   0.052124809   -0.82248976     0.048697038   -0.69565596     0.037258293  
   4928000   0.050629595   -0.82358306     0.049949833   -0.69773783     0.019435581  
   4929000   0.050656443   -0.82402112     0.049466999   -0.69861848     0.012188246  
   4930000   0.050499513   -0.82233302     0.048510126   -0.69812249     0.017922411  
   4931000   0.053998311   -0.82340953     0.049499482   -0.69296484     0.0097494445 
   4932000   0.052134556   -0.82427663     0.049977388   -0.69614786     0.0019709861 
   4933000   0.050179541   -0.82306443     0.048127321   -0.69971636     0.016652799  
   4934000   0.050467344   -0.82285499     0.045227856   -0.70197496     0.034686598  
   4935000   0.052104062   -0.82352455     0.048457584   -0.69696129    -0.00083562326
   4936000   0.051806483   -0.8242446      0.049050165   -0.69753484    -0.019587146  
   4937000   0.052001991   -0.82300484     0.047145211   -0.69790697     0.012083631  
   4938000   0.051639949   -0.82396177     0.048161032   -0.69839079     0.010688988  
   4939000   0.053281704   -0.82354345     0.048664472   -0.69500799     5.7938216e-05
   4940000   0.053092015   -0.82306026     0.04805534    -0.69541827     0.022414787  
   4941000   0.05302773    -0.82225499     0.049735221   -0.69302949     0.019245219  
   4942000   0.051820091   -0.82230329     0.049171209   -0.69545209     0.0083055271 
   4943000   0.05271198    -0.82187565     0.048735736   -0.69412296     0.0005779198 
   4944000   0.05336121    -0.82128369     0.04921634    -0.69207717     0.0031591707 
   4945000   0.052412713   -0.82239222     0.051667003   -0.69215687     0.018045199  
   4946000   0.049423219   -0.82381592     0.05092338    -0.69880554     0.0059051687 
   4947000   0.052490358   -0.82420412     0.049055512   -0.69646387     0.00096867786
   4948000   0.051854969   -0.82276932     0.047276905   -0.69776015     0.040125087  
   4949000   0.04930331    -0.8231679      0.050524272   -0.69873638     0.011662228  
   4950000   0.052439016   -0.82449947     0.049570182   -0.69632151     0.030279677  
   4951000   0.05129157    -0.82159262     0.046710521   -0.69799438     0.025550509  
   4952000   0.050248343   -0.82296559     0.051577342   -0.69606436     0.025968534  
   4953000   0.051594341   -0.82201582     0.048159271   -0.69651497     0.042127306  
   4954000   0.051449042   -0.82281597     0.049005029   -0.69668717     0.024089918  
   4955000   0.051715358   -0.82363188     0.049939585   -0.69616931    -0.001735516  
   4956000   0.051728914   -0.82492046     0.048771857   -0.69860529     0.041817399  
   4957000   0.049676195   -0.8201619      0.048452942   -0.69724274     0.027970463  
   4958000   0.051341859   -0.8235021      0.044089852   -0.70244915     0.04404788   
   4959000   0.052207943   -0.82319759     0.050041561   -0.69489464     0.035178155  
   4960000   0.051537209   -0.82248432     0.049886652   -0.69534173     0.021056493  
   4961000   0.051159702   -0.82346137     0.05100553    -0.6957658      0.031303524  
   4962000   0.05328114    -0.82232194     0.050442311   -0.69200948     0.03423824   
   4963000   0.052495396   -0.8239138      0.050975444   -0.69424607     0.031983916  
   4964000   0.053874094   -0.82353012     0.048065762   -0.69470535     0.050217093  
   4965000   0.051398832   -0.82356867     0.050506651   -0.69601352     0.03473467   
   4966000   0.049986256   -0.821956       0.048558253   -0.69846674     0.033553949  
   4967000   0.050460138   -0.82391689     0.049455338   -0.69882018     0.051547     
   4968000   0.051229889   -0.82321788     0.052423417   -0.6939992      0.050127238  
   4969000   0.052454667   -0.82236553     0.048615657   -0.69511863     0.024803549  
   4970000   0.053533716   -0.8221739      0.04836482    -0.69356031     0.052887879  
   4971000   0.05146276    -0.82017252     0.048350418   -0.69467777     0.019775533  
   4972000   0.048814576   -0.82189929     0.049234761   -0.6994899      0.024443759  
   4973000   0.052868091   -0.82204631     0.047235599   -0.69555973     0.021851997  
   4974000   0.051949009   -0.82248437     0.048511635   -0.69609949     0.027220287  
   4975000   0.05125769    -0.82217669     0.050954087   -0.69438567     0.024860322  
   4976000   0.050319443   -0.82452388     0.050227073   -0.69886634     0.031568575  
   4977000   0.051945589   -0.82463073     0.049777966   -0.69698465     0.016739424  
   4978000   0.052015516   -0.82168547     0.048166275   -0.69554626     0.026645497  
   4979000   0.051075731   -0.82124195     0.046946739   -0.69773104     0.03853529   
   4980000   0.052755261   -0.82141268     0.048915045   -0.6934158      0.010868508  
   4981000   0.05093631    -0.82319759     0.050296575   -0.69654585     0.022261023  
   4982000   0.051837726   -0.8214285      0.046650489   -0.69707159     0.031587715  
   4983000   0.051836352   -0.82214251     0.04910596    -0.69533219     0.007573662  
   4984000   0.051531527   -0.82333574     0.048354288   -0.69773403     0.030191995  
   4985000   0.050591896   -0.82176752     0.048429937   -0.6974987      0.025092438  
   4986000   0.05229042    -0.82197353     0.049738818   -0.69384969     0.0061595781 
   4987000   0.053542062   -0.82274494     0.049263772   -0.69321989     0.012759013  
   4988000   0.051899783   -0.8214592      0.048808813   -0.69485094     0.0027595196 
   4989000   0.052344637   -0.82190153     0.046754721   -0.69668051     0.013441314  
   4990000   0.050684716   -0.82316203     0.049029369   -0.69815463     0.027048904  
   4991000   0.050766236   -0.82095147     0.047432138   -0.6974191      0.0079018559 
   4992000   0.05143713    -0.82363854     0.048109355   -0.69842326    -0.01533944   
   4993000   0.051887557   -0.82383627     0.048797244   -0.6972579      0.019019986  
   4994000   0.051074503   -0.82294398     0.048082017   -0.69829963     0.010504708  
   4995000   0.051544463   -0.82204518     0.047347657   -0.69743071     0.010645386  
   4996000   0.052013752   -0.82253471     0.048905021   -0.69565939     0.029136789  
   4997000   0.050844457   -0.82311159     0.050278473   -0.69661564     0.0028366668 
   4998000   0.052310185   -0.8223978      0.047815603   -0.69616754     0.011654373  
   4999000   0.050901597   -0.82337908     0.048322334   -0.69875361     0.015395412  
   5000000   0.050941627   -0.82189332     0.047973947   -0.69755623    -0.014028469  
   5001000   0.051679577   -0.8225831      0.04654011    -0.69857364     0.028890328  
   5002000   0.051753525   -0.82281652     0.049343779   -0.69589254    -0.0032627041 
   5003000   0.05198617    -0.82388563     0.052775886   -0.6931808      0.011777606  
   5004000   0.052647491   -0.8233702      0.046414941   -0.69803497     0.027958228  
   5005000   0.051424091   -0.82359325     0.050172168   -0.69633471     0.022727677  
   5006000   0.051896831   -0.82390656     0.047328916   -0.69878262     0.020041758  
   5007000   0.05275095    -0.82225779     0.047409474   -0.69577294     0.03557778   
   5008000   0.050941669   -0.82291586     0.049315764   -0.69723689     0.029012924  
   5009000   0.05292403    -0.82175943     0.047047486   -0.69537711     0.017415316  
   5010000   0.050549035   -0.82359012     0.049306735   -0.69850875     0.020933662  
   5011000   0.050031476   -0.82411946     0.050376324   -0.69874434     0.0090668352 
   5012000   0.051330333   -0.82278777     0.048726099   -0.69711584     0.010190348  
   5013000   0.053348064   -0.82480309     0.048755673   -0.69607695     0.012475554  
   5014000   0.050209892   -0.82195339     0.048461456   -0.69822568    -0.00010532578
   5015000   0.052644449   -0.82254243     0.04876977    -0.69485693     0.033213801  
   5016000   0.050986812   -0.82321022     0.048836137   -0.6979432     -0.011932573  
   5017000   0.05137162    -0.8238414      0.050800828   -0.69603285     0.0046799911 
   5018000   0.051988249   -0.82269539     0.047793377   -0.69696995    -0.00024044492
   5019000   0.050127686   -0.8232418      0.049694026   -0.69840475    -0.00010818122
   5020000   0.051741547   -0.82258779     0.048694113   -0.69633143     0.0074579474 
   5021000   0.051959261   -0.82282565     0.051093214   -0.69384383    -0.018118201  
   5022000   0.051405373   -0.82323083     0.049208771   -0.69696375    -0.0076169052 
   5023000   0.053354987   -0.82311536     0.047601367   -0.69553315    -0.0092480196 
   5024000   0.051588669   -0.82452956     0.050220745   -0.69697573     0.0099162198 
   5025000   0.052847195   -0.82207299     0.048513887   -0.69433945     0.0022829975 
   5026000   0.050295166   -0.82218213     0.050367966   -0.69642009    -0.0022551056 
   5027000   0.052443634   -0.8202722      0.047602562   -0.69405494     0.0096340513 
   5028000   0.05352047    -0.82121095     0.049255853   -0.69172619    -0.025927461  
   5029000   0.053052565   -0.8186189      0.045423508   -0.69366789     0.026219813  
   5030000   0.050994458   -0.82354335     0.050225474   -0.69687554    -0.002144058  
   5031000   0.050958704   -0.82072316     0.047619883   -0.69671454     0.015236262  
   5032000   0.051963772   -0.82046438     0.048354045   -0.69421497     0.019531658  
   5033000   0.05229232    -0.82316638     0.050524113   -0.69425439     0.015070844  
   5034000   0.052917731   -0.81997721     0.048455269   -0.69219655     0.018835453  
   5035000   0.05105625    -0.82137692     0.049650399   -0.69519155     0.015701594  
   5036000   0.051815379   -0.82130827     0.0492567     -0.69437865     0.029905853  
   5037000   0.050996248   -0.82178859     0.047830768   -0.6975128      0.024934798  
   5038000   0.051478034   -0.82387145     0.047321002   -0.69938321    -0.0023222105 
   5039000   0.049768575   -0.82152046     0.048038562   -0.6988772     -0.011426104  
   5040000   0.050821965   -0.82202325     0.048597456   -0.69724203     0.021612626  
   5041000   0.051997005   -0.82302003     0.049113349   -0.69596149     0.021596347  
   5042000   0.052987208   -0.82390862     0.051325099   -0.69315399     0.0075972439 
   5043000   0.054945671   -0.82054098     0.04888999    -0.68928566     0.050860395  
   5044000   0.053567691   -0.82212722     0.047590079   -0.69423744     0.047098552  
   5045000   0.052029444   -0.82089571     0.047278071   -0.69562382     0.012775321  
   5046000   0.051187041   -0.82338149     0.050257292   -0.69639317     0.020087783  
   5047000   0.052219857   -0.82187019     0.050483031   -0.69310791     0.019744581  
   5048000   0.054882106   -0.82076298     0.047230523   -0.69126241     0.0229964    
   5049000   0.052216708   -0.82331699     0.048216053   -0.69682641     0.0040687917 
   5050000   0.05062464    -0.82267978     0.049532533   -0.69725928     0.016255004  
   5051000   0.052705277   -0.82258038     0.047983799   -0.69558967     0.015666528  
   5052000   0.051966836   -0.82163589     0.046809026   -0.6969269      0.017036524  
   5053000   0.052351687   -0.82084754     0.048288397   -0.69408228     0.037728487  
   5054000   0.052689647   -0.8211363      0.049229312   -0.69292351     0.023212797  
   5055000   0.052068498   -0.82241624     0.048211962   -0.69615192     0.017460334  
   5056000   0.054065336   -0.82183755     0.047215025   -0.69357684     0.015421857  
   5057000   0.051069575   -0.82218496     0.053352397   -0.69227762     0.0074654791 
   5058000   0.052728166   -0.82273957     0.050197231   -0.69350112     0.014091782  
   5059000   0.053000246   -0.82218928     0.049354739   -0.69338546     0.0090731869 
   5060000   0.053500641   -0.81981932     0.047208114   -0.69241202     0.0095880052 
   5061000   0.050857761   -0.82085922     0.049841068   -0.69478072     0.015866777  
   5062000   0.05337603    -0.82135091     0.050395645   -0.69094287     0.006920074  
   5063000   0.049773804   -0.82214807     0.049527113   -0.69800841    -0.015403036  
   5064000   0.048872569   -0.82115571     0.050157714   -0.69773644     0.015133869  
   5065000   0.050231554   -0.82063917     0.0471165     -0.69822395    -0.0015587395 
   5066000   0.050526546   -0.82100257     0.049651926   -0.69560972     0.0053385113 
   5067000   0.0537678     -0.82360526     0.047830836   -0.69517476     0.0077964791 
   5068000   0.051822887   -0.82294056     0.049881703   -0.69537468     0.014146284  
   5069000   0.050780919   -0.82136515     0.049441707   -0.6958012      0.0056699752 
   5070000   0.053926145   -0.82144717     0.048465928   -0.69214421     0.021577285  
   5071000   0.050243843   -0.81846921     0.049047974   -0.6941041      0.0092788393 
   5072000   0.051585035   -0.82228512     0.049968968   -0.69498852     0.0040463193 
   5073000   0.051740037   -0.82157321     0.049616984   -0.69439624    -0.01077544   
   5074000   0.050792883   -0.82036556     0.048401805   -0.69582358     0.015432561  
   5075000   0.050894773   -0.82166333     0.047796199   -0.69757422     0.011897946  
   5076000   0.049954748   -0.8196136      0.048090398   -0.69663943    -0.0022030221 
   5077000   0.053268477   -0.82157202     0.047320964   -0.69439989     0.0019604495 
   5078000   0.049544968   -0.82183956     0.046791051   -0.70077901    -0.010410135  
   5079000   0.050417781   -0.82068903     0.047649791   -0.69746136     0.018951228  
   5080000   0.051444183   -0.82007012     0.049083723   -0.6938699      0.02538852   
   5081000   0.051622477   -0.81864291     0.047919703   -0.69333945     0.01773633   
   5082000   0.051685132   -0.82012073     0.049377665   -0.69326538     0.0075913766 
   5083000   0.050892956   -0.82049972     0.049998148   -0.69421139     0.020439558  
   5084000   0.052279264   -0.8206916      0.049906122   -0.69241718     0.019771439  
   5085000   0.052549769   -0.82031565     0.049025396   -0.69251646     0.011517951  
   5086000   0.051954791   -0.82120679     0.049943992   -0.69338089     0.010666639  
   5087000   0.052607843   -0.8215846      0.052586255   -0.69013749     0.012966144  
   5088000   0.050462517   -0.82075513     0.049842305   -0.69526789     0.032609083  
   5089000   0.050497938   -0.82071018     0.049708157   -0.69530399     0.0088132951 
   5090000   0.05139674    -0.82055471     0.045913937   -0.6975954      0.022497208  
   5091000   0.050884474   -0.82204433     0.047872399   -0.69789447     0.010846508  
   5092000   0.052153316   -0.82043428     0.04922645    -0.69302833     0.022163545  
   5093000   0.051828825   -0.82134572     0.04987249    -0.69378015     0.0091348185 
   5094000   0.052148368   -0.82125187     0.050293851   -0.69278593     0.0037511204 
   5095000   0.050997544   -0.82131486     0.047651427   -0.69721647    -0.0051775598 
   5096000   0.050852494   -0.8204967      0.048564365   -0.6957028      0.0041820202 
   5097000   0.053463535   -0.8202413      0.046417716   -0.69368002     0.018315855  
   5098000   0.052451361   -0.82080415     0.049597647   -0.69258022    -0.00035030624
   5099000   0.052904506   -0.82041473     0.047951298   -0.69315787     0.0034801847 
   5100000   0.051896017   -0.81955607     0.048506462   -0.6932558      0.013892451  
   5101000   0.052755752   -0.82237932     0.049162909   -0.69413383     0.0063334795 
   5102000   0.050994694   -0.81996678     0.050415244   -0.69310884     0.010359008  
   5103000   0.050445254   -0.82112357     0.048945787   -0.69655872    -0.0011274432 
   5104000   0.050007757   -0.82108887     0.052474066   -0.69365156     0.0024048726 
   5105000   0.053839627   -0.8210388      0.050141797   -0.69018966     0.0078557364 
   5106000   0.053329458   -0.81959245     0.048412354   -0.69123752     0.012974727  
   5107000   0.053623497   -0.81880149     0.047637926   -0.69078021     0.036443477  
   5108000   0.052366208   -0.82121545     0.047771762   -0.69494505     0.025320769  
   5109000   0.050219743   -0.81940441     0.048623615   -0.69549978     0.019623875  
   5110000   0.052837086   -0.82100871     0.049033846   -0.69277037     0.0082669021 
   5111000   0.051999001   -0.81925155     0.04933447    -0.6919689      0.0053792318 
   5112000   0.052739141   -0.82219872     0.050383752   -0.69275729     0.0024232783 
   5113000   0.051484423   -0.82051237     0.049030315   -0.69430525    -0.014993152  
   5114000   0.050371154   -0.8219571      0.051499967   -0.69494915    -0.0056342028 
   5115000   0.051364256   -0.8229222      0.048442862   -0.69748266     0.014544043  
   5116000   0.051575454   -0.82135442     0.046460764   -0.69758038     0.025986955  
   5117000   0.05329006    -0.82194079     0.047444274   -0.69461299    -0.00060177384
   5118000   0.050790776   -0.82134106     0.051061121   -0.69414293     0.02778318   
   5119000   0.053047688   -0.82197338     0.046644259   -0.69580892     0.015946369  
   5120000   0.05342787    -0.82191535     0.04810364    -0.69372161     0.0071835736 
   5121000   0.051294775   -0.82005672     0.047505075   -0.69565912     0.012267218  
   5122000   0.050689659   -0.82212697     0.049577566   -0.69656397     0.035149439  
   5123000   0.053609503   -0.82090378     0.048204862   -0.69233654    -0.016350236  
   5124000   0.051973985   -0.82226872     0.046273639   -0.6980844      0.041160607  
   5125000   0.050439701   -0.82248001     0.050826177   -0.6960431     -0.0021395659 
   5126000   0.051960311   -0.82322344     0.048403372   -0.69692988     0.017247269  
   5127000   0.050134978   -0.82230177     0.047184968   -0.69996285     0.0062144303 
   5128000   0.04996412    -0.8225467      0.049195555   -0.69845332     0.0011576864 
   5129000   0.052183525   -0.82195894     0.0480432     -0.69569095     0.0049615349 
   5130000   0.052354267   -0.82271166     0.048283354   -0.69594758    -0.0092020708 
   5131000   0.052621338   -0.82232833     0.048611389   -0.69483586    -0.0047817558 
   5132000   0.052239259   -0.82168973     0.048490691   -0.69489071     0.026576453  
   5133000   0.054100761   -0.82095387     0.048498511   -0.69135657     0.042023435  
   5134000   0.051757149   -0.82185456     0.049760234   -0.69450868     0.0052469158 
   5135000   0.052754099   -0.82110833     0.049113421   -0.69291481     0.01738512   
   5136000   0.052923165   -0.82196481     0.048274158   -0.69435712     0.0033775791 
   5137000   0.051647998   -0.81974527     0.048799555   -0.6935237      0.017069809  
   5138000   0.050599694   -0.82117309     0.051150813   -0.6941717      0.016866774  
   5139000   0.05199299    -0.82098621     0.050868302   -0.69217874     0.022379656  
   5140000   0.051251107   -0.82113248     0.050654304   -0.69365112     0.001123412  
   5141000   0.053753765   -0.82123088     0.049355095   -0.69129716     0.019565052  
   5142000   0.052993683   -0.82151539     0.049973865   -0.69210228     0.0049599422 
   5143000   0.052123408   -0.82253273     0.051255588   -0.69314247     0.0097206039 
   5144000   0.050835545   -0.82300719     0.050681191   -0.69612187     0.0046012543 
   5145000   0.052407086   -0.82192176     0.049403963   -0.69395789     0.0051994706 
   5146000   0.051461793   -0.82108615     0.049620613   -0.69432265     0.0018516999 
   5147000   0.053617217   -0.82179848     0.048944461   -0.69248008     0.016978637  
   5148000   0.052705549   -0.82155805     0.051629895   -0.69092084     0.036555519  
   5149000   0.052608157   -0.82171444     0.052145348   -0.69070776     0.0015684569 
   5150000   0.05129636    -0.82274038     0.050794021   -0.69505146     0.0030612695 
   5151000   0.052861283   -0.82386442     0.049502211   -0.69512144     0.02565742   
   5152000   0.051019354   -0.82002598     0.049723182   -0.69382314     0.029892967  
   5153000   0.053348715   -0.82147571     0.049765299   -0.69173897     0.00086349894
   5154000   0.053209339   -0.8231478      0.049281979   -0.69410331     0.013951657  
   5155000   0.052925221   -0.82098931     0.048211729   -0.69344097     0.02489963   
   5156000   0.053835836   -0.82183778     0.048083482   -0.69305265     0.00022406069
   5157000   0.050657855   -0.82149003     0.04829946    -0.69725281     0.015302191  
   5158000   0.052530672   -0.82147559     0.050931023   -0.69179939     0.037144633  
   5159000   0.053121267   -0.81920608     0.048804704   -0.69077088     0.027081907  
   5160000   0.051294373   -0.82145577     0.048603268   -0.69596058     0.039971019  
   5161000   0.054569634   -0.82031997     0.048766014   -0.68975231     0.0047548171 
   5162000   0.052440476   -0.81908801     0.050131725   -0.69034632     0.020306743  
   5163000   0.05211656    -0.81897824     0.047301524   -0.69355232     0.022279314  
   5164000   0.052029761   -0.8204592      0.046558931   -0.69590598     0.029645232  
   5165000   0.050385293   -0.81987433     0.04974651    -0.69459864     0.020343528  
   5166000   0.051578279   -0.82011153     0.048895175   -0.69389885     0.0078584449 
   5167000   0.050590495   -0.82010241     0.048921083   -0.69534454     0.0027420708 
   5168000   0.052420561   -0.82054897     0.048726884   -0.69324198     0.030791923  
   5169000   0.051656094   -0.81853721     0.049075625   -0.69202744     0.021394873  
   5170000   0.053316638   -0.8192956      0.04878833    -0.69058391     0.025337149  
   5171000   0.050252286   -0.8210043      0.050625736   -0.69504876     0.002796603  
   5172000   0.05038002    -0.82046622     0.048077662   -0.69686728     0.0089075034 
   5173000   0.050202929   -0.82152777     0.050721565   -0.6955504      0.012091204  
   5174000   0.052404994   -0.82067588     0.05132182    -0.69079728     0.033738087  
   5175000   0.050509305   -0.82030603     0.050293014   -0.69429794     0.014241959  
   5176000   0.050568196   -0.81884706     0.050442917   -0.69260079     0.018636593  
   5177000   0.050750856   -0.81961714     0.049857314   -0.69368265     0.015870141  
   5178000   0.05193774    -0.82175716     0.051760799   -0.69214001    -0.016895881  
   5179000   0.052083147   -0.82039142     0.049588194   -0.69272891     0.0062127725 
   5180000   0.051473187   -0.82054492     0.049360487   -0.69402446     0.026382245  
   5181000   0.051818727   -0.81956663     0.047859008   -0.69402968     0.0112069    
   5182000   0.051412669   -0.82069366     0.050461233   -0.69316318     0.028040879  
   5183000   0.048972148   -0.81948244     0.0495934     -0.69647821     0.021256379  
   5184000   0.051723505   -0.81969365     0.046372918   -0.69578553     0.030404698  
   5185000   0.05222285    -0.82177411     0.048007612   -0.69548276    -0.0067079924 
   5186000   0.052322809   -0.81868175     0.047287065   -0.69296111     0.0175475    
   5187000   0.050452803   -0.82143945     0.049962503   -0.69584657     0.027373171  
   5188000   0.053178186   -0.81996999     0.050138882   -0.69011529     0.047125744  
   5189000   0.05140895    -0.81835833     0.047711944   -0.69358271     0.01793546   
   5190000   0.049229483   -0.81886952     0.047810292   -0.69726265     0.043608164  
   5191000   0.051103079   -0.81982784     0.047483461   -0.69573922     0.0047855955 
   5192000   0.051501811   -0.82021061     0.04863416    -0.69437358     0.029172157  
   5193000   0.050821138   -0.82005584     0.050115014   -0.6937583      0.036942256  
   5194000   0.052789821   -0.82042212     0.049112998   -0.69217547     0.010810921  
   5195000   0.05260294    -0.82060298     0.047526272   -0.6942232      0.028851769  
   5196000   0.052916515   -0.8192769      0.048863393   -0.69108995     0.013856695  
   5197000   0.052690155   -0.82127692     0.049931807   -0.69236087     0.025791755  
   5198000   0.054155422   -0.81988759     0.048001016   -0.69070585     0.0086640853 
   5199000   0.050715612   -0.8207592      0.050683065   -0.69405179     0.034420009  
   5200000   0.052364364   -0.82085879     0.048938575   -0.69342435     0.033013084  
   5201000   0.051262256   -0.81966295     0.048038408   -0.69478077     0.03260054   
   5202000   0.053482035   -0.82201072     0.048269371   -0.69357005    -0.0017608036 
   5203000   0.050990758   -0.82053048     0.04761722    -0.69647647     0.030407117  
   5204000   0.053179399   -0.81952814     0.046869358   -0.69294115     0.0011209699 
   5205000   0.053260796   -0.8200988      0.048240142   -0.692019       0.037680557  
   5206000   0.0511508     -0.81983913     0.049664359   -0.69349807     0.011792617  
   5207000   0.051622564   -0.82158041     0.050413168   -0.69378335     0.023345638  
   5208000   0.049007245   -0.82146407     0.048323256   -0.69967737     0.037582522  
   5209000   0.051042007   -0.82053345     0.046152917   -0.69786692     0.050177019  
   5210000   0.050046836   -0.82104779     0.047452749   -0.69857322     0.026532772  
   5211000   0.049766944   -0.82129249     0.051994753   -0.69469548     0.021357098  
   5212000   0.051243019   -0.82042907     0.049079877   -0.69453426     0.020457244  
   5213000   0.05095433    -0.82119478     0.049410276   -0.69540232     0.027080075  
   5214000   0.051250527   -0.81928131     0.048492551   -0.69396257     0.018409896  
   5215000   0.051414844   -0.81852425     0.047634047   -0.6938177     -0.0055374386 
   5216000   0.053069446   -0.82114171     0.048714864   -0.69287404     0.0087571352 
   5217000   0.050693515   -0.81983102     0.048838784   -0.69500102     0.042583449  
   5218000   0.052387505   -0.82132818     0.049209625   -0.69358799     0.047112053  
   5219000   0.051377651   -0.81973125     0.048202334   -0.69451216     0.022175512  
   5220000   0.050582424   -0.8199889      0.049312414   -0.6948518      0.02549192   
   5221000   0.052053355   -0.82073553     0.050288899   -0.69241697     0.033675902  
   5222000   0.051806021   -0.81797881     0.046721785   -0.69359813     0.050696289  
   5223000   0.051520128   -0.81844293     0.048651624   -0.69256097     0.070237301  
   5224000   0.053390103   -0.81986343     0.04731375    -0.69251619     0.044626415  
   5225000   0.051258884   -0.82045418     0.049411065   -0.6942044      0.0096648692 
   5226000   0.052547927   -0.82085841     0.051954062   -0.69013331     0.061801405  
   5227000   0.051245177   -0.81868307     0.04825947    -0.69360543     0.044486374  
   5228000   0.050901972   -0.81685768     0.049314484   -0.6912395      0.028052     
   5229000   0.051901171   -0.81992619     0.049231406   -0.69289326     0.019427558  
   5230000   0.051803966   -0.82031919     0.048550004   -0.69411337     0.034599385  
   5231000   0.053217625   -0.81818972     0.046351219   -0.69206356     0.043289783  
   5232000   0.051770101   -0.82073034     0.049367839   -0.69375745     0.060482006  
   5233000   0.05189085    -0.82088275     0.05063736    -0.69245933     0.037900215  
   5234000   0.051523467   -0.82025846     0.048481208   -0.69454191     0.016506485  
   5235000   0.052469607   -0.81952723     0.048977774   -0.69189582     0.039757387  
   5236000   0.05078574    -0.82023953     0.048919484   -0.69519059     0.025377727  
   5237000   0.052985605   -0.81999303     0.049842098   -0.6907238      0.043423619  
   5238000   0.051914043   -0.8175833      0.049419019   -0.69034346     0.01978833   
   5239000   0.052947152   -0.82094472     0.050207272   -0.69136796     0.011539477  
   5240000   0.052201545   -0.81967051     0.049624706   -0.691794       0.015439574  
   5241000   0.051718987   -0.82140831     0.049106934   -0.69477294     0.039655113  
   5242000   0.053013391   -0.82059907     0.049662693   -0.6914676      0.014930983  
   5243000   0.053679919   -0.82114266     0.048388303   -0.69228642     0.033661219  
   5244000   0.053120834   -0.81874796     0.049139718   -0.6899784      0.04058397   
   5245000   0.05150838    -0.82009221     0.047150476   -0.69572901     0.054703287  
   5246000   0.05068748    -0.81946317     0.048309944   -0.69517106     0.046036007  
   5247000   0.052805412   -0.81923238     0.048950113   -0.69112525     0.031161552  
   5248000   0.051527283   -0.81989731     0.047882177   -0.69477407     0.041405243  
   5249000   0.050627575   -0.82153141     0.049792845   -0.6958462      0.061494806  
   5250000   0.050702904   -0.82042764     0.048383534   -0.69603882     0.042284358  
   5251000   0.050218249   -0.82074485     0.04964174    -0.69582433     0.030737944  
   5252000   0.051670915   -0.82054449     0.048928571   -0.69415955     0.066270857  
   5253000   0.050590494   -0.82041448     0.048171382   -0.69640631     0.04158384   
   5254000   0.050719858   -0.82019475     0.047749231   -0.69641482     0.040330844  
   5255000   0.051815181   -0.82003217     0.048417859   -0.69394169     0.029058919  
   5256000   0.049758706   -0.82006756     0.050177061   -0.69530059     0.017698422  
   5257000   0.050478987   -0.81935493     0.050330521   -0.69335478     0.072960711  
   5258000   0.05299163    -0.81905112     0.04787482    -0.69174014     0.05737705   
   5259000   0.051069483   -0.82022563     0.050574939   -0.69309588     0.036533547  
   5260000   0.052270083   -0.8192577      0.049688529   -0.69121463     0.054546336  
   5261000   0.050202799   -0.81930987     0.049331447   -0.6947228      0.039141855  
   5262000   0.051819328   -0.82016138     0.049383268   -0.69309927     0.054925091  
   5263000   0.051756611   -0.82168263     0.050006816   -0.69409098     0.031328731  
   5264000   0.051075852   -0.8211591      0.04924449    -0.69535026     0.0206685    
   5265000   0.0513035     -0.82130387     0.048200037   -0.69619823     0.024191379  
   5266000   0.052131381   -0.8191158      0.049842454   -0.69112672     0.042914576  
   5267000   0.053017125   -0.8202514      0.049991701   -0.69078532     0.045838936  
   5268000   0.052292142   -0.81955517     0.047546714   -0.69362085     0.048306584  
   5269000   0.053201031   -0.82121206     0.050041129   -0.69142087     0.041211929  
   5270000   0.050924317   -0.81855969     0.04773674    -0.69448576     0.02389252   
   5271000   0.05186191    -0.82165117     0.048932457   -0.69497603     0.030837001  
   5272000   0.050541497   -0.8200399      0.050779913   -0.69349665     0.021594126  
   5273000   0.052248787   -0.81899927     0.048769564   -0.69190708     0.035453803  
   5274000   0.053532095   -0.81789324     0.048334757   -0.68931214     0.012977925  
   5275000   0.051275342   -0.81911531     0.050011303   -0.69224062     0.028317255  
   5276000   0.05065613    -0.81915856     0.050582376   -0.69264101     0.01978114   
   5277000   0.051750789   -0.82127891     0.049034409   -0.69466839     0.01776897   
   5278000   0.052693166   -0.81976238     0.051174017   -0.6895996     -0.015068466  
   5279000   0.054266641   -0.82007989     0.050101676   -0.68863077    -0.018863762  
   5280000   0.052933339   -0.82165826     0.048741185   -0.6935683      0.012831792  
   5281000   0.053212513   -0.81974816     0.051375463   -0.68860543     0.029478924  
   5282000   0.053491137   -0.82150008     0.049362639   -0.6919525      0.034208117  
   5283000   0.053220026   -0.82092178     0.050945039   -0.69019821    -0.011121305  
   5284000   0.052876553   -0.82116422     0.049613199   -0.69228736     0.040444585  
   5285000   0.052264611   -0.82090184     0.050568866   -0.69198664     0.0046835409 
   5286000   0.050591644   -0.82003684     0.050890901   -0.69330744     0.025187835  
   5287000   0.053066803   -0.81995583     0.048619766   -0.69178722    -0.0033560194 
   5288000   0.053138255   -0.82174706     0.05202756    -0.69006354     0.0099049356 
   5289000   0.052120909   -0.82057468     0.047840469   -0.69460328    -0.007593049  
   5290000   0.053113603   -0.82192746     0.048576739   -0.69373172     0.018628611  
   5291000   0.051710462   -0.81956567     0.049219023   -0.69283099     0.0091074887 
   5292000   0.052293313   -0.81882185     0.04836362    -0.69206887    -0.0038749144 
   5293000   0.051606771   -0.82203016     0.047709141   -0.6969608      0.012778087  
   5294000   0.052137252   -0.81851344     0.047259558   -0.69309846     0.012886846  
   5295000   0.052733378   -0.82173655     0.049246421   -0.6934411      0.0098834408 
   5296000   0.053184135   -0.82060914     0.051090549   -0.68979385    -0.0060425501 
   5297000   0.052905846   -0.82046577     0.047646349   -0.69351185     0.026710502  
   5298000   0.049876616   -0.82109463     0.046332244   -0.69999573     0.032882441  
   5299000   0.050268115   -0.81981714     0.045986624   -0.69847699     0.018258719  
   5300000   0.051293648   -0.81956864     0.048792071   -0.69388573    -0.0098186633 
   5301000   0.050153798   -0.82060809     0.048048489   -0.69737744     0.049999498  
   5302000   0.051420763   -0.82131933     0.047161825   -0.69707613     0.032782055  
   5303000   0.051599692   -0.820212       0.049476958   -0.69338544     0.020874116  
   5304000   0.051240973   -0.82121364     0.048816702   -0.69558507     0.00034756134
   5305000   0.051364692   -0.82145187     0.047590037   -0.6968645      0.01485657   
   5306000   0.050133356   -0.81984848     0.048439797   -0.69625716    -0.0042693785 
   5307000   0.051116923   -0.8218359      0.047314763   -0.69789522     0.0094635239 
   5308000   0.050212327   -0.82189859     0.051185066   -0.69544362     0.033537586  
   5309000   0.050543658   -0.82010121     0.049043058   -0.69529158     0.01821406   
   5310000   0.053979045   -0.81956346     0.049081201   -0.68956593     0.013690657  
   5311000   0.052031934   -0.82017259     0.048943379   -0.69323166     0.0008751085 
   5312000   0.054447587   -0.81986324     0.047627198   -0.69061735    -0.0076231515 
   5313000   0.051654158   -0.82096105     0.048558952   -0.69497085     0.0023649548 
   5314000   0.052844304   -0.81909574     0.047377166   -0.69250326     0.026910011  
   5315000   0.052661036   -0.81905773     0.047996875   -0.69212026     0.02595414   
   5316000   0.050827065   -0.8213846      0.048286569   -0.69690663     0.025326003  
   5317000   0.051971453   -0.82032641     0.04859298    -0.69382654     0.025513052  
   5318000   0.051289501   -0.81961907     0.048288325   -0.69444613     0.013364495  
   5319000   0.05222014    -0.82037227     0.048103943   -0.69398865     0.0048958769 
   5320000   0.051245212   -0.82224648     0.04766165    -0.69776661     0.011038957  
   5321000   0.050924054   -0.8207461      0.047359249   -0.69705006     0.024687768  
   5322000   0.052824573   -0.81866528     0.047550362   -0.69192918     0.024530773  
   5323000   0.050814583   -0.82035478     0.050614872   -0.69356721     0.02383141   
   5324000   0.05156244    -0.82091079     0.051400333   -0.6922167     -0.0030971761 
   5325000   0.051370913   -0.82138631     0.050111646   -0.69426801     0.0096215732 
   5326000   0.051253953   -0.81983659     0.049315795   -0.69368947     0.024536057  
   5327000   0.052655909   -0.81983986     0.050050301   -0.69085666     0.034196484  
   5328000   0.051687238   -0.81950638     0.048453314   -0.69357223     0.06299523   
   5329000   0.051546721   -0.81954972     0.047405961   -0.69487356     0.018647158  
   5330000   0.0521977     -0.81865346     0.047977657   -0.69242976     0.040618622  
   5331000   0.050968192   -0.81948797     0.049163643   -0.69392136     0.033255836  
   5332000   0.054036518   -0.82096927     0.048236632   -0.69173016     0.048694545  
   5333000   0.053023517   -0.82008953     0.050798651   -0.68980691     0.027539097  
   5334000   0.051499426   -0.82067785     0.049778379   -0.69370017     0.01729755   
   5335000   0.051704109   -0.82115049     0.05094896    -0.6926954      0.00029845793
   5336000   0.052152541   -0.81876208     0.049178194   -0.69140554     0.037874488  
   5337000   0.052362037   -0.82023111     0.048160999   -0.69357773     0.032695832  
   5338000   0.051104963   -0.82147157     0.050430391   -0.69443319     0.026506762  
   5339000   0.05074021    -0.81960563     0.048536505   -0.69500791     0.033234797  
   5340000   0.052015724   -0.82082526     0.048154214   -0.6946978      0.033292001  
   5341000   0.050787521   -0.81898135     0.050118777   -0.69273044     0.015374884  
   5342000   0.051017289   -0.81981375     0.048892788   -0.6944444      0.032693095  
   5343000   0.050163328   -0.82100246     0.049686713   -0.6961193      0.0051056453 
   5344000   0.051894364   -0.81906478     0.047385748   -0.6938877      0.030986111  
   5345000   0.053067163   -0.8184319      0.046872721   -0.69200979     0.044522951  
   5346000   0.050982267   -0.81729283     0.046361863   -0.69450691     0.029904769  
   5347000   0.051390246   -0.82121301     0.050262553   -0.69391482     0.0044759135 
   5348000   0.051426586   -0.8199693      0.048009033   -0.69487015    -0.0085283099 
   5349000   0.051882105   -0.82042169     0.050126175   -0.69252257     0.0077265225 
   5350000   0.051646631   -0.81788096     0.050836693   -0.6896243      0.011644338  
   5351000   0.052946373   -0.82199823     0.052469884   -0.69016003     0.013032256  
   5352000   0.053438197   -0.82050736     0.048603176   -0.69179861     0.038934686  
   5353000   0.05347947    -0.82028986     0.048432899   -0.69168951     0.033556458  
   5354000   0.052219067   -0.82148777     0.049636189   -0.69357351     0.023374928  
   5355000   0.051311367   -0.82112265     0.048586942   -0.69561831     0.026042944  
   5356000   0.049739114   -0.81952279     0.049780415   -0.69518183     0.022286074  
   5357000   0.0505153     -0.82074206     0.049697813   -0.69532018     0.016091617  
   5358000   0.053119792   -0.82042238     0.049049737   -0.69174436     0.017039939  
   5359000   0.050805704   -0.81914418     0.050427719   -0.69255707    -0.0017827818 
   5360000   0.0507885     -0.81898663     0.049475946   -0.69337709     0.026441423  
   5361000   0.051071572   -0.8205019      0.049775246   -0.69416872     0.005636376  
   5362000   0.051231787   -0.81865203     0.05049372    -0.69136021     0.045797141  
   5363000   0.050377462   -0.81952362     0.049607777   -0.69439841     0.02034021   
   5364000   0.051424587   -0.81982854     0.048530418   -0.69421101     0.010435538  
   5365000   0.052773591   -0.81878475     0.04851685    -0.69115858     0.021267314  
   5366000   0.05301442    -0.82019378     0.049711984   -0.69101147     0.013863281  
   5367000   0.05105612    -0.82110469     0.051528068   -0.69304185    -0.0038226169 
   5368000   0.053739903   -0.8202398      0.050005032   -0.68967692     0.0030075051 
   5369000   0.051805668   -0.81827505     0.052170762   -0.68844592    -0.0052028455 
   5370000   0.051495587   -0.81947998     0.048403837   -0.6938826      0.0018367589 
   5371000   0.052575926   -0.81960442     0.047713191   -0.69307822     0.013822218  
   5372000   0.053641009   -0.81966683     0.049454386   -0.68980284     0.0020853873 
   5373000   0.049647595   -0.81945545     0.04962924    -0.69540286     0.050496177  
   5374000   0.052357543   -0.8208141      0.050002294   -0.69232616     0.02369795   
   5375000   0.051921685   -0.8199735      0.051966359   -0.69017487     0.0018109253 
   5376000   0.052431837   -0.81899145     0.051878793   -0.68851564     0.017257469  
   5377000   0.05169974    -0.81939681     0.049362808   -0.69253443     0.0080677855 
   5378000   0.050429349   -0.82134713     0.049551244   -0.69620067     0.016715271  
   5379000   0.053083162   -0.81904741     0.048995578   -0.69047846     0.020495289  
   5380000   0.053300191   -0.82051228     0.050161258   -0.69045232     0.024849021  
   5381000   0.051444901   -0.81887013     0.049162207   -0.69259036    -0.0011958864 
   5382000   0.050224458   -0.81976378     0.050306816   -0.69416889     0.023607391  
   5383000   0.052040164   -0.82106604     0.047453283   -0.69560287     0.018667545  
   5384000   0.051513539   -0.82123285     0.048884837   -0.69512756     0.031371745  
   5385000   0.05015347    -0.81914015     0.049425276   -0.69453321     0.034879897  
   5386000   0.05166832    -0.81882584     0.048888342   -0.69248502    -0.014102376  
   5387000   0.052670954   -0.81817933     0.050020055   -0.68920381     0.015908858  
   5388000   0.054598595   -0.81955586     0.050159268   -0.68755154     0.0140702    
   5389000   0.052479605   -0.81924195     0.049942368   -0.69063096     0.0086041787 
   5390000   0.052178712   -0.81913938     0.049484863   -0.69143694    -0.0062490758 
   5391000   0.051160539   -0.82005027     0.05180541    -0.69155356     0.016896428  
   5392000   0.052421219   -0.81954167     0.049136204   -0.69182437     0.014968616  
   5393000   0.05128849    -0.81863809     0.048122499   -0.69363249     0.01064518   
   5394000   0.052021585   -0.81800099     0.047494077   -0.69252488     0.013231611  
   5395000   0.051428122   -0.82012518     0.048214627   -0.69481814     0.015019009  
   5396000   0.052618141   -0.8204747      0.048380727   -0.69321769     0.01281656   
   5397000   0.050546547   -0.81993678     0.049897426   -0.69426845     0.018167869  
   5398000   0.052775062   -0.82028798     0.048570069   -0.69260639     0.016195973  
   5399000   0.052110415   -0.82013758     0.048960633   -0.69306175     0.017529554  
   5400000   0.051213956   -0.81945746     0.049742241   -0.69294384     0.0041904927 
   5401000   0.051376737   -0.82014669     0.046416325   -0.69671498     0.0019687681 
   5402000   0.049457087   -0.82042658     0.049751605   -0.69653721     0.00139588   
   5403000   0.05055804    -0.8190506      0.050867285   -0.69239518     0.019353001  
   5404000   0.052269986   -0.82026285     0.048321166   -0.69358728     0.015887396  
   5405000   0.052132351   -0.82052343     0.049832601   -0.69254275     0.010414342  
   5406000   0.05323925    -0.8195037      0.050103287   -0.68959306    -0.0065421879 
   5407000   0.052472067   -0.82044862     0.051577055   -0.69021424     0.0093425153 
   5408000   0.052917181   -0.8214327      0.05009746    -0.69201068     0.0091266021 
   5409000   0.051721642   -0.81922365     0.049053419   -0.69263783     0.0066651674 
   5410000   0.051734405   -0.82103842     0.051065676   -0.6924212      0.010444471  
   5411000   0.050584735   -0.82150138     0.052166286   -0.69350694    -0.011213139  
   5412000   0.051687042   -0.82291599     0.050042619   -0.69539282    -0.0078401184 
   5413000   0.051839053   -0.81874834     0.049538423   -0.69150151     0.014707615  
   5414000   0.050547885   -0.8203039      0.048213464   -0.69631753     0.0097484118 
   5415000   0.051929476   -0.82120409     0.049740191   -0.69361994     0.0014659379 
   5416000   0.052530721   -0.82000948     0.050903603   -0.69036063    -0.0069003738 
   5417000   0.052785353   -0.81985719     0.050525816   -0.69020442    -0.0095553382 
   5418000   0.050714365   -0.81924119     0.049006831   -0.69421189     0.019595477  
   5419000   0.050669552   -0.81875967     0.048162844   -0.69464153     0.0011183637 
   5420000   0.052091998   -0.81956366     0.048217114   -0.69325896     0.024377633  
   5421000   0.051597992   -0.82093513     0.047365135   -0.69622294     0.0058642464 
   5422000   0.051762015   -0.81893122     0.04865815    -0.69268014     0.019803214  
   5423000   0.051703963   -0.82006255     0.048555499   -0.69400114     0.010715076  
   5424000   0.051962543   -0.8202399      0.049316423   -0.69302995     0.022814729  
   5425000   0.04977671    -0.82010779     0.049490346   -0.69600055     0.0051844486 
   5426000   0.049680544   -0.81947132     0.050264139   -0.69473444    -0.00036197602
   5427000   0.051092586   -0.82088464     0.048506805   -0.6957884      0.006102416  
   5428000   0.050044976   -0.82131124     0.048082868   -0.69820934    -0.011956002  
   5429000   0.050934948   -0.82072264     0.04874543    -0.69562408    -0.0069357953 
   5430000   0.051276292   -0.82131711     0.048389624   -0.69606267    -0.0022469404 
   5431000   0.049959492   -0.82008074     0.049387608   -0.69580225     0.0072187394 
   5432000   0.051178103   -0.82052043     0.048406383   -0.69539642     0.0073205406 
   5433000   0.051461298   -0.82105629     0.048662512   -0.69525163    -0.012067096  
   5434000   0.051819353   -0.82126536     0.048796077   -0.6947904     -0.012924858  
   5435000   0.050598548   -0.82059508     0.050200599   -0.69454563     0.0043543433 
   5436000   0.050994339   -0.8202644      0.050451791   -0.69337045     0.01917898   
   5437000   0.051514501   -0.82186443     0.048231769   -0.69641077     0.017091105  
   5438000   0.051084224   -0.8213598      0.049007094   -0.69577581     0.010029538  
   5439000   0.049764783   -0.81983741     0.050139697   -0.6950987      0.013677651  
   5440000   0.05073111    -0.82193779     0.050968207   -0.69492201    -0.031706466  
   5441000   0.05076727    -0.82012732     0.049660406   -0.69436514     0.0030213091 
   5442000   0.051215853   -0.82029511     0.049234673   -0.69428622     0.01294104   
   5443000   0.050884304   -0.82116454     0.050116646   -0.69477069    -0.021076279  
   5444000   0.050043233   -0.821377       0.050706053   -0.69565452    -0.0064271224 
   5445000   0.052722306   -0.82057167     0.049822901   -0.69171634    -0.001735924  
   5446000   0.053089037   -0.82111128     0.049789442   -0.69173966    -0.0087542848 
   5447000   0.050917703   -0.82185522     0.050425133   -0.69510281    -0.0049327911 
   5448000   0.050036104   -0.81976816     0.047371194   -0.69739123     0.003668303  
   5449000   0.049972642   -0.82062756     0.04950893    -0.69620803     0.015320802  
   5450000   0.050459138   -0.82109185     0.046923684   -0.69852829    -0.021744426  
   5451000   0.052173247   -0.82064669     0.046891102   -0.69554621     0.018179888  
   5452000   0.051804241   -0.82002729     0.048994211   -0.69337685     0.027178707  
   5453000   0.051617386   -0.82059792     0.049515502   -0.69370629    -0.00036347556
   5454000   0.051881289   -0.82007598     0.048818545   -0.69348571     0.0083486008 
   5455000   0.051437959   -0.82229297     0.048589678   -0.69659613     0.017907502  
   5456000   0.049516946   -0.82005601     0.047368424   -0.69846009     0.013174442  
   5457000   0.051789572   -0.82086879     0.048474878   -0.69475968    -0.0081163996 
   5458000   0.051688478   -0.81910762     0.049153238   -0.69247169     0.0023613745 
   5459000   0.052089062   -0.81973979     0.050504004   -0.6911526      0.020574094  
   5460000   0.053617144   -0.81996606     0.053241545   -0.68635069     0.0060057692 
   5461000   0.050010558   -0.81891161     0.048083192   -0.69586098     0.022606555  
   5462000   0.052416722   -0.8195414      0.049449779   -0.69151727    -0.0037836368 
   5463000   0.051621359   -0.81663387     0.048102937   -0.69114885     0.012024298  
   5464000   0.051534922   -0.81772946     0.048834943   -0.69164201     0.041244963  
   5465000   0.050799529   -0.81879286     0.049352589   -0.69329014     0.025052321  
   5466000   0.049612672   -0.81902288     0.0489953     -0.69565659     0.030456833  
   5467000   0.052059984   -0.81934106     0.049402817   -0.69189865     0.033556758  
   5468000   0.051911927   -0.8179936      0.049085401   -0.69109055     0.016584904  
   5469000   0.051624207   -0.81929062     0.047779182   -0.69412509     0.014127556  
   5470000   0.051249725   -0.81930077     0.04910403    -0.69337175     0.023946956  
   5471000   0.051395134   -0.81997842     0.050621166   -0.69231429     0.0041988526 
   5472000   0.053765827   -0.81835147     0.052034569   -0.68572019     0.017459531  
   5473000   0.053803921   -0.81991474     0.048792813   -0.69046812     0.023520079  
   5474000   0.052529336   -0.81910101     0.051687282   -0.68867056     0.02424694   
   5475000   0.053613969   -0.82008186     0.050044715   -0.68966807     0.0045054981 
   5476000   0.052442823   -0.81987121     0.049757583   -0.69150014     0.0053609238 
   5477000   0.051191155   -0.81883054     0.048392543   -0.69370081     0.016199994  
   5478000   0.050950673   -0.8184462      0.047407619   -0.69466188     0.0039801069 
   5479000   0.05167277    -0.81802343     0.049181448   -0.69138283     0.016280198  
   5480000   0.053692856   -0.8181835      0.048127028   -0.68956915     0.032976103  
   5481000   0.052338125   -0.81636297     0.051459024   -0.68644741     0.0067930212 
   5482000   0.051075072   -0.8175709      0.049736663   -0.69127106     0.029154173  
   5483000   0.052117111   -0.81868163     0.047988575   -0.69256782     0.01703248   
   5484000   0.052833216   -0.81877078     0.047945883   -0.6916262      0.03288985   
   5485000   0.051821498   -0.81764929     0.047973267   -0.69199392     0.013789021  
   5486000   0.053384816   -0.81736524     0.048145837   -0.68919385     0.024029776  
   5487000   0.051934072   -0.81908017     0.048221094   -0.69300823     0.0071770918 
   5488000   0.052571068   -0.81803531     0.051202517   -0.68802706     0.035037038  
   5489000   0.050885663   -0.81958648     0.048502583   -0.69480465     0.029987856  
   5490000   0.052403076   -0.81905114     0.050352018   -0.69014522     0.018623352  
   5491000   0.053246555   -0.8191261      0.049678952   -0.68962885     0.036606424  
   5492000   0.050720068   -0.81669797     0.049077826   -0.69158913     0.026379355  
   5493000   0.050954548   -0.81911167     0.049269489   -0.69345967     0.042735942  
   5494000   0.051623114   -0.82061736     0.048968581   -0.69426407     0.058519832  
   5495000   0.052653037   -0.820402       0.050699723   -0.69077368     0.042315248  
   5496000   0.050325105   -0.81894902     0.05009994    -0.69341012     0.025906314  
   5497000   0.048834229   -0.81961897     0.05052838    -0.6958865      0.032059562  
   5498000   0.051260625   -0.81818326     0.049596069   -0.69174586     0.020216119  
   5499000   0.052108128   -0.81869326     0.047650331   -0.69293116     0.02712183   
   5500000   0.051962763   -0.8179861      0.049191559   -0.69090068     0.035170099  
Loop time of 1763.38 on 8 procs for 5000000 steps with 1550 atoms

Performance: 244983.617 tau/day, 2835.459 timesteps/s, 4.395 Matom-step/s
94.2% CPU use with 8 MPI tasks x 1 OpenMP threads

MPI task timing breakdown:
Section |  min time  |  avg time  |  max time  |%varavg| %total
---------------------------------------------------------------
Pair    | 211.58     | 300.77     | 434.44     | 424.6 | 17.06
Bond    | 44.446     | 54.386     | 68.855     | 111.7 |  3.08
Neigh   | 0.98186    | 0.98217    | 0.98256    |   0.0 |  0.06
Comm    | 217.02     | 361        | 456.34     | 415.6 | 20.47
Output  | 12.747     | 12.969     | 13.147     |   3.9 |  0.74
Modify  | 1013.8     | 1017.9     | 1020.9     |   9.0 | 57.72
Other   |            | 15.38      |            |       |  0.87

Nlocal:         193.75 ave         410 max          45 min
Histogram: 1 1 2 1 0 1 0 1 0 1
Nghost:          555.5 ave         678 max         426 min
Histogram: 1 1 0 0 2 1 1 0 1 1
Neighs:              0 ave           0 max           0 min
Histogram: 8 0 0 0 0 0 0 0 0 0
FullNghs:         7821 ave       17650 max        2177 min
Histogram: 1 3 1 0 1 0 0 1 0 1

Total # of neighbors = 62568
Ave neighs/atom = 40.366452
Ave special neighs/atom = 2.1612903
Neighbor list builds = 1793
Dangerous builds = 0

# Write data for deformation

write_restart ${Dir}/${file6_name}
write_restart /home/franvt/GitRepos/molDynLammps/polymericGels/gel-bonds-1/data/0.050.30.05500-2026-01-21-133721/${file6_name}
write_restart /home/franvt/GitRepos/molDynLammps/polymericGels/gel-bonds-1/data/0.050.30.05500-2026-01-21-133721/data.hydrogel
System init for write_restart ...
WARNING: Using a manybody potential with bonds/angles/dihedrals and special_bond exclusions (src/pair.cpp:250)
Hybrid pair style last /omp style table/omp
Last active /omp style is angle_style harmonic/omp
Total wall time: 0:31:45
