LAMMPS (22 Jul 2025)
OMP_NUM_THREADS environment is not set. Defaulting to 1 thread.
  using 1 OpenMP thread(s) per MPI task
package omp 0
using multi-threaded neighbor list subroutines
# Input Script of lammps for assembly simulation of polimeric network.
# Main code is based on: https://github.com/PipeB62/Hydrogel-Simulation
# Patchy particles are with bond style.

# Felipe Benavides modified by Fco. Vazquez

# Initialization
units lj
dimension 3
boundary p p p

# Styles of atoms and that stuff
atom_style full
bond_style harmonic
angle_style harmonic
pair_style hybrid/overlay zero 0.0 lj/cut/omp 1.12 table/omp linear 5000000 threebody/table

newton on

# Create simulaiton box
region simulation_box block -$L $L -$L $L -$L $L
region simulation_box block -9.796741 $L -$L $L -$L $L
region simulation_box block -9.796741 9.796741 -$L $L -$L $L
region simulation_box block -9.796741 9.796741 -9.796741 $L -$L $L
region simulation_box block -9.796741 9.796741 -9.796741 9.796741 -$L $L
region simulation_box block -9.796741 9.796741 -9.796741 9.796741 -9.796741 $L
region simulation_box block -9.796741 9.796741 -9.796741 9.796741 -9.796741 9.796741
# N-atom-types region-ID keyword value Is necesesary the extra/special/per/atom (# of special neighbors per atom)
create_box 4 simulation_box     bond/types 1     angle/types 2     extra/bond/per/atom 10     extra/angle/per/atom 6     extra/special/per/atom 10
Created orthogonal box = (-9.796741 -9.796741 -9.796741) to (9.796741 9.796741 9.796741)
  2 by 2 by 2 MPI processor grid

# Atom types
mass 1 1.0      # CL
mass 2 1.0      # MO
mass 3 1.0      # PA
mass 4 1.0      # PB

# Coefficients
include potential.in
# Script with the pair-wise interaction and bonds between particles

bond_coeff 1 100.0 0.45
angle_coeff 1 100.0 180
angle_coeff 2 100.0 109.4712
pair_coeff 1 3 zero 0.5
pair_coeff 1 4 zero 0.5
pair_coeff 2 3 zero 0.5
pair_coeff 2 4 zero 0.5
pair_coeff 3 3 zero 0.5
pair_coeff 1 1 lj/cut/omp 1.0 1.0 1.12
pair_coeff 2 2 lj/cut/omp 1.0 1.0 1.12
pair_coeff 1 2 lj/cut/omp 1.0 1.0 1.12
pair_coeff 3 4 table/omp sysFiles/pachTab.table POT 0.6 # sw/omp sysFiles/patchyPot.sw NULL NULL PA PB
Reading pair table potential file sysFiles/pachTab.table with DATE: 2024-07-08
WARNING: 7 of 1000000 force values in table POT are inconsistent with -dE/dr.
WARNING:  Should only be flagged at inflection points (src/pair_table.cpp:469)
pair_coeff 4 4 table/omp sysFiles/pachTab.table POT 0.6 # sw/omp sysFiles/patchyPot.sw NULL NULL PA PB
Reading pair table potential file sysFiles/pachTab.table with DATE: 2024-07-08
WARNING: 7 of 1000000 force values in table POT are inconsistent with -dE/dr.
WARNING:  Should only be flagged at inflection points (src/pair_table.cpp:469)
pair_coeff * * threebody/table swapMech.3b NULL NULL PA PB
pair_modify pair lj/cut/omp shift yes


# Molecules
include molecules.in
# Script with all molecule information and create groups for computes

# Read the molecule information
molecule CL sysFiles/molecule.patchy.CL
Read molecule template CL:
# Patchy Cross-Linker
  1 molecules
  0 fragments
  0 bodies
  5 atoms with max type 3
  4 bonds with max type 1
  6 angles with max type 2
  0 dihedrals with max type 0
  0 impropers with max type 0
molecule MO sysFiles/molecule.patchy.MO
Read molecule template MO:
# Patchy Monomer
  1 molecules
  0 fragments
  0 bodies
  3 atoms with max type 4
  2 bonds with max type 1
  1 angles with max type 1
  0 dihedrals with max type 0
  0 impropers with max type 0

# Introduce the molecules
# ID style args keyword arg
region spawn_box block -$L $L -$L $L -$L $L
region spawn_box block -9.796741 $L -$L $L -$L $L
region spawn_box block -9.796741 9.796741 -$L $L -$L $L
region spawn_box block -9.796741 9.796741 -9.796741 $L -$L $L
region spawn_box block -9.796741 9.796741 -9.796741 9.796741 -$L $L
region spawn_box block -9.796741 9.796741 -9.796741 9.796741 -9.796741 $L
region spawn_box block -9.796741 9.796741 -9.796741 9.796741 -9.796741 9.796741

# create_atoms type style args keyword values
# style_random: N seed region-ID
# keyword_mol: template-ID seed
# keyword_overlap: overlap value = only insert if at least this distance from all existing atoms
# keyword_maxtry: maxtry value = number of attempts to insert a particle before failure
create_atoms 0 random ${NCL} ${seed1} spawn_box mol CL ${seed1} overlap 1.0 maxtry 5000 #xls
create_atoms 0 random 25 ${seed1} spawn_box mol CL ${seed1} overlap 1.0 maxtry 5000 
create_atoms 0 random 25 3234 spawn_box mol CL ${seed1} overlap 1.0 maxtry 5000 
create_atoms 0 random 25 3234 spawn_box mol CL 3234 overlap 1.0 maxtry 5000 
Created 125 atoms
  using lattice units in orthogonal box = (-9.796741 -9.796741 -9.796741) to (9.796741 9.796741 9.796741)
  create_atoms CPU = 0.009 seconds
create_atoms 0 random ${NMO} ${seed2} spawn_box mol MO ${seed2} overlap 1.0 maxtry 5000 #mon
create_atoms 0 random 475 ${seed2} spawn_box mol MO ${seed2} overlap 1.0 maxtry 5000 
create_atoms 0 random 475 6321 spawn_box mol MO ${seed2} overlap 1.0 maxtry 5000 
create_atoms 0 random 475 6321 spawn_box mol MO 6321 overlap 1.0 maxtry 5000 
Created 1425 atoms
  using lattice units in orthogonal box = (-9.796741 -9.796741 -9.796741) to (9.796741 9.796741 9.796741)
  create_atoms CPU = 0.006 seconds

# Create patchy particles
group CrossLinker type 1 3
125 atoms in group CrossLinker
group Monomer type 2 4
1425 atoms in group Monomer
group Patches type 3 4
1050 atoms in group Patches
group CL type 1
25 atoms in group CL
group MO type 2
475 atoms in group MO
group PA type 3
100 atoms in group PA
group CM type 1 2
500 atoms in group CM

# Neighbor list
neighbor 1.8 bin # extra-distance style
#neigh_modify delay 0 every 1 check no
#neigh_modify exclude molecule/intra CrossLinker
#neigh_modify exclude molecule/intra Monomer

# COMPUTES

# Compute global kinetic and potential energy and temperature
compute t all temp
compute p all pressure t
compute ep all pe
compute ek all ke
variable eT equal etotal
variable eB equal ebond
variable eA equal eangle
variable eM equal emol
variable ec equal ecouple
variable eC equal econserve

# Potencial energy per pair-wise interaction
compute wcaPair all pair lj/cut/omp epair
compute patchPair all pair table/omp epair
compute swapPair all pair threebody/table epair

# Compute the pressure
compute press all pressure t ke virial
compute pressVirial all pressure t virial
compute pressVirialMod all pressure t pair bond angle

# Computes for the stress
compute cstress all stress/atom t ke pair bond angle
compute cstressVirial all stress/atom t virial
compute cstressVirialMod all stress/atom t pair bond angle
compute stress all reduce sum c_cstress[*]
compute stressVirial all reduce sum c_cstressVirial[*]
compute stressVirialMod all reduce sum c_cstressVirialMod[*]

# Displacement of the central particles
compute disp CM displace/atom
compute redDisp CM reduce ave c_disp[*] # All, because yes

# Get the number of central particles per cluster
compute clusters all aggregate/atom 0.6                             # Create the clusters
compute Nclpart CM chunk/atom c_clusters compress yes discard yes   # Get the number of clusters
compute clsize CM property/chunk Nclpart count                      # Counts the atoms in each chunk
compute idcl CM property/chunk Nclpart id                           # Get the ids of the clusters

# DUMPS and FIXES

thermo ${NsaveStress}
thermo 1000

# Save global energies and temperature
fix Energy all ave/time 1 ${Nsave} ${Nsave} c_t c_wcaPair c_patchPair c_swapPair c_ep c_ek v_eT v_ec v_eC c_p v_eB v_eA v_eM c_redDisp[*] file ${Dir}/${file1_name}
fix Energy all ave/time 1 1000 ${Nsave} c_t c_wcaPair c_patchPair c_swapPair c_ep c_ek v_eT v_ec v_eC c_p v_eB v_eA v_eM c_redDisp[*] file ${Dir}/${file1_name}
fix Energy all ave/time 1 1000 1000 c_t c_wcaPair c_patchPair c_swapPair c_ep c_ek v_eT v_ec v_eC c_p v_eB v_eA v_eM c_redDisp[*] file ${Dir}/${file1_name}
fix Energy all ave/time 1 1000 1000 c_t c_wcaPair c_patchPair c_swapPair c_ep c_ek v_eT v_ec v_eC c_p v_eB v_eA v_eM c_redDisp[*] file /home/franvt/GitRepos/molDynLammps/polymericGels/gel-bonds-1/data/0.050.30.05500-2026-01-23-171941/${file1_name}
fix Energy all ave/time 1 1000 1000 c_t c_wcaPair c_patchPair c_swapPair c_ep c_ek v_eT v_ec v_eC c_p v_eB v_eA v_eM c_redDisp[*] file /home/franvt/GitRepos/molDynLammps/polymericGels/gel-bonds-1/data/0.050.30.05500-2026-01-23-171941/system_assembly.fixf

# Save Pressure and Stress tensor
fix fixStress5 all ave/time 1 ${NsaveStress} ${NsaveStress} c_p c_press[*] c_pressVirial[*] c_pressVirialMod[*] c_stress[*] c_stressVirial[*] c_stressVirialMod[*] file ${Dir}/${file2_name}
fix fixStress5 all ave/time 1 1000 ${NsaveStress} c_p c_press[*] c_pressVirial[*] c_pressVirialMod[*] c_stress[*] c_stressVirial[*] c_stressVirialMod[*] file ${Dir}/${file2_name}
fix fixStress5 all ave/time 1 1000 1000 c_p c_press[*] c_pressVirial[*] c_pressVirialMod[*] c_stress[*] c_stressVirial[*] c_stressVirialMod[*] file ${Dir}/${file2_name}
fix fixStress5 all ave/time 1 1000 1000 c_p c_press[*] c_pressVirial[*] c_pressVirialMod[*] c_stress[*] c_stressVirial[*] c_stressVirialMod[*] file /home/franvt/GitRepos/molDynLammps/polymericGels/gel-bonds-1/data/0.050.30.05500-2026-01-23-171941/${file2_name}
fix fixStress5 all ave/time 1 1000 1000 c_p c_press[*] c_pressVirial[*] c_pressVirialMod[*] c_stress[*] c_stressVirial[*] c_stressVirialMod[*] file /home/franvt/GitRepos/molDynLammps/polymericGels/gel-bonds-1/data/0.050.30.05500-2026-01-23-171941/stress_assembly.fixf

# Save the global cluster information
fix 1 CM ave/time 1 1 ${Ndump} c_idcl c_clsize file ${Dir}/${file3_name} mode vector
fix 1 CM ave/time 1 1 1000 c_idcl c_clsize file ${Dir}/${file3_name} mode vector
fix 1 CM ave/time 1 1 1000 c_idcl c_clsize file /home/franvt/GitRepos/molDynLammps/polymericGels/gel-bonds-1/data/0.050.30.05500-2026-01-23-171941/${file3_name} mode vector
fix 1 CM ave/time 1 1 1000 c_idcl c_clsize file /home/franvt/GitRepos/molDynLammps/polymericGels/gel-bonds-1/data/0.050.30.05500-2026-01-23-171941/clust_assembly.fixf mode vector

# Save atom positions with cluster id
dump dumpID all custom ${Ndump} ${Dir}/traj/${file5_name} id mol c_clusters type x y z vx vy vz
dump dumpID all custom 1000 ${Dir}/traj/${file5_name} id mol c_clusters type x y z vx vy vz
dump dumpID all custom 1000 /home/franvt/GitRepos/molDynLammps/polymericGels/gel-bonds-1/data/0.050.30.05500-2026-01-23-171941/traj/${file5_name} id mol c_clusters type x y z vx vy vz
dump dumpID all custom 1000 /home/franvt/GitRepos/molDynLammps/polymericGels/gel-bonds-1/data/0.050.30.05500-2026-01-23-171941/traj/traj_assembly.*.dumpf id mol c_clusters type x y z vx vy vz
dump_modify dumpID pbc yes # remap atoms via periodic boundary conditions

# RUN SIMULATION

# Brownian Dynamics using Langevin Thermostat

timestep ${tstep}
timestep 0.001

fix VelVerlet all nve # Use Velocity Verlet integrator

# First elevate the temperature
fix ThermoLng all langevin 0.0 ${temp} ${damp} ${seed3} tally yes zero yes # Brownian Dynamics: langevin + nve
fix ThermoLng all langevin 0.0 0.05 ${damp} ${seed3} tally yes zero yes 
fix ThermoLng all langevin 0.0 0.05 1 ${seed3} tally yes zero yes 
fix ThermoLng all langevin 0.0 0.05 1 2010 tally yes zero yes 
run ${stepsheat}
run 500000
WARNING: Using a manybody potential with bonds/angles/dihedrals and special_bond exclusions (src/pair.cpp:250)
Hybrid pair style last /omp style table/omp
Last active /omp style is angle_style harmonic/omp
Neighbor list info ...
  update: every = 1 steps, delay = 0 steps, check = yes
  max neighbors/atom: 2000, page size: 100000
  master list distance cutoff = 2.92
  ghost atom cutoff = 2.92
  binsize = 1.46, bins = 14 14 14
  7 neighbor lists, perpetual/occasional/extra = 6 1 0
  (1) pair zero, perpetual, skip from (7)
      attributes: half, newton on, omp
      pair build: skip/omp
      stencil: none
      bin: none
  (2) pair lj/cut/omp, perpetual, skip from (7)
      attributes: half, newton on, omp
      pair build: skip/omp
      stencil: none
      bin: none
  (3) pair table/omp, perpetual, skip from (7)
      attributes: half, newton on, omp
      pair build: skip/omp
      stencil: none
      bin: none
  (4) pair threebody/table, perpetual, skip from (6)
      attributes: full, newton on, omp
      pair build: skip/omp
      stencil: none
      bin: none
  (5) compute aggregate/atom, occasional, copy from (6)
      attributes: full, newton on, omp
      pair build: copy
      stencil: none
      bin: none
  (6) neighbor class addition, perpetual
      attributes: full, newton on, omp
      pair build: full/bin/omp
      stencil: full/bin/3d
      bin: standard
  (7) neighbor class addition, perpetual, half/full from (6)
      attributes: half, newton on, omp
      pair build: halffull/newton/omp
      stencil: none
      bin: none
Per MPI rank memory allocation (min/avg/max) = 20.03 | 20.03 | 20.03 Mbytes
   Step          Temp          E_pair         E_mol          TotEng         Press     
         0   0              0.00041490155  0.15480456     0.15521947    -0.21361809   
      1000   0.038128237    0              0.00013757075  0.057293028    0.0036255212 
      2000   0.00015524756  8.543009e-08   0.020977048    0.021209855    0.068369326  
      3000   0.0053601671   0              0.0001566732   0.0081917366   0.0024773034 
      4000   0.00032043582  0              0.0030278828   0.0035082264  -0.026562159  
      5000   0.0011098552   0              0.00027894739  0.0019426561  -0.0005261401 
      6000   0.00052871377  0              0.00073390715  0.0015264661   0.0095531329 
      7000   0.00072896697  0              0.00040823029  0.0015009753  -1.2979742e-05
      8000   0.0007251149   0              0.00053299756  0.0016199682  -0.0032626071 
      9000   0.00081771509  1.3387704e-06  0.00052435467  0.0017514747   2.4759112e-06
     10000   0.00090243713  0              0.0006006103   0.0019533927   0.0011493598 
     11000   0.0010197323   0              0.00066288448  0.0021914962  -0.00042254769
     12000   0.0011051079   0              0.00072884253  0.0023854349  -0.00024522879
     13000   0.0011985165   0              0.00078137006  0.0025779849   0.00057614678
     14000   0.0013249056   0              0.00085482435  0.0028409006   0.00081224385
     15000   0.0014112991   0              0.00096232634  0.0030779093  -0.00010780047
     16000   0.0015343975   0              0.0010154688   0.0033155802  -0.00081771796
     17000   0.0016020278   4.7441589e-08  0.0010642477   0.0034657865   0.00030980887
     18000   0.0017598133   0              0.0011497192   0.003787736    0.0012942109 
     19000   0.0018430414   0              0.0012059735   0.003968752    5.7970273e-05
     20000   0.0019080305   0              0.0012946994   0.0041548986  -0.00044607826
     21000   0.001992366    5.7799363e-07  0.0013610759   0.0043482748   0.00069963965
     22000   0.0021283243  -3.6672612e-09  0.0014649008   0.0046553239   0.00056659963
     23000   0.0025735469  -0.0015218821   0.0017283014   0.004064249    0.00012610136
     24000   0.0024444094  -0.0016039619   0.0016864538   0.0037467405  -0.00025353478
     25000   0.0024681684  -0.0016016608   0.0016795706   0.0037777739  -0.00025316254
     26000   0.0025092316  -0.001589946    0.001707866    0.0038793392   0.00073864395
     27000   0.0030589285  -0.0031177114   0.002012252    0.0034799731   0.00066127919
     28000   0.002845273   -0.0031717067   0.0020052056   0.003098655   -0.00065030665
     29000   0.0028512639  -0.0032042003   0.0019482227   0.0030181589  -0.00057429635
     30000   0.0032344357  -0.0047618896   0.0020775691   0.0021642029  -0.00033739482
     31000   0.0030894149  -0.0048363168   0.0022389438   0.0020337595  -5.3009553e-05
     32000   0.0032581607  -0.0048324545   0.0021927205   0.0022443541   0.0004081845 
     33000   0.0032215756  -0.0048326584   0.0023286392   0.0023252265   0.00081874659
     34000   0.0040031854  -0.0075381178   0.0027834668   0.0012462531  -0.00038818505
     35000   0.0034571004  -0.0077706526   0.0024728762  -0.00011547145 -0.00047436738
     36000   0.0044781808  -0.010762873    0.002879389   -0.0011705465   0.00029027022
     37000   0.0046349367  -0.012733258    0.0026719396  -0.0031133985   0.0014358727 
     38000   0.003998545   -0.012685588    0.002635141   -0.004056499    0.00085337462
     39000   0.0042627611  -0.014426017    0.0027870632  -0.0052489372  -0.00031597353
     40000   0.004134619   -0.014466278    0.0026197665  -0.0056485844  -0.0001137876 
     41000   0.0039847584  -0.014424344    0.0027835834  -0.005667479    0.0012337074 
     42000   0.0041003877  -0.014461977    0.0027443035  -0.00557106     0.00093054757
     43000   0.0046610268  -0.016092878    0.0029636582  -0.0061421907  -0.00089918803
     44000   0.0050067312  -0.017410171    0.0032844405  -0.0066204791   0.00065734213
     45000   0.004455419   -0.017661738    0.0034852371  -0.0074976837   0.00065597604
     46000   0.0051730411  -0.018875657    0.0031358034  -0.0079852986   0.0012827956 
     47000   0.0048234191  -0.020213159    0.0036651187  -0.0093175793  -0.00014686758
     48000   0.0050129943  -0.020804911    0.0032635772  -0.010026693    0.0010465819 
     49000   0.0048960789  -0.02092223     0.003432082   -0.010150768    0.00069088756
     50000   0.0049235086  -0.020936616    0.0033882007  -0.010167917    0.00079825125
     51000   0.00492648    -0.020952896    0.0034339135  -0.01013403    -9.9449397e-06
     52000   0.0049640066  -0.020935875    0.0036265379  -0.0098681306   0.0005278417 
     53000   0.0051770599  -0.020929367    0.003623604   -0.0095451832   0.00036990358
     54000   0.0052657508  -0.020944248    0.0034947157  -0.0095560024   0.00086037796
     55000   0.0060853671  -0.023751249    0.0038114575  -0.01081763    -0.0011225271 
     56000   0.0062538265  -0.025626116    0.0044453757  -0.011806053   -0.00027783503
     57000   0.0059547504  -0.025535002    0.0040988231  -0.012509816    0.00078965433
     58000   0.0058286135  -0.025713989    0.0042028718  -0.012773837    0.00087809502
     59000   0.0059676236  -0.025765081    0.004081245   -0.012738176   -0.00083566962
     60000   0.0062263966  -0.028179923    0.0047460447  -0.014100309   -0.00074142725
     61000   0.0059818772  -0.028790768    0.0043156234  -0.015508118    0.0019284784 
     62000   0.0067672005  -0.030551642    0.0044656802  -0.01594171     0.00085783845
     63000   0.0061759127  -0.030546407    0.0042984406  -0.016990074    0.00022777165
     64000   0.006368309   -0.030614988    0.0043737853  -0.016694903    0.00091681367
     65000   0.006979178   -0.03180092     0.0046508149  -0.016688092   -0.0010421423 
     66000   0.006667507   -0.033497093    0.0049865955  -0.018515689   -0.00018351472
     67000   0.0070366041  -0.035029979    0.0048388929  -0.019642989    0.001288804  
     68000   0.0066585769  -0.035294355    0.0049549037  -0.020358029    0.00035402746
     69000   0.00774469    -0.03695675     0.0046795276  -0.020667683    0.00070925206
     70000   0.0075509027  -0.04064005     0.0055705939  -0.02375041    -0.0018496157 
     71000   0.0080932312  -0.043399417    0.005499981   -0.025767421    0.0017198277 
     72000   0.0073398181  -0.043454734    0.0052650805  -0.02718703     0.0016786875 
     73000   0.0082095926  -0.045840785    0.0054637154  -0.028070625    0.0004600615 
     74000   0.0077800166  -0.046450173    0.0052802499  -0.029507427   -0.00041996995
     75000   0.0074292031  -0.046591614    0.0053660244  -0.030088975   -0.00041463259
     76000   0.0080027951  -0.048257038    0.0055370475  -0.030723543    0.0020339269 
     77000   0.0076748602  -0.048277163    0.0053867585  -0.031385542    0.001708909  
     78000   0.008144959   -0.049644101    0.0054825338  -0.03195201    -0.00091277784
     79000   0.0074898826  -0.051124451    0.005852221   -0.034044654    0.00045086305
     80000   0.0082122728  -0.052183593    0.0058364175  -0.034036714   -0.00035149015
     81000   0.0085000032  -0.054556112    0.0056781302  -0.036136202    0.00015970755
     82000   0.0082185397  -0.056153057    0.0062090051  -0.037624196    0.00014269859
     83000   0.0096146426  -0.058705174    0.006278348   -0.038014166    0.00037179401
     84000   0.0092357251  -0.059354831    0.005857861   -0.03965232     0.00047488718
     85000   0.0081015621  -0.059531149    0.0058980691  -0.041488577   -9.8837603e-05
     86000   0.0088965743  -0.061422849    0.0060647872  -0.04202181    -0.00091965681
     87000   0.008721849   -0.062409196    0.0064831676  -0.042851695    0.0029836841 
     88000   0.010043441   -0.06582373     0.0067625536  -0.044005735    0.0013747767 
     89000   0.0095545455  -0.066951882    0.0061576629  -0.046471648    0.00010086466
     90000   0.010147375   -0.069095769    0.0060937386  -0.047790787    0.00022778544
     91000   0.0092176955  -0.069033274    0.0067508475  -0.048464804    0.00063674755
     92000   0.0095120861  -0.070714241    0.0067916841  -0.049663633    0.0015618703 
     93000   0.0092714691  -0.070794768    0.006522662   -0.050373875    0.0014469555 
     94000   0.0093884616  -0.070797593    0.0067830233  -0.049940963    0.0010637428 
     95000   0.010528898   -0.073839706    0.0066369646  -0.051419583    0.0018230506 
     96000   0.0097243418  -0.073761103    0.0063165777  -0.052867424   -0.0007493365 
     97000   0.010361445   -0.075603985    0.0070295896  -0.053042255    0.00013826626
     98000   0.010936829   -0.078282777    0.0072153604  -0.054672758    0.00022203233
     99000   0.010007058   -0.07857286     0.0069755328  -0.056596425   -0.00061588076
    100000   0.010245952   -0.0787175      0.0072617911  -0.056096696   -0.00060968091
    101000   0.010321905   -0.080184721    0.006843532   -0.05786832    -2.6514343e-05
    102000   0.0098863423  -0.080469564    0.0071374487  -0.05851217     0.0013675838 
    103000   0.011470406   -0.083627393    0.0076160969  -0.058816787    0.00050325661
    104000   0.011527542   -0.085612898    0.0075690398  -0.060763701    0.0024648261 
    105000   0.011119937   -0.087780608    0.0078257665  -0.063285697    0.00052593822
    106000   0.01170929    -0.09016856     0.0077799722  -0.064835983   -0.0010794652 
    107000   0.011522565   -0.09285923     0.0077139178  -0.067872615    0.0014563314 
    108000   0.013520888   -0.099770544    0.0085623327  -0.070939963    0.0011599371 
    109000   0.011529412   -0.1033862      0.0088490306  -0.077254211    9.9780679e-05
    110000   0.012026175   -0.10566135     0.0082480033  -0.079385721    0.00075832342
    111000   0.011215969   -0.10599615     0.0076627336  -0.081520322    0.00083506577
    112000   0.011155031   -0.10616894     0.0077189127  -0.081728273   -0.00026488348
    113000   0.011436224   -0.10621597     0.0077084037  -0.081364294    7.3577918e-05
    114000   0.012672019   -0.11039043     0.0085998253  -0.082794837    0.0012530127 
    115000   0.012153045   -0.11208671     0.0085175372  -0.085351362   -6.4095154e-05
    116000   0.012049636   -0.11466189     0.0086054506  -0.087993642   -0.0015391253 
    117000   0.012501026   -0.1186192      0.0086759502  -0.091203808   -0.0001867645 
    118000   0.012159942   -0.12022454     0.0084070417  -0.093589355   -0.00060294861
    119000   0.01197029    -0.12022964     0.0085146209  -0.093771168    0.00089832607
    120000   0.012354749   -0.1202726      0.0079207459  -0.093831692    0.0024036131 
    121000   0.012658751   -0.12103112     0.0087992774  -0.093255971    0.0011147019 
    122000   0.01257095    -0.12183243     0.008530632   -0.094457535    0.0015003355 
    123000   0.011927559   -0.12175012     0.0082779162  -0.095592407   -0.00063548666
    124000   0.012180765   -0.12280598     0.0085233772  -0.096023244   -0.00031152927
    125000   0.013838729   -0.12750035     0.00916973    -0.097585923    0.0009063554 
    126000   0.013499394   -0.12980136     0.0092509798  -0.10031435     0.00010722911
    127000   0.013438054   -0.13080524     0.009046178   -0.10161498     0.0010845927 
    128000   0.013008703   -0.1309423      0.0089663455  -0.10247549     0.0018945484 
    129000   0.013937438   -0.13408294     0.0097207592  -0.10346951    -0.00098979522
    130000   0.014515656   -0.1382512      0.0098797774  -0.10661198     0.00055803791
    131000   0.014396017   -0.1406014      0.0095948654  -0.10942644     0.00096143052
    132000   0.013977096   -0.14410826     0.0097915565  -0.11336458    -0.00016262412
    133000   0.01445115    -0.14594823     0.009153453   -0.11513203     0.0017951549 
    134000   0.014822534   -0.14762344     0.0099776299  -0.11542635     0.0017447054 
    135000   0.013896434   -0.1488112      0.0095404623  -0.11843954    -0.0010775206 
    136000   0.01385396    -0.15049133     0.0093534321  -0.12037037     0.00094245774
    137000   0.013829976   -0.1511695      0.0099588327  -0.12047908     0.0021445468 
    138000   0.015536897   -0.15611366     0.0097214354  -0.12310191     0.0024040297 
    139000   0.014291555   -0.15811852     0.010179425   -0.12651559    -0.00062516365
    140000   0.014601573   -0.15967288     0.010616718   -0.12716794     0.0032399297 
    141000   0.013984366   -0.16004531     0.0095460506  -0.12953625    -0.00079830573
    142000   0.014700428   -0.16238608     0.0099663828  -0.13038328     0.0013936589 
    143000   0.014263132   -0.16328691     0.0098573082  -0.1320487     -0.00026471775
    144000   0.015461319   -0.16826486     0.010670424   -0.13441742     0.0028596125 
    145000   0.015511993   -0.17216364     0.010617772   -0.13829288    -0.00078735245
    146000   0.016806988   -0.1768045      0.011274702   -0.14033558    -0.0036230503 
    147000   0.01778148    -0.18472749     0.011734761   -0.14633772     0.0018939613 
    148000   0.016423079   -0.18789648     0.011230091   -0.15204766     0.0032263217 
    149000   0.015754625   -0.1910003      0.010957879   -0.15642573     0.00019175394
    150000   0.016023899   -0.19271204     0.010661649   -0.15803005     0.0016837669 
    151000   0.01725075    -0.19668012     0.010662067   -0.16015862     0.00096351962
    152000   0.015869749   -0.19873211     0.010573477   -0.16436936     0.00026982395
    153000   0.015644961   -0.20088684     0.010628699   -0.16680584     0.0014206061 
    154000   0.016435105   -0.2029544      0.010259306   -0.16805834     0.00053819523
    155000   0.015194013   -0.20275        0.010679919   -0.16929376     0.00046309162
    156000   0.01642512    -0.20554007     0.011227024   -0.16969126    -0.00040124105
    157000   0.016162451   -0.20752181     0.011420097   -0.17187368     0.0021861731 
    158000   0.015690592   -0.20779924     0.011194899   -0.17308364     0.002251759  
    159000   0.016722138   -0.20977412     0.010642255   -0.17406484     0.0006028986 
    160000   0.018835244   -0.21736064     0.012459207   -0.17666679    -0.0026805992 
    161000   0.016501902   -0.21798467     0.012170435   -0.18107735     0.0022682041 
    162000   0.017147012   -0.21943027     0.011323587   -0.18240275    -2.6569979e-05
    163000   0.017180445   -0.22002216     0.011057636   -0.18321048    -9.065792e-05 
    164000   0.016101527   -0.22134436     0.011533043   -0.18567461     0.0027280744 
    165000   0.015884007   -0.22157244     0.011842597   -0.1859192      0.0038938435 
    166000   0.017181467   -0.22286825     0.012024464   -0.18508822    -0.00098273033
    167000   0.017633965   -0.22630392     0.012134758   -0.18773528    -0.00062950346
    168000   0.017783412   -0.22803494     0.011363314   -0.19001372     0.00083117955
    169000   0.017451817   -0.2318274      0.012288228   -0.19337833     0.0021336021 
    170000   0.01830124    -0.23514311     0.012368093   -0.19534087    -0.00088533822
    171000   0.018215852   -0.23620061     0.011741994   -0.19715247     0.00022854778
    172000   0.017893743   -0.23663017     0.012179035   -0.19762784     0.0023011677 
    173000   0.019164194   -0.23988421     0.012810499   -0.19834596    -0.00039246943
    174000   0.01793996    -0.24078954     0.012585402   -0.20131156     0.0023822021 
    175000   0.017843218   -0.2411031      0.012151262   -0.20220428    -0.0028670523 
    176000   0.019251209   -0.24354294     0.0128072     -0.20187756    -0.00017475221
    177000   0.018424978   -0.24493427     0.0127969     -0.20451773     0.00036112913
    178000   0.018179097   -0.2481016      0.012774639   -0.20807591    -0.0001621879 
    179000   0.019799631   -0.25119039     0.012983133   -0.20852697     0.0017845083 
    180000   0.017906859   -0.25184197     0.012704378   -0.21229464     0.001446367  
    181000   0.019276358   -0.25326984     0.01207923    -0.21229473     0.0046356236 
    182000   0.019073345   -0.25658091     0.013200957   -0.21478839    -0.00032203059
    183000   0.019689639   -0.25980506     0.013179887   -0.21710977     0.0012750449 
    184000   0.019707502   -0.26257751     0.013379985   -0.21965534     0.0046911945 
    185000   0.019211482   -0.26610909     0.013598592   -0.22371187     0.00083195115
    186000   0.019793312   -0.2697959      0.013577228   -0.22654786    -0.00082734995
    187000   0.019115606   -0.27162758     0.01290818    -0.23006449     0.0059489186 
    188000   0.019917022   -0.27606382     0.014688951   -0.23151861    -0.0011176351 
    189000   0.020003379   -0.27742976     0.013080175   -0.23436387     0.0016616293 
    190000   0.020162432   -0.28009368     0.014074775   -0.23579476     0.0017440634 
    191000   0.019555591   -0.28165279     0.014425148   -0.23791318     0.0010263541 
    192000   0.020229853   -0.28634641     0.013470791   -0.24255042     0.0014653934 
    193000   0.019198559   -0.28652717     0.014016257   -0.24373165    -0.00032492873
    194000   0.019164252   -0.28660451     0.013475623   -0.24440106     0.00011309134
    195000   0.020064934   -0.28875455     0.014185235   -0.24449133     0.0009008036 
    196000   0.021034251   -0.28992098     0.013926669   -0.24446329    -0.00029563848
    197000   0.020813028   -0.29136143     0.013497462   -0.24666457     0.0032052736 
    198000   0.019588602   -0.29289256     0.014357444   -0.24917117     0.0027582628 
    199000   0.020326167   -0.29449843     0.014797891   -0.24923096    -0.0026665725 
    200000   0.021294837   -0.29790225     0.01475912    -0.25122149    -0.0017247723 
    201000   0.021759068   -0.29911662     0.014606262   -0.25189281     0.0022464074 
    202000   0.021791055   -0.30245618     0.015019724   -0.25477096     0.0036875796 
    203000   0.020815747   -0.30251136     0.013895043   -0.25741284    -0.00052165791
    204000   0.019626524   -0.30252395     0.014056842   -0.25904632     0.0014030627 
    205000   0.020548218   -0.30271813     0.013702043   -0.25821364    -9.9184851e-05
    206000   0.020517838   -0.3042133      0.014352569   -0.25910383     0.0013866484 
    207000   0.021839184   -0.30690411     0.014869947   -0.25929653     0.0028480983 
    208000   0.020405104   -0.30814818     0.01435431    -0.26320596    -0.00015427806
    209000   0.021716224   -0.31042861     0.013879304   -0.26399599     0.0022736754 
    210000   0.021274804   -0.31142908     0.01553186    -0.2640056      0.00086241351
    211000   0.022588245   -0.31276059     0.014840391   -0.26405969     0.002039485  
    212000   0.022159378   -0.31461928     0.015551677   -0.26584998     0.0026263816 
    213000   0.022795637   -0.315714       0.014723054   -0.26681955     0.00078867077
    214000   0.0219672     -0.31793109     0.015080059   -0.26992149     0.00011728896
    215000   0.022616746   -0.31868905     0.015126102   -0.26965972     0.0043136879 
    216000   0.021499489   -0.31899357     0.014713072   -0.27205207     0.0024141135 
    217000   0.021762384   -0.32044511     0.015730569   -0.27209203     0.0013821793 
    218000   0.022671792   -0.32306487     0.016799167   -0.27227995     0.0025433158 
    219000   0.02246267    -0.32463115     0.016393061   -0.27456583     0.0021924109 
    220000   0.023542961   -0.32522101     0.015092532   -0.27483682     0.0073746092 
    221000   0.02245204    -0.32684623     0.015555374   -0.27763453     0.00027381015
    222000   0.023036638   -0.32876567     0.015486224   -0.27874678     0.0018620019 
    223000   0.022472707   -0.32863056     0.014845854   -0.28009739     0.00061402054
    224000   0.022307024   -0.33100389     0.015825288   -0.28173965     0.0028535083 
    225000   0.022974846   -0.33324948     0.015579542   -0.2832299      0.0041768593 
    226000   0.022450349   -0.33467451     0.015009051   -0.28601167     0.0022930552 
    227000   0.02304696    -0.3363467      0.016018086   -0.28578048     0.001071049  
    228000   0.023469849   -0.33814942     0.016362413   -0.28660495    -0.0024050368 
    229000   0.024001565   -0.34150625     0.016209921   -0.28931721     0.0021758576 
    230000   0.024633994   -0.34295527     0.016420038   -0.28960808     0.00036722339
    231000   0.023211603   -0.34266062     0.015991161   -0.29187452     0.0023367295 
    232000   0.023752264   -0.34607974     0.016256453   -0.29421787     0.0035977714 
    233000   0.023941335   -0.34780157     0.016868392   -0.29504434    -0.00061407654
    234000   0.02495185    -0.35130392     0.017388146   -0.29651215     0.0021716178 
    235000   0.024206647   -0.35229177     0.015656645   -0.30034858     0.0021288011 
    236000   0.024519346   -0.35441717     0.017172675   -0.3004892      0.0012417732 
    237000   0.024140142   -0.3569044      0.016854448   -0.3038631     -0.0011621678 
    238000   0.023848484   -0.35859855     0.017195727   -0.30565318     0.0018215319 
    239000   0.023947509   -0.35960465     0.016735443   -0.30697112    -0.00093170319
    240000   0.024067162   -0.36002541     0.016856566   -0.3070914     -0.0017685287 
    241000   0.024900833   -0.35913827     0.016352093   -0.30545903     0.0038270852 
    242000   0.025213822   -0.36112545     0.017235959   -0.30609316     0.0026456397 
    243000   0.024635798   -0.36272075     0.016708002   -0.30908289     0.00047619504
    244000   0.025827763   -0.36728555     0.01767389    -0.31089501     0.00033846487
    245000   0.024708986   -0.36984482     0.017493346   -0.3153119     -0.0020296342 
    246000   0.025894989   -0.37442414     0.017802419   -0.3178043      0.0026667495 
    247000   0.024954336   -0.37440968     0.01733026    -0.31967207     0.00017882577
    248000   0.025569747   -0.37466669     0.016967325   -0.31936949     0.0010562675 
    249000   0.024683565   -0.37471074     0.017262866   -0.32044641     0.0042806689 
    250000   0.024560242   -0.37619595     0.018079413   -0.32129995     0.0007662127 
    251000   0.025022438   -0.3765699      0.017020423   -0.32204003    -0.0021767491 
    252000   0.025452806   -0.37721292     0.018164153   -0.32089419     0.0036792617 
    253000   0.026037735   -0.3783111      0.016722325   -0.32255737    -0.0002149745 
    254000   0.025420474   -0.3777941      0.018471244   -0.32121675     0.002383037  
    255000   0.025595199   -0.37791131     0.017259462   -0.32228382     0.0024729581 
    256000   0.025791231   -0.37811773     0.017300536   -0.32215531     0.00033725233
    257000   0.024672424   -0.37895843     0.019011842   -0.32296183    -0.0030218886 
    258000   0.025991655   -0.38177949     0.017204076   -0.32561308     0.0059608986 
    259000   0.025243401   -0.38417878     0.018915192   -0.32742292     0.0018478097 
    260000   0.026645206   -0.3844534      0.018288121   -0.32622325     0.0030712256 
    261000   0.027515468   -0.38684938     0.019027206   -0.3265756      0.0018371593 
    262000   0.026189211   -0.38872627     0.017986571   -0.33148122    -0.0018339474 
    263000   0.02692917    -0.39024833     0.018206664   -0.33167397     0.0016836097 
    264000   0.027802      -0.39319328     0.019222664   -0.33229452     0.00067792844
    265000   0.027024925   -0.39353243     0.018055494   -0.3349657     -0.00041292878
    266000   0.026669998   -0.39504753     0.018611249   -0.3364571     -0.0021663884 
    267000   0.026285134   -0.395353       0.017932447   -0.33801829     0.00073329696
    268000   0.027083197   -0.39494316     0.018665023   -0.33567955     0.00082855291
    269000   0.02676228    -0.39482387     0.018346028   -0.33636032     0.0039385911 
    270000   0.027299288   -0.39501287     0.018584888   -0.33550547    -0.00084345017
    271000   0.02688245    -0.39459064     0.018653616   -0.33563936     0.00010388098
    272000   0.02835427    -0.39761031     0.019984625   -0.33512171     0.0024384358 
    273000   0.028055408   -0.39896334     0.019647396   -0.33725998    -0.0017328027 
    274000   0.028469105   -0.40109547     0.019490311   -0.33892905    -0.00062811439
    275000   0.029190388   -0.40267236     0.01946076    -0.33945427     0.0049176718 
    276000   0.028273212   -0.40406111     0.019467653   -0.342211       0.00060617088
    277000   0.02844252    -0.40454699     0.018959079   -0.34295165     0.0017355492 
    278000   0.028201442   -0.40548788     0.018953884   -0.34425912    -0.00014115271
    279000   0.027974779   -0.40508565     0.018768503   -0.34438205     0.0027700817 
    280000   0.027698733   -0.40532611     0.019422382   -0.34438243     0.00081294749
    281000   0.02949011    -0.40806696     0.020234164   -0.34362617    -0.00022127423
    282000   0.029655402   -0.40975684     0.019658025   -0.34564441    -0.0010222205 
    283000   0.028531253   -0.41101257     0.020685573   -0.34755773    -0.0048312715 
    284000   0.029634186   -0.41109485     0.020646313   -0.34602593     0.00055058214
    285000   0.029559514   -0.41360706     0.021292382   -0.34800401     0.00041333378
    286000   0.02876796    -0.41403703     0.01917385    -0.35173908    -0.0025928008 
    287000   0.030156771   -0.4148759      0.020590272   -0.34907965     0.0033538703 
    288000   0.029333135   -0.41641961     0.020225079   -0.35222321     0.00047527305
    289000   0.030238198   -0.42331322     0.021561072   -0.35642412     0.00040069193
    290000   0.030956056   -0.42569095     0.019650261   -0.35963656     0.003892947  
    291000   0.030580811   -0.42684919     0.020430546   -0.36057702    -6.1046929e-06
    292000   0.030679317   -0.42722803     0.02111931    -0.36011943    -0.0010224969 
    293000   0.031388623   -0.42895178     0.020954501   -0.36094472     0.0041247635 
    294000   0.029058647   -0.42879381     0.020202604   -0.36503136     0.0025896919 
    295000   0.029676976   -0.42896222     0.020021171   -0.36445431    -0.0020545331 
    296000   0.029231685   -0.42918945     0.021250984   -0.36411923    -0.00063895644
    297000   0.029971826   -0.42952396     0.020085696   -0.36450953     0.00095597934
    298000   0.030715816   -0.43090119     0.021081488   -0.36377571     0.00012629521
    299000   0.031408583   -0.43334502     0.021716626   -0.36454591    -0.0043187835 
    300000   0.029550032   -0.43326494     0.021852613   -0.36711588    -0.0014339135 
    301000   0.030106018   -0.43230828     0.021350765   -0.36582762     0.0019046541 
    302000   0.030167647   -0.43183668     0.020762573   -0.36585183     0.0023723491 
    303000   0.030217434   -0.43152805     0.021667643   -0.3645635     -0.0018595032 
    304000   0.032579308   -0.43397458     0.021345149   -0.363792      -6.1389075e-05
    305000   0.031312094   -0.43449521     0.02153673    -0.36602064     0.000596527  
    306000   0.031549716   -0.43470799     0.020839854   -0.3665741      0.00082197454
    307000   0.031833574   -0.43531529     0.021032924   -0.36656281    -0.00071622437
    308000   0.03087751    -0.43841538     0.022213474   -0.36991552    -0.00030953749
    309000   0.032504957   -0.44178525     0.022819967   -0.37023931     0.0038908687 
    310000   0.03195066    -0.44277767     0.021877108   -0.37300549    -0.0010189319 
    311000   0.033082908   -0.44547054     0.023009338   -0.37286886    -0.00026795108
    312000   0.033083367   -0.44703513     0.021684105   -0.375758       0.001752158  
    313000   0.030980304   -0.4460643      0.022178477   -0.37744534    -0.00091607257
    314000   0.031779956   -0.44756172     0.02170947    -0.37821307     0.0013404809 
    315000   0.033775047   -0.45244742     0.021569413   -0.38024812     0.0043829497 
    316000   0.035516933   -0.45582039     0.023049069   -0.37953029     0.0036484175 
    317000   0.033560774   -0.45837347     0.024356325   -0.38370846     0.0010459082 
    318000   0.032696528   -0.46011807     0.022075856   -0.38902907     0.0016229827 
    319000   0.033085456   -0.46161925     0.021460687   -0.39056239     0.0020779222 
    320000   0.031890669   -0.46369933     0.022298791   -0.3935954     -0.00038834661
    321000   0.032726108   -0.46406776     0.022191445   -0.39281882     0.0053706448 
    322000   0.032641      -0.46511216     0.022561723   -0.39362052     0.0018587624 
    323000   0.034005307   -0.46590093     0.021139822   -0.39378605     0.00079444933
    324000   0.031236833   -0.4648487      0.022471378   -0.3955523      0.0018933381 
    325000   0.033078697   -0.46575452     0.021329956   -0.39483853     0.0010988462 
    326000   0.03310409    -0.4661236      0.022902369   -0.39359713    -0.0021889172 
    327000   0.032560445   -0.4684276      0.022814809   -0.39680363     0.00058653783
    328000   0.031794526   -0.46838547     0.023662614   -0.39706183     0.00036739567
    329000   0.032332316   -0.46973222     0.023319669   -0.39794537    -0.0013323736 
    330000   0.033857348   -0.47252873     0.023190692   -0.39858478     0.0037972432 
    331000   0.032261145   -0.47319096     0.023546669   -0.4012838     -0.0016546078 
    332000   0.034170155   -0.47491796     0.023121058   -0.40057473    -0.0033369215 
    333000   0.03596396    -0.47701082     0.023773299   -0.39932639     0.0028516764 
    334000   0.035451579   -0.47875863     0.024637937   -0.40097763     0.0020158581 
    335000   0.033197403   -0.47892057     0.022206391   -0.4069502      0.0050559952 
    336000   0.034058244   -0.4813982      0.023991771   -0.40635202    -0.00012526998
    337000   0.033126369   -0.48066162     0.022446735   -0.40855738     0.0030922635 
    338000   0.032908286   -0.48252492     0.023684295   -0.40951004     0.0012537823 
    339000   0.033059405   -0.48367284     0.023243933   -0.4108718     -0.001304541  
    340000   0.035016774   -0.48441179     0.023619645   -0.40830087    -0.0040528965 
    341000   0.0353211     -0.48536811     0.02365488    -0.40876576     0.00062632332
    342000   0.033692013   -0.48560302     0.024286707   -0.4108109     -0.0012552173 
    343000   0.034479117   -0.48586864     0.023335639   -0.4108477     -0.0023015464 
    344000   0.034671686   -0.48668934     0.023764681   -0.41095068     0.0014478451 
    345000   0.034696397   -0.48673384     0.024073317   -0.41064951    -0.00023082253
    346000   0.035314139   -0.48813812     0.023731916   -0.41146917     0.0052713681 
    347000   0.035006942   -0.48977108     0.025118657   -0.41217588    -0.00017739251
    348000   0.035758091   -0.49162274     0.025046877   -0.41297333    -0.0014790087 
    349000   0.034994462   -0.49332576     0.024708322   -0.41615961    -0.0022195023 
    350000   0.03370969    -0.4942163      0.024860513   -0.41882388     0.0040989435 
    351000   0.036205989   -0.49778364     0.02414096    -0.41936873     0.0034384382 
    352000   0.036199983   -0.50033845     0.025452604   -0.4206209      0.0030668516 
    353000   0.0363012     -0.50174527     0.025258801   -0.4220698     -0.0040702908 
    354000   0.037454519   -0.50293089     0.024322837   -0.42246252     0.0017494387 
    355000   0.035727727   -0.50352669     0.024535232   -0.42543444     0.00023746596
    356000   0.037248853   -0.5080681      0.02510713    -0.42712374     0.001536084  
    357000   0.039064417   -0.51172956     0.024599469   -0.42857127    -0.00025852443
    358000   0.036934235   -0.51247683     0.025449817   -0.43166141    -0.0015649923 
    359000   0.037748046   -0.51362491     0.025170483   -0.43186889     0.0031877464 
    360000   0.036542292   -0.51488346     0.024835723   -0.43526967     0.008284007  
    361000   0.036370934   -0.51562247     0.025904932   -0.43519634    -0.0020336276 
    362000   0.03644605    -0.51553717     0.026851393   -0.43405197     0.0017231125 
    363000   0.037074931   -0.51921207     0.026817725   -0.43681783     0.0056612521 
    364000   0.039146621   -0.52034704     0.02676496    -0.43490003     0.0033319803 
    365000   0.036894944   -0.52065559     0.026134471   -0.4392144      0.0050842893 
    366000   0.038191157   -0.52398893     0.025720189   -0.44101896     0.0039245325 
    367000   0.037759118   -0.52415804     0.026550473   -0.44100543     0.0047033969 
    368000   0.038002036   -0.52637926     0.026590616   -0.44282236    -0.0039553579 
    369000   0.037670386   -0.52854312     0.027606747   -0.44446725    -0.00021231797
    370000   0.03924353    -0.5303549      0.025030593   -0.44649699    -0.0010608375 
    371000   0.037932508   -0.53214047     0.025591915   -0.4496865      0.0036013884 
    372000   0.036903208   -0.53354606     0.02616856    -0.4520584     -0.0062032171 
    373000   0.038142518   -0.53461866     0.026759732   -0.45068206     0.004595804  
    374000   0.038154781   -0.53771407     0.027412678   -0.45310614     0.0007018314 
    375000   0.038401416   -0.53904091     0.026847198   -0.45462875    -0.0005349512 
    376000   0.03867869    -0.54110467     0.02755599    -0.45556807    -0.0004787524 
    377000   0.037714087   -0.54188748     0.026337447   -0.4590154     -0.00071583635
    378000   0.037732963   -0.54327566     0.026858529   -0.4598542     -0.0016116215 
    379000   0.037613794   -0.54421747     0.025748927   -0.46208425     0.0019873271 
    380000   0.038226867   -0.54521517     0.027389851   -0.46052201    -0.0019353347 
    381000   0.039194051   -0.54497256     0.026796106   -0.45942331     0.0011699293 
    382000   0.037924295   -0.54677499     0.028041744   -0.4618835     -0.0022153916 
    383000   0.038791822   -0.54659166     0.025720188   -0.46272128     0.00075125358
    384000   0.038619014   -0.54649439     0.026130521   -0.46247272     0.0036423697 
    385000   0.039276885   -0.54692828     0.027517574   -0.46053339     0.0022874646 
    386000   0.03838184    -0.54753372     0.025693228   -0.46430488    -0.0011127109 
    387000   0.038101543   -0.54676423     0.027359252   -0.46228953    -0.0011596482 
    388000   0.038387112   -0.54713808     0.027639121   -0.46195544    -0.0011056645 
    389000   0.039009156   -0.54878802     0.026596382   -0.46371565     0.0032243638 
    390000   0.038814504   -0.5500116      0.026846492   -0.46498091     0.00040817341
    391000   0.038681647   -0.55230051     0.028755271   -0.4655602     -0.0031971122 
    392000   0.040951214   -0.55339293     0.027642604   -0.46436314     0.0048073682 
    393000   0.04048244    -0.55511798     0.027550054   -0.46688344     0.0030122659 
    394000   0.039081322   -0.55550612     0.028691503   -0.46823045    -0.00071373289
    395000   0.038720173   -0.55576188     0.027682206   -0.47003688    -0.00049846503
    396000   0.040594162   -0.56086757     0.028842077   -0.47117353    -0.0041643729 
    397000   0.040886275   -0.5628617      0.027757434   -0.47381442     0.0025893859 
    398000   0.039587223   -0.56406609     0.028624591   -0.47609898     0.002681275  
    399000   0.040605469   -0.56406122     0.029241842   -0.47395047    -0.0019399099 
    400000   0.040015474   -0.56446908     0.027722926   -0.47676166     0.0024189506 
    401000   0.041649653   -0.56436284     0.027756701   -0.47417197     0.0040857113 
    402000   0.041989534   -0.56664613     0.030107902   -0.47359456    -0.0015684633 
    403000   0.04168893    -0.56812427     0.029468021   -0.4761632      0.0012706393 
    404000   0.039886434   -0.56723309     0.028819165   -0.47862287    -0.0037844947 
    405000   0.042085613   -0.56788155     0.027210073   -0.47758378     0.0010892817 
    406000   0.040108686   -0.56845309     0.026640033   -0.48168884     0.0033689461 
    407000   0.041697404   -0.56817009     0.026971717   -0.47869262     0.0046315034 
    408000   0.041419317   -0.56895078     0.02765765    -0.47920424     0.0040820981 
    409000   0.04105158    -0.56912528     0.028970661   -0.47861698     0.0012486749 
    410000   0.042080327   -0.56869918     0.028714024   -0.47690538     0.0072303133 
    411000   0.043380308   -0.56982732     0.028060732   -0.47673811     0.00064412779
    412000   0.041733093   -0.57025723     0.029810862   -0.47788712     0.00049587289
    413000   0.041055385   -0.5728065      0.028768469   -0.48249468     0.0023641073 
    414000   0.04319622    -0.57367194     0.027788875   -0.48113053    -0.0057682065 
    415000   0.043299903   -0.57446992     0.027441539   -0.48212043     0.0062907778 
    416000   0.041821835   -0.57441522     0.027282622   -0.48444032     0.0016029034 
    417000   0.04264947    -0.57439473     0.028709836   -0.48175196     0.0035644216 
    418000   0.045086228   -0.57134401     0.031874275   -0.47188403     0.0022163087 
    419000   0.043826739   -0.57385598     0.031351837   -0.47680645     0.0017301785 
    420000   0.043559012   -0.57590958     0.030740052   -0.47987317     0.0027165606 
    421000   0.04070769    -0.57557803     0.030699739   -0.48385615    -0.00088320139
    422000   0.041042158   -0.57513867     0.029045971   -0.48456918     0.0024650659 
    423000   0.043095287   -0.57575621     0.029356793   -0.48179819     0.0048514444 
    424000   0.043514985   -0.57390644     0.02896452    -0.47971155    -0.00042129766
    425000   0.042632448   -0.57514122     0.02888514    -0.48234867     0.0032617047 
    426000   0.044695676   -0.57339752     0.028362063   -0.4780352      0.0060546986 
    427000   0.043619463   -0.57547413     0.028440557   -0.48164659    -0.0040736021 
    428000   0.042775245   -0.57464249     0.030779587   -0.47974143     0.0022897978 
    429000   0.04385665    -0.57429269     0.029726874   -0.47882328     0.0037911963 
    430000   0.043353002   -0.57468005     0.029944383   -0.47974812     0.0054410409 
    431000   0.04313179    -0.57450259     0.031158597   -0.47868805    -0.0021505507 
    432000   0.042998577   -0.57317731     0.03058132    -0.47813973     0.003536112  
    433000   0.044301018   -0.57365698     0.028130606   -0.47911772     0.0034300083 
    434000   0.043126406   -0.57389315     0.030312254   -0.47893302    -0.0029972589 
    435000   0.043354105   -0.57466046     0.028955601   -0.48071565     0.0035719836 
    436000   0.043579515   -0.57439304     0.029842202   -0.47922374     0.0076776471 
    437000   0.043181121   -0.57476211     0.030988915   -0.4790433     -0.0015407619 
    438000   0.045433037   -0.57485546     0.030811139   -0.47593874     0.00095030325
    439000   0.044559269   -0.57751735     0.031181139   -0.47954043    -0.0022599754 
    440000   0.045065768   -0.57665672     0.029527325   -0.47957435     0.0037645954 
    441000   0.043824592   -0.57669841     0.032263978   -0.47873995     0.002021489  
    442000   0.044206679   -0.57758155     0.031276576   -0.48003774     0.0059907191 
    443000   0.044705258   -0.57852518     0.031947183   -0.47956337    -0.002317143  
    444000   0.047348247   -0.57993101     0.031459321   -0.47749514     0.001767142  
    445000   0.04517319    -0.58112574     0.032750495   -0.48065918     3.9511152e-05
    446000   0.045527383   -0.58073318     0.029688414   -0.48279775    -0.00066398631
    447000   0.046045817   -0.58233337     0.030786711   -0.4825225     -0.00010159385
    448000   0.044808778   -0.58240886     0.032149517   -0.48308954     0.0052000866 
    449000   0.04486967    -0.58248242     0.031294012   -0.48392732    -0.00038164371
    450000   0.044800568   -0.5822513      0.031177322   -0.48391648     0.0065747456 
    451000   0.044833746   -0.58302161     0.03337595    -0.48243843     0.0036006108 
    452000   0.045527644   -0.58368895     0.032611619   -0.48282992     0.0013967232 
    453000   0.046483476   -0.58416758     0.033014814   -0.48147254     0.0031831122 
    454000   0.04522888    -0.58330282     0.030841964   -0.48466131    -0.0013151656 
    455000   0.044161506   -0.58350749     0.032046671   -0.4852613     -0.00066453675
    456000   0.044629037   -0.58393461     0.031603571   -0.48543067    -0.00049407625
    457000   0.045076073   -0.58424884     0.032809867   -0.48386848    -0.0015269544 
    458000   0.045710635   -0.5855304      0.030327097   -0.48668158     0.00072545106
    459000   0.047917247   -0.58401427     0.030712448   -0.48147232     0.0093409584 
    460000   0.047006994   -0.58454455     0.033840343   -0.48023921    -0.00065173897
    461000   0.047572922   -0.58442822     0.032724226   -0.48039065     0.0038363794 
    462000   0.046426667   -0.58369084     0.031695191   -0.48240057     0.00086582362
    463000   0.04785395    -0.58421398     0.034731199   -0.47774817     0.0030990795 
    464000   0.046939698   -0.58420361     0.033797603   -0.48004188    -0.0021391346 
    465000   0.04665685    -0.58354937     0.03373436    -0.47987489     0.0060316874 
    466000   0.047112783   -0.58380873     0.032898689   -0.48028646     0.0013086196 
    467000   0.048578193   -0.58471071     0.032395429   -0.479495      -0.003596157  
    468000   0.047003216   -0.58649591     0.032351721   -0.48368486     0.0015030298 
    469000   0.046673393   -0.58666663     0.034175094   -0.48252661     0.00075635028
    470000   0.048771123   -0.58571385     0.03267954    -0.47992483     0.0039839733 
    471000   0.048017244   -0.58628511     0.03537082    -0.47893489     0.0073445129 
    472000   0.046267364   -0.58603508     0.0328193     -0.48385951     0.00083778466
    473000   0.04721964    -0.58786782     0.032951543   -0.48413251     0.0040499846 
    474000   0.045751753   -0.58944114     0.03496022    -0.48589757     0.0067581618 
    475000   0.048879309   -0.5903531      0.032902738   -0.4841787     -0.0049075353 
    476000   0.048251249   -0.59101065     0.03323007    -0.4854504     -0.0033947072 
    477000   0.04659057    -0.59065794     0.033099316   -0.48771786    -0.0051905223 
    478000   0.049767321   -0.59267892     0.032836809   -0.48523929    -0.00018952963
    479000   0.049436767   -0.59533413     0.033381423   -0.4878454      0.00065355525
    480000   0.049244336   -0.59443807     0.033994995   -0.48662422    -0.0012803301 
    481000   0.046652951   -0.59707735     0.034546528   -0.49259655     0.0053821035 
    482000   0.049143954   -0.59924845     0.032153937   -0.49342614    -0.00028691147
    483000   0.04969286    -0.60103015     0.033034317   -0.49350463    -0.0033392282 
    484000   0.046685703   -0.60178749     0.033937685   -0.49786643     0.0017096251 
    485000   0.048452487   -0.60384253     0.034388866   -0.49682182     0.0038498252 
    486000   0.050469166   -0.60527515     0.033598614   -0.49602162     0.0054113006 
    487000   0.048685739   -0.60609066     0.035880187   -0.49722898    -0.0070111261 
    488000   0.049624117   -0.60573174     0.034394421   -0.49694916     0.00078836368
    489000   0.049755967   -0.60827782     0.033861488   -0.49983053    -0.002352997  
    490000   0.050451108   -0.60819778     0.035298269   -0.49727168     0.0025483262 
    491000   0.048513921   -0.60900677     0.034883112   -0.50139973    -0.00064436814
    492000   0.049077003   -0.60891712     0.0353877     -0.49996141     0.002980704  
    493000   0.04920537    -0.61017649     0.035198567   -0.50121749    -0.0046856959 
    494000   0.047893475   -0.60952177     0.035012562   -0.50271534    -0.0016923757 
    495000   0.049331931   -0.61053617     0.032800636   -0.50378538     0.0045502555 
    496000   0.049523212   -0.61154375     0.034914848   -0.50239201     0.0016678007 
    497000   0.051265006   -0.61240518     0.03474959    -0.50080769    -0.0095506075 
    498000   0.050641615   -0.61099864     0.034234529   -0.5008507      0.0049326874 
    499000   0.050552095   -0.61418718     0.03517666    -0.5032313     -0.0022913327 
    500000   0.050691669   -0.61436945     0.03653227    -0.50184873     0.00021299181
Loop time of 126.607 on 8 procs for 500000 steps with 1550 atoms

Performance: 341214.232 tau/day, 3949.239 timesteps/s, 6.121 Matom-step/s
91.9% CPU use with 8 MPI tasks x 1 OpenMP threads

MPI task timing breakdown:
Section |  min time  |  avg time  |  max time  |%varavg| %total
---------------------------------------------------------------
Pair    | 13.608     | 15.039     | 16.242     |  23.6 | 11.88
Bond    | 4.8713     | 5.376      | 5.7815     |  12.0 |  4.25
Neigh   | 0.047686   | 0.047885   | 0.048091   |   0.1 |  0.04
Comm    | 12.302     | 13.692     | 15.421     |  31.8 | 10.81
Output  | 0.39458    | 0.4161     | 0.43874    |   2.3 |  0.33
Modify  | 90.482     | 90.581     | 90.652     |   0.7 | 71.55
Other   |            | 1.455      |            |       |  1.15

Nlocal:         193.75 ave         235 max         166 min
Histogram: 1 0 3 1 1 1 0 0 0 1
Nghost:        617.125 ave         640 max         588 min
Histogram: 2 0 1 0 0 0 0 3 1 1
Neighs:              0 ave           0 max           0 min
Histogram: 8 0 0 0 0 0 0 0 0 0
FullNghs:         3082 ave        4067 max        2186 min
Histogram: 1 0 1 2 0 2 0 1 0 1

Total # of neighbors = 24656
Ave neighs/atom = 15.907097
Ave special neighs/atom = 2.1612903
Neighbor list builds = 179
Dangerous builds = 0

unfix ThermoLng

# Now we let the system to create the polymeric network
fix ThermoLng all langevin ${temp} ${temp} ${damp} ${seed3} tally yes zero yes # Brownian Dynamics: langevin + nve
fix ThermoLng all langevin 0.05 ${temp} ${damp} ${seed3} tally yes zero yes 
fix ThermoLng all langevin 0.05 0.05 ${damp} ${seed3} tally yes zero yes 
fix ThermoLng all langevin 0.05 0.05 1 ${seed3} tally yes zero yes 
fix ThermoLng all langevin 0.05 0.05 1 2010 tally yes zero yes 
run ${steps}
run 3500000
WARNING: Using a manybody potential with bonds/angles/dihedrals and special_bond exclusions (src/pair.cpp:250)
Hybrid pair style last /omp style table/omp
Last active /omp style is angle_style harmonic/omp
Per MPI rank memory allocation (min/avg/max) = 24.03 | 24.04 | 24.04 Mbytes
   Step          Temp          E_pair         E_mol          TotEng         Press     
    500000   0.050691669   -0.61436945     0.03653227    -0.50184873     0.00021299181
    501000   0.051196632   -0.61577454     0.03598396    -0.50304518     5.9551691e-05
    502000   0.05054164    -0.61542121     0.033795598   -0.50586206     0.00021127064
    503000   0.049305951   -0.61509066     0.033352162   -0.50782729     0.007123495  
    504000   0.049658542   -0.61521303     0.034681287   -0.50609199    -0.00040779913
    505000   0.048625608   -0.61500311     0.035052683   -0.50705907     0.0031423855 
    506000   0.049379809   -0.61731924     0.034810945   -0.50848637     0.0025493684 
    507000   0.052266939   -0.62012118     0.035713511   -0.50605784     0.00058364137
    508000   0.051682344   -0.62254003     0.035376174   -0.50969036     0.0039900263 
    509000   0.052578089   -0.62306106     0.033681626   -0.51056318     0.014975494  
    510000   0.050714126   -0.62526323     0.036172036   -0.51306908    -0.0082874425 
    511000   0.049307901   -0.62615655     0.035033208   -0.5172092     -0.006122789  
    512000   0.049991167   -0.62717224     0.036181233   -0.51605264     0.0049320604 
    513000   0.051686086   -0.62842306     0.036391021   -0.51455293     0.002968817  
    514000   0.048473654   -0.62775724     0.03498144    -0.52011223     0.0029007892 
    515000   0.050826451   -0.62856533     0.034874324   -0.51750051     0.0032349102 
    516000   0.051010387   -0.62850266     0.034293434   -0.51774301     0.0021942343 
    517000   0.052810043   -0.63093472     0.035302085   -0.51646867    -0.0018576691 
    518000   0.050597968   -0.63174332     0.034268942   -0.52162639     0.00084967763
    519000   0.049654692   -0.63282674     0.036678838   -0.52171392     0.0012724241 
    520000   0.051798045   -0.63226872     0.034475462   -0.52014632     0.00050035155
    521000   0.049753677   -0.63463069     0.035589715   -0.52445861    -0.0054489792 
    522000   0.049760582   -0.63364966     0.035173958   -0.52388299    -0.00047861482
    523000   0.048496022   -0.63393774     0.03638455    -0.52485609     0.0038899622 
    524000   0.050787336   -0.63331881     0.035543945   -0.52164301    -4.7606971e-05
    525000   0.050116625   -0.63568569     0.036037498   -0.52452175    -0.0013202725 
    526000   0.050641445   -0.63527138     0.034002245   -0.52535598    -0.0071357634 
    527000   0.048918816   -0.63483202     0.034498054   -0.52700308     0.0055562325 
    528000   0.050219523   -0.63549362     0.033989232   -0.52622371     0.0046258321 
    529000   0.04969716    -0.63735307     0.034705934   -0.52814949    -0.0033745611 
    530000   0.047715383   -0.63800922     0.036692168   -0.52979015    -0.0054312655 
    531000   0.049335023   -0.63677829     0.034787432   -0.52803607     0.0033229727 
    532000   0.050731019   -0.63949724     0.034393391   -0.52905642    -0.00080372147
    533000   0.050522387   -0.63784653     0.033539595   -0.52857224     0.0082676599 
    534000   0.050150311   -0.64098598     0.035898154   -0.52991089     0.0011410562 
    535000   0.051573375   -0.64078296     0.036361383   -0.52711142     0.0014279562 
    536000   0.049512037   -0.64133817     0.033273523   -0.5338445     -0.00093237026
    537000   0.050018864   -0.64293415     0.036901011   -0.53105325    -0.0022748978 
    538000   0.051769117   -0.6422798      0.035392366   -0.52928386     0.0052805939 
    539000   0.050571152   -0.64398109     0.036917212   -0.53125609    -0.0034541188 
    540000   0.050113302   -0.64399488     0.034556591   -0.53431683    -0.00021800439
    541000   0.049387743   -0.64579079     0.036000956   -0.53575601    -0.0050757289 
    542000   0.051863495   -0.64749779     0.035235688   -0.53451705     0.0014578593 
    543000   0.050306763   -0.64832987     0.035690946   -0.53722746    -0.0014908219 
    544000   0.050381805   -0.64960529     0.035280569   -0.53880077    -0.0031913289 
    545000   0.051483087   -0.65020497     0.034107682   -0.53892248    -0.0014700105 
    546000   0.051438485   -0.65057361     0.033860969   -0.5396047      0.00059933683
    547000   0.050286742   -0.65132387     0.034824605   -0.54111782    -0.0016507064 
    548000   0.051633514   -0.65223027     0.036661156   -0.53816882    -0.0015503277 
    549000   0.048686424   -0.65141122     0.036090213   -0.54233849    -8.8095634e-06
    550000   0.049820678   -0.65211155     0.035745606   -0.54168314     0.00018552502
    551000   0.049678996   -0.65181171     0.034113422   -0.54322787     0.0037266689 
    552000   0.050059091   -0.65118872     0.034507762   -0.54164076     0.0017249229 
    553000   0.051522557   -0.65034907     0.033336699   -0.53977839     0.00095286898
    554000   0.049614317   -0.65193108     0.035791952   -0.54176567    -0.0026201913 
    555000   0.048920914   -0.6517745      0.032532252   -0.54590822    -0.00063239335
    556000   0.0487107     -0.65097911     0.033741725   -0.54421848     0.0060998754 
    557000   0.052098794   -0.65256434     0.036532468   -0.5379341     -0.00066153762
    558000   0.051299572   -0.65452973     0.036727163   -0.54090286    -0.0054735092 
    559000   0.051046488   -0.65313599     0.0371858     -0.53942986    -0.003543145  
    560000   0.05040654    -0.65407703     0.036164179   -0.54235182     0.00024589089
    561000   0.052419095   -0.65549932     0.03359013    -0.54333128     0.00036132327
    562000   0.049591965   -0.65521092     0.035603901   -0.54526707     0.0016326534 
    563000   0.050824479   -0.65569783     0.036367032   -0.54314327     0.0048226453 
    564000   0.052181598   -0.65719421     0.034833455   -0.54413885     0.006667971  
    565000   0.052720359   -0.66147989     0.036705745   -0.54574462    -0.00076910105
    566000   0.052338321   -0.66068455     0.03548106    -0.54674666    -0.00349665   
    567000   0.051682938   -0.66035518     0.035617      -0.54726378    -0.00021713633
    568000   0.050274535   -0.6615386      0.03723462    -0.54894083    -0.0081083154 
    569000   0.049722263   -0.66013637     0.034437042   -0.55116405     0.0065018199 
    570000   0.050149383   -0.6619051      0.033551876   -0.55317768     0.0049716238 
    571000   0.051070438   -0.66125967     0.035360087   -0.54934335    -0.00024499836
    572000   0.04989663    -0.66024412     0.035221641   -0.55022582    -0.0019668341 
    573000   0.050104258   -0.66045236     0.034838165   -0.55050629     0.0054232214 
    574000   0.051488523   -0.661874       0.034435514   -0.55025553    -0.00059798035
    575000   0.050480098   -0.66267375     0.034584902   -0.55241755     0.00081135671
    576000   0.04798727    -0.66221659     0.035179275   -0.55510285     0.0008819125 
    577000   0.051417276   -0.6633356      0.032959677   -0.55329976    -0.0018525096 
    578000   0.049903729   -0.66292055     0.036295412   -0.55181784    -0.0084220692 
    579000   0.050941751   -0.66276085     0.033584762   -0.55281275     0.0025820656 
    580000   0.050518589   -0.66289339     0.03624525    -0.55091914     0.0019189606 
    581000   0.051511627   -0.66399691     0.034895209   -0.55188411    -0.0023287136 
    582000   0.049344542   -0.6622538      0.036454517   -0.55183023    -0.0025553159 
    583000   0.050995221   -0.66270647     0.036332774   -0.54993022     0.0019278567 
    584000   0.051160087   -0.66295794     0.034856097   -0.55141122     0.0040817248 
    585000   0.051177517   -0.66472914     0.036001024   -0.55201137    -0.0016887724 
    586000   0.052722107   -0.66441536     0.035193424   -0.5501898     -0.0011950166 
    587000   0.048775206   -0.66404141     0.034887042   -0.55603876     0.0061448033 
    588000   0.050452428   -0.66410988     0.035249327   -0.55323074    -0.00056001663
    589000   0.050756826   -0.6647076      0.037477733   -0.55114375    -0.0048303152 
    590000   0.050244931   -0.66524187     0.036241064   -0.55368204     0.00023692977
    591000   0.049491412   -0.66582283     0.035109101   -0.5565245      0.0021180305 
    592000   0.049897014   -0.66601282     0.033817007   -0.55739858     0.00035446532
    593000   0.051173524   -0.66735736     0.035379642   -0.55526695    -0.0013350222 
    594000   0.049480503   -0.66678983     0.037028291   -0.55558867    -0.0079108333 
    595000   0.048522431   -0.66595721     0.033839686   -0.55938084     0.004054467  
    596000   0.048018733   -0.66865574     0.03617217    -0.56050195     0.0035736787 
    597000   0.049003961   -0.66815437     0.034620093   -0.56007576    -0.00058343205
    598000   0.048228405   -0.66948968     0.036559161   -0.56063459    -0.0015050376 
    599000   0.048889756   -0.67077832     0.036969021   -0.56052197    -0.00069865048
    600000   0.051127335   -0.67024562     0.037089546   -0.55651455     0.0037846835 
    601000   0.051841999   -0.67050684     0.039442532   -0.55335148     0.0035434367 
    602000   0.050964565   -0.67101712     0.036201874   -0.55841772    -0.0016985251 
    603000   0.051437992   -0.67139563     0.03828228    -0.55600614     0.006697717  
    604000   0.052233323   -0.67071359     0.035588826   -0.55682533     0.0037086449 
    605000   0.048854319   -0.67268564     0.035488039   -0.5639634     -0.0067293666 
    606000   0.050489503   -0.67360515     0.035985014   -0.56193475    -0.00077970786
    607000   0.050736393   -0.6741347      0.038154025   -0.55992519    -0.0035066493 
    608000   0.052149618   -0.67454964     0.035124014   -0.56125167     0.0022561757 
    609000   0.049605155   -0.67415803     0.037102646   -0.56269566    -0.0012104252 
    610000   0.049068193   -0.67426397     0.036219982   -0.56448918    -0.0028146675 
    611000   0.050161855   -0.67472342     0.035367829   -0.56416135     0.0021860986 
    612000   0.052588844   -0.67544847     0.03619637    -0.56041972    -0.0038025766 
    613000   0.050577408   -0.67411769     0.036842848   -0.56145768     0.0066262283 
    614000   0.051637706   -0.67530293     0.034188997   -0.56370735     0.0039009389 
    615000   0.050239329   -0.67668408     0.035134201   -0.5662395      0.0064979329 
    616000   0.049885754   -0.67804054     0.035697826   -0.56756236    -0.0022204876 
    617000   0.047957524   -0.6777134      0.03680356    -0.56901997    -0.00087320828
    618000   0.048824941   -0.67895662     0.03504712    -0.57071934     0.003325496  
    619000   0.051615412   -0.67936573     0.034369554   -0.56762301     0.0012822147 
    620000   0.049392463   -0.67957222     0.034804619   -0.5707267     -0.0022996562 
    621000   0.051297191   -0.67934874     0.035481511   -0.56697108     0.0056159507 
    622000   0.048995755   -0.67882887     0.034348754   -0.5710339      0.0045352457 
    623000   0.049443834   -0.67932397     0.038035755   -0.56717031    -0.001766869  
    624000   0.04992251    -0.68007247     0.035437353   -0.56979967     0.0027386255 
    625000   0.050255919   -0.68249781     0.035165057   -0.57199751     0.00033492932
    626000   0.050933395   -0.68146918     0.035374464   -0.56974391    -0.0027412579 
    627000   0.050305315   -0.68079394     0.036308625   -0.56907603     0.0013524431 
    628000   0.05004203    -0.68212635     0.034306069   -0.57280566    -0.0015991687 
    629000   0.049985725   -0.68316225     0.034097952   -0.57413408     0.00050748224
    630000   0.049975317   -0.68339231     0.038197669   -0.57028003    -0.0055892511 
    631000   0.051371031   -0.68255856     0.034844379   -0.57070735     0.0092712663 
    632000   0.051456677   -0.68303442     0.035136885   -0.57076232    -0.00039172944
    633000   0.048951485   -0.68278234     0.036376121   -0.57302637     0.0039627546 
    634000   0.050064834   -0.68435123     0.03701279    -0.57228964    -0.0033576526 
    635000   0.05057876    -0.68472809     0.038227104   -0.57068179    -0.0029914364 
    636000   0.050628947   -0.68565724     0.033391515   -0.5763713     -0.0021582821 
    637000   0.049052245   -0.6841769      0.034913469   -0.57573253    -0.0041920824 
    638000   0.05151548    -0.68484225     0.034635682   -0.5729832     -0.00235754   
    639000   0.053208333   -0.68443405     0.036083351   -0.56858969     0.0061744913 
    640000   0.05047175    -0.68344997     0.036353184   -0.57143801     0.0057625259 
    641000   0.051468229   -0.68354818     0.035890812   -0.57050483     0.0055431055 
    642000   0.052311493   -0.6844219      0.035269825   -0.57073546    -0.0017510565 
    643000   0.052079202   -0.68429102     0.034983092   -0.57123952    -0.00086028922
    644000   0.050697779   -0.6837043      0.034517459   -0.57318923     0.00062138324
    645000   0.050286822   -0.68367278     0.036423744   -0.57186747    -0.00041925516
    646000   0.050016434   -0.68409369     0.034546015   -0.57457143     0.00049671943
    647000   0.051219636   -0.68631391     0.035594711   -0.57393931     0.0012330377 
    648000   0.051118389   -0.68735295     0.035090454   -0.57563438     0.016248303  
    649000   0.053625335   -0.68892097     0.036296952   -0.57223791     0.00068476049
    650000   0.051720327   -0.6880083      0.036243415   -0.57423445     0.0074669317 
    651000   0.051034972   -0.68994133     0.036454194   -0.57698406    -0.0047633835 
    652000   0.050513844   -0.69113661     0.035871532   -0.5795432     -0.00053013552
    653000   0.051268406   -0.68924785     0.034138474   -0.57825639     0.0077663799 
    654000   0.050307389   -0.69070748     0.035517189   -0.57977789    -0.0027836006 
    655000   0.049806896   -0.69188269     0.036364852   -0.5808557      0.0032379026 
    656000   0.05043142    -0.69234141     0.034676476   -0.58206661    -0.00097188742
    657000   0.050132144   -0.69374871     0.034945219   -0.58365379     0.0063538151 
    658000   0.051174996   -0.69319969     0.034113444   -0.58237328     0.0037992635 
    659000   0.050412803   -0.69405331     0.036578822   -0.58190407    -0.0041185816 
    660000   0.05030865    -0.69545746     0.034101249   -0.58594192    -0.00026014678
    661000   0.050889399   -0.69338        0.03641717    -0.58067798    -0.0047882087 
    662000   0.052453121   -0.69513048     0.03633504    -0.58016652     0.0027907004 
    663000   0.051345113   -0.69506795     0.034516766   -0.5835832      0.0016703016 
    664000   0.048522099   -0.69475117     0.035304395   -0.58671059     0.0039312929 
    665000   0.050154709   -0.69627122     0.034293502   -0.58679419    -0.0021064665 
    666000   0.052384117   -0.69586484     0.037081969   -0.58025739     0.0024723425 
    667000   0.050849939   -0.69527467     0.035122673   -0.58392629     0.0046732565 
    668000   0.052751541   -0.69525034     0.036088733   -0.58008535     0.0057794455 
    669000   0.050405251   -0.69482514     0.037181961   -0.58208408     0.0046674048 
    670000   0.053516049   -0.697166       0.035945293   -0.58099843     0.0017712713 
    671000   0.052115367   -0.69813715     0.035442275   -0.58457226     9.0131709e-06
    672000   0.04986498    -0.69721431     0.036671962   -0.58579314     0.0049595143 
    673000   0.049317701   -0.70026415     0.036439765   -0.58989556     0.003413152  
    674000   0.050585944   -0.70024206     0.038353877   -0.58605822    -7.597817e-05 
    675000   0.050087059   -0.70045992     0.038073187   -0.58730462     0.0036510634 
    676000   0.049718603   -0.70017735     0.036845265   -0.58880229     0.0070774459 
    677000   0.052245856   -0.69997252     0.034316384   -0.58733792     0.0011591373 
    678000   0.051153978   -0.7001482      0.035838144   -0.58762859     0.0068092799 
    679000   0.051539186   -0.70020778     0.03366904    -0.58927984    -0.0018837632 
    680000   0.051164197   -0.70074581     0.037348857   -0.58670018     0.0011410039 
    681000   0.048327814   -0.70024132     0.035277439   -0.59251893    -0.0018110975 
    682000   0.050439651   -0.70096902     0.037749016   -0.58760934     0.0028696876 
    683000   0.049901073   -0.70068126     0.036157861   -0.58972008     0.0006456892 
    684000   0.050467101   -0.70090118     0.035281265   -0.58996811    -0.00072835902
    685000   0.050686147   -0.70038072     0.03492619    -0.58947436    -0.00059274601
    686000   0.051402582   -0.70149505     0.036461569   -0.58797936     0.0071528576 
    687000   0.050225436   -0.70224737     0.036714873   -0.59024295    -0.00066574187
    688000   0.051449497   -0.70203031     0.03398796    -0.59091789    -0.005029326  
    689000   0.049096985   -0.70209638     0.034682871   -0.59381554     0.0037819838 
    690000   0.049125377   -0.70101989     0.03591225    -0.59146711     0.0019600437 
    691000   0.051271039   -0.70162592     0.035919581   -0.5888494      0.0060149194 
    692000   0.049804973   -0.70383454     0.035191664   -0.59398362     0.0012090131 
    693000   0.051043995   -0.7034895      0.035620839   -0.59135207    -0.0011736499 
    694000   0.051683513   -0.7048107      0.03470729    -0.59262816     0.0075194214 
    695000   0.049710209   -0.70474922     0.034930696   -0.59530132    -0.0041809012 
    696000   0.050241092   -0.70434771     0.033846818   -0.59518788     0.0064946685 
    697000   0.053020339   -0.70544701     0.034981238   -0.59098658     0.0022597844 
    698000   0.050084248   -0.70721175     0.036337506   -0.59579634    -0.0019287635 
    699000   0.052521051   -0.70860764     0.036894635   -0.59298225     0.0015058059 
    700000   0.050395734   -0.7079913      0.037779637   -0.59466683     0.0066688973 
    701000   0.051402325   -0.70954167     0.036854875   -0.59563305     0.0031564932 
    702000   0.051485796   -0.7089883      0.036003515   -0.59580592     0.0014617074 
    703000   0.05046966    -0.71134823     0.036129676   -0.5995629      0.0023365744 
    704000   0.051155071   -0.71185369     0.035109743   -0.60006084    -0.0043682589 
    705000   0.050113845   -0.70984498     0.035529842   -0.59919287     0.0054125436 
    706000   0.049770555   -0.71123634     0.037867218   -0.59876145     0.0040307924 
    707000   0.051019715   -0.71148862     0.034859219   -0.6001492     -0.0023666288 
    708000   0.049790449   -0.71167071     0.036128032   -0.60090519     0.0018031248 
    709000   0.052963399   -0.71165675     0.034790703   -0.59747221    -0.0018466648 
    710000   0.050300521   -0.71074802     0.034832663   -0.60051325     0.004267792  
    711000   0.051418516   -0.71328186     0.036619472   -0.59958437    -0.0039020537 
    712000   0.050017139   -0.71276999     0.036675387   -0.60111729     0.0026964799 
    713000   0.051985154   -0.71313821     0.036942345   -0.59826845     0.0042552126 
    714000   0.051398821   -0.71328164     0.035240964   -0.60099219     0.0013609526 
    715000   0.047686613   -0.71255241     0.0340786     -0.60699004     0.0050386844 
    716000   0.049807556   -0.71468116     0.03420904    -0.60580899     0.00046879928
    717000   0.050325495   -0.71422273     0.035860791   -0.6029224     -0.0070710925 
    718000   0.051256605   -0.7133173      0.036116032   -0.60036596     0.0043802575 
    719000   0.051718792   -0.71316943     0.038134081   -0.59750721     0.0013545571 
    720000   0.05241042    -0.71280416     0.036075169   -0.59816408     0.0040911831 
    721000   0.050206268   -0.71487492     0.037662471   -0.60195163    -0.0031208676 
    722000   0.051290414   -0.71485235     0.036110611   -0.60185576     0.0040854233 
    723000   0.050624076   -0.71510028     0.035074012   -0.60413915     0.0025031169 
    724000   0.050952929   -0.71627213     0.035269173   -0.60462287    -0.00052192019
    725000   0.050155353   -0.71566504     0.035293598   -0.60518695     0.0040887738 
    726000   0.05096973    -0.71432751     0.034918287   -0.60300395     0.0084518461 
    727000   0.051096419   -0.71760057     0.03734796    -0.60365743    -0.0032331868 
    728000   0.050119683   -0.71750323     0.035247559   -0.60712465     0.0019262204 
    729000   0.050732742   -0.71820461     0.03364106    -0.60851353    -0.0072848968 
    730000   0.050123266   -0.71702488     0.034450709   -0.60743778     0.0041011806 
    731000   0.04932034    -0.71722977     0.036101517   -0.60719547     0.0036517545 
    732000   0.051279456   -0.72224947     0.034999074   -0.61038084     0.0040500081 
    733000   0.04859565    -0.72249935     0.034786935   -0.61486597    -0.0019308687 
    734000   0.050362866   -0.72087826     0.035921784   -0.60946091     0.0045930247 
    735000   0.04944626    -0.7224236      0.034440907   -0.61386116     0.0018402892 
    736000   0.050449424   -0.72255793     0.035644687   -0.61128793    -0.0030431074 
    737000   0.050404444   -0.72220602     0.036149959   -0.61049818    -0.0042133647 
    738000   0.052420363   -0.72243842     0.034997601   -0.608861       0.0088308022 
    739000   0.050780071   -0.72295208     0.034639136   -0.61219198     0.00020180725
    740000   0.05006239    -0.72276803     0.035096759   -0.61262614     0.00040183977
    741000   0.049710547   -0.72427268     0.035178881   -0.61457608    -0.0023747149 
    742000   0.04894832    -0.72409793     0.035975292   -0.61474753    -0.0010878952 
    743000   0.050326283   -0.72324144     0.035132916   -0.6126678     -0.0012264773 
    744000   0.050348477   -0.72365251     0.034830208   -0.61334831     0.0025587648 
    745000   0.049572279   -0.72352398     0.036996267   -0.61221726    -0.002316314  
    746000   0.049532846   -0.72509252     0.03468333    -0.61615786    -0.0028952824 
    747000   0.049452999   -0.72402377     0.035483243   -0.61440888     0.003411543  
    748000   0.049328195   -0.72315621     0.035976991   -0.61323466     0.0032036835 
    749000   0.050648348   -0.72280091     0.035540011   -0.61133739     0.0024511065 
    750000   0.051811981   -0.72315114     0.03626151    -0.6092218      0.0051336055 
    751000   0.051495792   -0.72356243     0.035333169   -0.6110354      0.0026747262 
    752000   0.050543818   -0.72436223     0.035029382   -0.61356604    -0.0050535434 
    753000   0.051399278   -0.72425189     0.034938262   -0.61226445     0.0063041857 
    754000   0.052399116   -0.72495047     0.035967362   -0.61043514     0.0021271277 
    755000   0.051175147   -0.72506616     0.035692315   -0.61266064     0.0052584619 
    756000   0.05018419    -0.72507228     0.038811096   -0.61103346    -0.0023575922 
    757000   0.049618747   -0.72481774     0.035241851   -0.61519579     0.0032866337 
    758000   0.050640243   -0.72629455     0.035434271   -0.61494892    -0.0072947317 
    759000   0.04937292    -0.72813422     0.036002181   -0.61812044     0.006069003  
    760000   0.048296483   -0.73054491     0.034293107   -0.62385382    -0.00015335585
    761000   0.050563521   -0.72926007     0.033512078   -0.61995165     0.010273298  
    762000   0.049558064   -0.73149217     0.036554356   -0.62064868    -0.0065308892 
    763000   0.052469898   -0.72889803     0.036779934   -0.61346402    -0.00029412484
    764000   0.052106117   -0.727205       0.03383847    -0.61525778     0.00052017527
    765000   0.050682223   -0.72809352     0.035271603   -0.61684763    -0.003695869  
    766000   0.049795739   -0.72792946     0.034232093   -0.61905194    -0.0046834432 
    767000   0.050683962   -0.72829598     0.034350832   -0.61796826     0.0054530433 
    768000   0.051309725   -0.72967544     0.034855051   -0.61790546     9.171263e-05 
    769000   0.051341033   -0.73147608     0.03620218    -0.61831203    -0.0035884654 
    770000   0.05082459    -0.73128287     0.035679148   -0.61941603    -0.00074300005
    771000   0.050615938   -0.73145783     0.033821485   -0.62176142    -0.003857178  
    772000   0.051314592   -0.73245346     0.034841089   -0.62069014     0.0022804877 
    773000   0.049328797   -0.73314904     0.036248161   -0.62295542    -0.0037576454 
    774000   0.050335535   -0.73303694     0.036864475   -0.62071788     0.00012809372
    775000   0.052034328   -0.73245387     0.036176814   -0.61827592    -0.00054349737
    776000   0.049787538   -0.73300468     0.037618302   -0.62075325    -0.0072722215 
    777000   0.049120152   -0.73294535     0.035524858   -0.6237878     -0.0059682735 
    778000   0.050274681   -0.73346049     0.034918477   -0.62317865     0.00056234049
    779000   0.050337504   -0.73294592     0.036472093   -0.62101628     0.0044556361 
    780000   0.051215302   -0.73346331     0.037819642   -0.61887028    -0.00049749131
    781000   0.050160216   -0.73330552     0.034174345   -0.62393939     0.0043961713 
    782000   0.051572582   -0.7331717      0.036829808   -0.61903293    -0.0021844419 
    783000   0.051441625   -0.73395624     0.03624376    -0.62059982    -0.010231084  
    784000   0.051188018   -0.73378604     0.036989924   -0.62006363    -0.0013051797 
    785000   0.049392581   -0.73334929     0.034447633   -0.62486059     0.0034864357 
    786000   0.049905172   -0.73407069     0.034916241   -0.62434498    -0.0032047096 
    787000   0.049086652   -0.73355889     0.03504846    -0.62492795     0.0071659447 
    788000   0.048908998   -0.73347919     0.035427542   -0.62473548     0.0046138787 
    789000   0.050532345   -0.73456259     0.034866547   -0.62394642    -0.0014270742 
    790000   0.052496264   -0.73848637     0.036126325   -0.62366645     0.0096509172 
    791000   0.052453546   -0.73928917     0.038374828   -0.62228479    -0.0033510717 
    792000   0.052149176   -0.73883301     0.037587868   -0.62307184     0.0048504994 
    793000   0.050761604   -0.7406857      0.034623133   -0.62996928     3.536899e-05 
    794000   0.048364712   -0.74033291     0.036087264   -0.63174538     0.0024594009 
    795000   0.049694024   -0.74067707     0.035712594   -0.63047153     0.00057731874
    796000   0.049502396   -0.74136126     0.037710413   -0.62944516    -0.00093691828
    797000   0.049546539   -0.74105006     0.035487658   -0.63129054    -0.0051541727 
    798000   0.051550872   -0.74162979     0.036016989   -0.62833638     0.0085139035 
    799000   0.051353101   -0.74282153     0.036245964   -0.62959561     0.0002824419 
    800000   0.052204598   -0.74383752     0.036202533   -0.62937861     0.00019050806
    801000   0.04969115    -0.74313784     0.035642163   -0.63300704     0.0061992878 
    802000   0.050205161   -0.74403664     0.036519147   -0.63225833    -0.0046030446 
    803000   0.049355871   -0.74315693     0.034974613   -0.63419627    -0.0059015636 
    804000   0.049533665   -0.74392785     0.034795758   -0.63487953    -0.00062139502
    805000   0.050953122   -0.74370199     0.035330073   -0.63199154     0.0055033244 
    806000   0.049896086   -0.74458899     0.036951131   -0.63284201     0.0025431466 
    807000   0.050435854   -0.74374622     0.035544416   -0.63259684     0.0064168995 
    808000   0.049960453   -0.74580557     0.037252271   -0.63366097    -0.0064064848 
    809000   0.049050119   -0.74594238     0.035571918   -0.63684275     0.0021608318 
    810000   0.050392885   -0.74738069     0.034663539   -0.63717659    -0.0051783775 
    811000   0.0505028     -0.74699172     0.036302963   -0.63498343     0.00024832347
    812000   0.04878397    -0.7468818      0.038860693   -0.63489237     0.0023347039 
    813000   0.05140104    -0.74669238     0.034173812   -0.63546675     0.003039673  
    814000   0.050010896   -0.74607547     0.036286286   -0.63482124    -0.0032013574 
    815000   0.05150612    -0.74666095     0.035076402   -0.63437521     0.0042652416 
    816000   0.051274028   -0.74714842     0.037715474   -0.63257153    -0.0016261758 
    817000   0.051055857   -0.74753875     0.034426166   -0.63657821    -0.004138016  
    818000   0.050250617   -0.74688957     0.034644517   -0.63691775     0.0036568548 
    819000   0.051088744   -0.74742609     0.036436593   -0.63440582     0.0047520512 
    820000   0.049113076   -0.74727154     0.035827968   -0.63782149    -0.00065223294
    821000   0.048426301   -0.74707608     0.03523451    -0.63924899    -0.0015880942 
    822000   0.051079349   -0.7504208      0.035914734   -0.63793647    -0.0033038485 
    823000   0.04916306    -0.75189214     0.036238054   -0.64195707     0.0031153106 
    824000   0.050612126   -0.75271301     0.035767696   -0.64107611    -0.0049925396 
    825000   0.051737666   -0.75168358     0.036553662   -0.63757349     0.004246318  
    826000   0.052510566   -0.75236493     0.035676054   -0.63797384    -0.0063562611 
    827000   0.050559107   -0.75245053     0.036487434   -0.64017336     0.0040139705 
    828000   0.051302336   -0.75216364     0.035886546   -0.63937324     0.00081293713
    829000   0.049822147   -0.75273608     0.03634717    -0.64170391     0.0030918629 
    830000   0.049984915   -0.75182921     0.035159251   -0.64174096     0.0033562989 
    831000   0.048884132   -0.75149305     0.036950813   -0.64126335    -0.004125366  
    832000   0.049987042   -0.75280048     0.035606609   -0.64226168    -0.0077346058 
    833000   0.04925749    -0.75104934     0.034484414   -0.64272636     0.0081634779 
    834000   0.05116992    -0.75269115     0.036021632   -0.63996416     0.0038311299 
    835000   0.051462314   -0.75020204     0.036577408   -0.63648097     0.0035493657 
    836000   0.051499423   -0.75162277     0.037490294   -0.63693318    -0.0022288643 
    837000   0.05045843    -0.75053755     0.03711029    -0.63778844     0.0029115399 
    838000   0.049729285   -0.75196145     0.034291038   -0.6431246     -0.0013381802 
    839000   0.051192077   -0.75066589     0.035061181   -0.63886613     0.0082352089 
    840000   0.050466342   -0.75039527     0.034541829   -0.64020277    -0.0056517172 
    841000   0.049819171   -0.75199004     0.033890753   -0.64341874    -0.0048724951 
    842000   0.049885138   -0.7513514      0.033942144   -0.64262982     0.0056337675 
    843000   0.051215788   -0.75085087     0.035544225   -0.63853253    -0.00056609706
    844000   0.050347808   -0.75062048     0.033466071   -0.64168142    -0.00042635662
    845000   0.050138454   -0.75374273     0.035779799   -0.64280378    -0.0042321257 
    846000   0.051306489   -0.753324       0.035294663   -0.64111926     0.0071128796 
    847000   0.05017538    -0.75248975     0.035071162   -0.64220408    -0.0018907371 
    848000   0.047605183   -0.75288463     0.033631557   -0.64789137    -0.00026918891
    849000   0.050213331   -0.75224461     0.034734196   -0.64223901     0.0046041881 
    850000   0.051668689   -0.75367721     0.034701623   -0.64152256     0.0024736932 
    851000   0.050112802   -0.75381984     0.036682016   -0.64201711    -0.0041851029 
    852000   0.052197057   -0.75214868     0.038170134   -0.63573347     0.00048050125
    853000   0.052197953   -0.75283893     0.036106583   -0.63848593     0.0095711932 
    854000   0.050067467   -0.75353594     0.034123196   -0.64435999    -0.005619659  
    855000   0.049023721   -0.75391841     0.035646664   -0.64478361     0.0023727567 
    856000   0.049530257   -0.75368475     0.035003434   -0.64443386     0.0042220505 
    857000   0.0523831     -0.75379414     0.035531021   -0.63973917    -0.001714271  
    858000   0.052787688   -0.75471041     0.035779215   -0.63980075     0.0018779263 
    859000   0.050137722   -0.75401353     0.035338251   -0.64351722    -0.0036745058 
    860000   0.050869582   -0.75307585     0.036513628   -0.64030707     0.0055655339 
    861000   0.048153357   -0.75436522     0.035374039   -0.64680774    -0.0027590305 
    862000   0.050061964   -0.75508538     0.034705106   -0.64533578    -0.013400019  
    863000   0.047713291   -0.7556966      0.03616856    -0.64800428     0.0025534147 
    864000   0.051035427   -0.75430446     0.035580415   -0.64222029     0.0071639772 
    865000   0.05040861    -0.75345155     0.036363345   -0.64152407    -0.00076908097
    866000   0.050720125   -0.75376867     0.035996192   -0.64174137    -0.0014096339 
    867000   0.04898148    -0.75432607     0.036928728   -0.64397252    -0.0013791688 
    868000   0.049921698   -0.7531628      0.034844965   -0.6434836      0.0065861631 
    869000   0.05011479    -0.75348573     0.036904926   -0.64145712     0.0037259493 
    870000   0.050703284   -0.75420461     0.035996136   -0.64220262    -0.0012738676 
    871000   0.050679563   -0.75363977     0.035696492   -0.64197298     0.0021405063 
    872000   0.05137225    -0.75361229     0.036047688   -0.64055594     0.0010689682 
    873000   0.048940442   -0.75522496     0.036922449   -0.64493921    -0.0034543319 
    874000   0.048513616   -0.75453539     0.036268691   -0.64554322     0.0024545741 
    875000   0.050417326   -0.75408866     0.03429316    -0.6442183      0.00036513567
    876000   0.05109388    -0.75507943     0.036490663   -0.64199739    -0.010056191  
    877000   0.050637418   -0.75379724     0.037914048   -0.63997607     0.00056409097
    878000   0.051059585   -0.75365631     0.035031391   -0.64208495    -0.00046319033
    879000   0.048908581   -0.75397748     0.035190812   -0.64547113    -0.0028066593 
    880000   0.049399229   -0.75463578     0.035208481   -0.64537626    -0.0046396086 
    881000   0.050828181   -0.75434713     0.034074766   -0.64407928    -0.006719669  
    882000   0.049869927   -0.75381517     0.033950418   -0.64510813     0.0038509711 
    883000   0.048150156   -0.75380374     0.036864101   -0.644761      -0.0011721744 
    884000   0.051827964   -0.7557746      0.036498666   -0.64158415     0.0052959374 
    885000   0.051175377   -0.75691952     0.037725302   -0.64248068    -0.0079615622 
    886000   0.051303702   -0.7575915      0.036925497   -0.64376009     0.0057235994 
    887000   0.051732347   -0.75961262     0.037296844   -0.64476732    -0.0015182769 
    888000   0.049032293   -0.75891923     0.038506738   -0.64691151    -0.0020600628 
    889000   0.049697597   -0.7586525      0.035464676   -0.64868952     0.0013739317 
    890000   0.049785097   -0.75821055     0.036306437   -0.64727465     0.0017004615 
    891000   0.050162807   -0.75930557     0.035197334   -0.64891257     0.0031041652 
    892000   0.050869312   -0.75772964     0.035846775   -0.64562813     0.005237503  
    893000   0.049387226   -0.75887118     0.035950764   -0.64888737    -0.0069998669 
    894000   0.049760279   -0.75767695     0.035144077   -0.64794061    -0.0047233145 
    895000   0.049253919   -0.75805768     0.036851163   -0.6473733      0.0017601113 
    896000   0.05067194    -0.75732087     0.034016658   -0.64734534     0.0001626723 
    897000   0.050884361   -0.75935292     0.036477378   -0.64659824    -0.0058611489 
    898000   0.050885538   -0.75887148     0.037693286   -0.64489913     0.0036475214 
    899000   0.049892503   -0.75897877     0.034379066   -0.64980923     0.0028745305 
    900000   0.049806901   -0.75985588     0.034848134   -0.65034559    -0.0049682208 
    901000   0.050083391   -0.75983394     0.035783609   -0.64897371    -0.0047333213 
    902000   0.051730026   -0.75991351     0.035497672   -0.64687086    -0.00014899861
    903000   0.052235996   -0.7570862      0.036038693   -0.64274406     0.0051347227 
    904000   0.051148178   -0.75843961     0.035387812   -0.64637903     0.00099344025
    905000   0.053079094   -0.75862674     0.038333174   -0.64072629     0.0022652326 
    906000   0.052166126   -0.75899497     0.037396395   -0.64339987    -0.0011872611 
    907000   0.049407297   -0.75901409     0.034499952   -0.65045101     0.0056006028 
    908000   0.049551524   -0.75901907     0.033149727   -0.65159001     0.0054480578 
    909000   0.051585038   -0.75973943     0.035074523   -0.64733727     0.0037098154 
    910000   0.050667928   -0.76004622     0.034181189   -0.64991217    -0.00026375017
    911000   0.050606995   -0.76005727     0.035062894   -0.64913286     0.0023069064 
    912000   0.051033456   -0.75884348     0.035099436   -0.64724325     0.0075401816 
    913000   0.051201716   -0.75947074     0.034505348   -0.64821237    -0.00084537503
    914000   0.050695718   -0.75880473     0.033111518   -0.6496987      0.0027032766 
    915000   0.049854654   -0.75969676     0.037755482   -0.64720754     0.0022842248 
    916000   0.05172068    -0.75882132     0.034602562   -0.64668779     0.0069694656 
    917000   0.052928112   -0.7594202      0.037445845   -0.64263341    -0.0029363842 
    918000   0.052705712   -0.76056313     0.035004773   -0.64655079    -0.0075113101 
    919000   0.049080397   -0.75956745     0.036433309   -0.64956104     0.00019166232
    920000   0.050046632   -0.75809488     0.033104763   -0.6499686      0.0046683226 
    921000   0.049227637   -0.76056009     0.034825197   -0.65194108    -0.0045998476 
    922000   0.049713206   -0.75891182     0.036565918   -0.64782421     0.0028592669 
    923000   0.051221032   -0.76112942     0.037372724   -0.64697471     0.00077886682
    924000   0.049077415   -0.76102074     0.036243011   -0.6512091      0.00065762532
    925000   0.049235115   -0.76116606     0.035848527   -0.65151251    -0.0029868885 
    926000   0.04869749    -0.76098612     0.037104589   -0.65088243    -0.0011834467 
    927000   0.050696144   -0.7608679      0.032510138   -0.65236261    -0.0040944575 
    928000   0.049914408   -0.76220941     0.03502546    -0.65236064    -0.0073938408 
    929000   0.050481067   -0.76126057     0.034859015   -0.65072881    -0.0052793062 
    930000   0.051588827   -0.76044598     0.037302291   -0.64581037     0.0007284505 
    931000   0.051396686   -0.76057963     0.036497724   -0.64703661    -0.0039075613 
    932000   0.050800252   -0.76042845     0.036938847   -0.64733839     0.0017868924 
    933000   0.051301895   -0.75979496     0.034517469   -0.6483743     -0.00036702074
    934000   0.050592623   -0.76036071     0.036257673   -0.64826307     0.00078089552
    935000   0.051734135   -0.76102471     0.035500128   -0.64797344     0.0010111199 
    936000   0.050098958   -0.7626418      0.034826787   -0.65271506     0.0053960922 
    937000   0.049771657   -0.7618068      0.035710059   -0.65148742     0.0022717316 
    938000   0.05112496    -0.76287072     0.033562537   -0.65267021    -0.00041021092
    939000   0.049187003   -0.76317415     0.034169427   -0.65527182    -0.0069713307 
    940000   0.050075836   -0.76188982     0.034903481   -0.65192104     0.0024720174 
    941000   0.049464814   -0.76303372     0.03506744    -0.65381693     0.0047327599 
    942000   0.049616728   -0.76202728     0.036802149   -0.65084805     0.005393538  
    943000   0.050759197   -0.76278262     0.034745176   -0.65194777     0.0011090084 
    944000   0.051989525   -0.76127034     0.035548373   -0.64778799     0.00061647703
    945000   0.051669847   -0.76087593     0.036735274   -0.64668589     0.0027477478 
    946000   0.050002629   -0.76270271     0.036678652   -0.65106851     0.0027079376 
    947000   0.049169504   -0.76344438     0.037189432   -0.65254828    -0.0014459606 
    948000   0.050713057   -0.76334601     0.037055043   -0.65027046     0.0010414304 
    949000   0.05054037    -0.76301785     0.036096891   -0.65115931    -0.0011467723 
    950000   0.051788207   -0.76228707     0.036086261   -0.64856861     0.0041060161 
    951000   0.050982522   -0.76208826     0.035868397   -0.64979542     0.0095314783 
    952000   0.049411042   -0.76259674     0.036410793   -0.6521172      0.0047672479 
    953000   0.049994346   -0.76228758     0.035866654   -0.65147779    -0.0024593993 
    954000   0.049667185   -0.76266152     0.035242771   -0.65296603     0.0010477247 
    955000   0.049341099   -0.76319827     0.036139901   -0.65309447    -0.0032125539 
    956000   0.049430795   -0.76382677     0.036070893   -0.65365753     0.0062791959 
    957000   0.051330182   -0.76403144     0.033987119   -0.65309872     0.0023153607 
    958000   0.050692615   -0.76336736     0.032790023   -0.65458747     0.0094805758 
    959000   0.048999668   -0.76468946     0.035091247   -0.65614613    -0.0050563682 
    960000   0.050820966   -0.7649349      0.035596575   -0.65315606     0.0022680412 
    961000   0.051493152   -0.76551792     0.03592208    -0.65240594     0.0052569577 
    962000   0.04923212    -0.76682383     0.03674628    -0.65627701    -0.0023213331 
    963000   0.050070358   -0.76741275     0.035823523   -0.65653214    -0.013190319  
    964000   0.049419677   -0.76797363     0.035873454   -0.65801849    -0.0050831649 
    965000   0.049069935   -0.76714995     0.036244516   -0.65734802     0.0032828029 
    966000   0.050402032   -0.76646413     0.03491729    -0.65599257    -0.00029391682
    967000   0.053500931   -0.76758203     0.03642776    -0.65095465    -0.0020370681 
    968000   0.050129666   -0.7669651      0.035082367   -0.65673674     0.0023922293 
    969000   0.05042585    -0.76903004     0.035595536   -0.65784453    -0.0089722811 
    970000   0.050657599   -0.76794385     0.034745169   -0.6572613     -0.00036102553
    971000   0.051035098   -0.76847326     0.033332537   -0.65863747    -0.0063585638 
    972000   0.050698413   -0.76714612     0.034727234   -0.65642033     0.007760351  
    973000   0.051065666   -0.76873208     0.03512672    -0.65705628    -0.005230205  
    974000   0.04961613    -0.76908255     0.036455576   -0.6582508      0.00078827954
    975000   0.053576171   -0.76942099     0.035024174   -0.65408441    -0.0052466501 
    976000   0.052575802   -0.76910685     0.037350838   -0.65294319     0.0033165276 
    977000   0.05086918    -0.76935711     0.036577818   -0.65652475     0.0081598968 
    978000   0.049994123   -0.76947759     0.037336104   -0.65719868     0.0035018499 
    979000   0.052564553   -0.76886326     0.035998762   -0.65406853     0.00060651199
    980000   0.051635275   -0.76938197     0.035145953   -0.65683307     0.00061684828
    981000   0.051301379   -0.76892475     0.035580907   -0.65644142    -0.0075382171 
    982000   0.051678373   -0.76876104     0.036532078   -0.65476142     0.0034310904 
    983000   0.05034275    -0.76958704     0.037922387   -0.65619925    -0.0034869183 
    984000   0.049669369   -0.76903929     0.035518123   -0.65906518     0.0037898846 
    985000   0.052017009   -0.76876807     0.035915979   -0.65487691    -7.8646954e-05
    986000   0.051165613   -0.77199203     0.036675084   -0.65861804    -0.0051726193 
    987000   0.050587194   -0.77216837     0.036709338   -0.6596272     -0.0044343032 
    988000   0.050087461   -0.77215674     0.037011193   -0.66006282     0.0019552403 
    989000   0.050493702   -0.77224848     0.03462937    -0.66192742     0.0095880838 
    990000   0.049727077   -0.77372859     0.036693236   -0.66249286     0.0033827305 
    991000   0.050116175   -0.77638051     0.036098615   -0.66515613     0.0030641303 
    992000   0.049957514   -0.77645335     0.037643491   -0.66392193    -0.0073713935 
    993000   0.049827141   -0.77709894     0.037158955   -0.66524749     0.00094700038
    994000   0.050114934   -0.77604368     0.034128217   -0.66679156     0.0044427432 
    995000   0.0495004     -0.77681565     0.035923876   -0.66668907    -0.0038745597 
    996000   0.050965115   -0.77562433     0.034607142   -0.66461884     0.0068567953 
    997000   0.050370875   -0.77522292     0.03537841    -0.66433695     0.0026561674 
    998000   0.049585855   -0.77770095     0.036823619   -0.66654654    -0.0051546766 
    999000   0.05176334    -0.77710411     0.036919135   -0.66259006     0.00058330586
   1000000   0.051262775   -0.77796453     0.03520583    -0.66591415     0.0043473877 
   1001000   0.049415632   -0.77847939     0.036268171   -0.6681356     -0.0011988897 
   1002000   0.049940502   -0.77853529     0.0350345     -0.66863837    -0.0038573768 
   1003000   0.051663785   -0.77759455     0.034005023   -0.66614385     0.0050547543 
   1004000   0.049725084   -0.77948577     0.036083101   -0.66886316    -0.00055208166
   1005000   0.05108723    -0.77831619     0.035509649   -0.66622514     0.00046111801
   1006000   0.049922556   -0.77759298     0.036959916   -0.66579754     0.0084977426 
   1007000   0.048746858   -0.77837735     0.037775515   -0.66752872    -0.00030472271
   1008000   0.049529643   -0.77710217     0.035551516   -0.66730412     0.0014965849 
   1009000   0.05040129    -0.77755165     0.034711967   -0.66728652    -0.0019062159 
   1010000   0.049076891   -0.7777449      0.036055599   -0.66812146     0.0010426361 
   1011000   0.049992135   -0.77925322     0.034874513   -0.66943888    -0.0012271888 
   1012000   0.049300418   -0.77858741     0.036752565   -0.66793193    -0.0028802753 
   1013000   0.050268481   -0.77822076     0.035751466   -0.66711521    -0.0036506142 
   1014000   0.049231098   -0.77790524     0.037587468   -0.66651876     0.0011501594 
   1015000   0.050708444   -0.77619592     0.036162163   -0.66402017     0.0026374194 
   1016000   0.050973727   -0.77684205     0.033823732   -0.66660706     0.0028901101 
   1017000   0.04884932    -0.7772671      0.036956539   -0.66708385    -0.00098316012
   1018000   0.050344382   -0.77907785     0.03622802    -0.66738198    -0.0040270068 
   1019000   0.049403916   -0.77785951     0.035992913   -0.66780853     0.0021512585 
   1020000   0.051380155   -0.77849716     0.035338966   -0.66613769    -0.00094569198
   1021000   0.051310279   -0.77920089     0.03723273    -0.6650524      3.4227463e-05
   1022000   0.049397762   -0.77798835     0.036813116   -0.6671264      0.0053592584 
   1023000   0.049962181   -0.77910572     0.035044967   -0.66916583    -0.0031759471 
   1024000   0.049905999   -0.77955671     0.036266565   -0.66847945    -0.0022677307 
   1025000   0.052518871   -0.77847663     0.035520755   -0.66422839     0.0051009017 
   1026000   0.049735991   -0.77845022     0.037319624   -0.66657474    -0.0019480466 
   1027000   0.050193047   -0.77939958     0.036827691   -0.66733089    -5.8379894e-05
   1028000   0.050727011   -0.77775632     0.035845088   -0.6658698      0.0034935399 
   1029000   0.050315017   -0.77889147     0.036816555   -0.66665108     0.0040705053 
   1030000   0.049942045   -0.77875856     0.034983571   -0.66891025     0.0067347349 
   1031000   0.048415996   -0.77829224     0.036998148   -0.66871695     0.0053380275 
   1032000   0.049994651   -0.77892247     0.03476694    -0.66921194    -0.0079054557 
   1033000   0.049055355   -0.77945422     0.035392996   -0.67052567     0.00059964715
   1034000   0.048346404   -0.77899995     0.034724047   -0.67180309    -0.0023778023 
   1035000   0.051010975   -0.77822679     0.033869153   -0.66789054    -0.00047529767
   1036000   0.050663184   -0.77937027     0.034648705   -0.66877582     0.0014157108 
   1037000   0.049586281   -0.77832206     0.037630465   -0.66636016    -0.0071093816 
   1038000   0.051940019   -0.78076354     0.037460655   -0.66544312    -0.002810753  
   1039000   0.050433872   -0.78070285     0.036030596   -0.66907025    -0.0061545323 
   1040000   0.049979653   -0.77983205     0.036968316   -0.66794263     0.0054757149 
   1041000   0.048417649   -0.78047867     0.035474538   -0.67242451    -0.001002088  
   1042000   0.04928538    -0.78046119     0.034600986   -0.67197983     0.0036582432 
   1043000   0.049262603   -0.78079133     0.034849209   -0.67209589     0.0018725623 
   1044000   0.050289912   -0.77932801     0.036637684   -0.66730412     0.0038052197 
   1045000   0.049658823   -0.77971127     0.034825878   -0.67044521     0.00053061348
   1046000   0.048642641   -0.78063534     0.035063752   -0.6726547      0.0011558409 
   1047000   0.049618224   -0.77915722     0.034445246   -0.67033266     0.0029590236 
   1048000   0.05202787    -0.78022207     0.034558623   -0.66767199    -0.00052523272
   1049000   0.052233256   -0.7812269      0.036870446   -0.66605712    -0.010854511  
   1050000   0.049836632   -0.78050213     0.035178267   -0.67061715    -0.0040943748 
   1051000   0.049655084   -0.77921798     0.035771904   -0.6690115      0.0041588158 
   1052000   0.052161863   -0.78094359     0.036927703   -0.66582357     0.0015586489 
   1053000   0.049288972   -0.78056355     0.037131492   -0.6695463      0.0013920683 
   1054000   0.050751803   -0.78122243     0.037352332   -0.66779151    -0.0050881467 
   1055000   0.051984067   -0.78078122     0.036168467   -0.66668696     0.0022145171 
   1056000   0.051422812   -0.78080406     0.036281674   -0.66743793     0.0042422246 
   1057000   0.050803262   -0.78132645     0.037276086   -0.66789463    -0.00014452549
   1058000   0.052301703   -0.78015137     0.036369714   -0.66537971    -0.0024616137 
   1059000   0.052654783   -0.78139483     0.036063528   -0.66640008     0.00090874668
   1060000   0.051697216   -0.78195518     0.035693539   -0.66876585     0.0010327371 
   1061000   0.052561959   -0.78262452     0.038267945   -0.6655645     -0.0018876394 
   1062000   0.051919814   -0.78119808     0.03471446    -0.66865414     0.0020496106 
   1063000   0.052183344   -0.78282856     0.03710606    -0.66749799    -0.0092579237 
   1064000   0.049305397   -0.78138804     0.034945537   -0.67253212    -0.00054250313
   1065000   0.049634987   -0.78156136     0.035434005   -0.67172291    -0.0017380105 
   1066000   0.051306635   -0.78184264     0.035864287   -0.66906805     0.0055683859 
   1067000   0.05037965    -0.78217885     0.037408466   -0.66924966     0.0039891875 
   1068000   0.051777673   -0.78109219     0.035882149   -0.66759364     0.00067453317
   1069000   0.049046215   -0.78213881     0.034513332   -0.67410362     0.0031809358 
   1070000   0.05160076    -0.78180939     0.035158338   -0.66929985    -0.0025204891 
   1071000   0.050411705   -0.78154405     0.037418402   -0.66855688    -0.0066881431 
   1072000   0.048549793   -0.78242009     0.037160291   -0.6724821     -0.0037349756 
   1073000   0.04938227    -0.78098238     0.036141097   -0.67081567     0.0054617623 
   1074000   0.049217035   -0.78223334     0.037827807   -0.67062761     0.00049516479
   1075000   0.049573391   -0.78400409     0.035297866   -0.67439411    -0.00059520478
   1076000   0.053564937   -0.78087408     0.038357933   -0.66222058     0.0066669926 
   1077000   0.052458789   -0.78062998     0.035345186   -0.66664738     0.0021173014 
   1078000   0.052189875   -0.78164656     0.037124659   -0.66628759     0.0059282413 
   1079000   0.049839987   -0.78180522     0.035075965   -0.67201751     0.0049357036 
   1080000   0.049974886   -0.78106318     0.034755779   -0.67139343     0.006908181  
   1081000   0.050128671   -0.78124413     0.033284846   -0.67281479    -0.0021220673 
   1082000   0.050833996   -0.7804263      0.037812838   -0.66641166     0.0057549241 
   1083000   0.051270363   -0.78143928     0.036951809   -0.66763155    -0.0004439814 
   1084000   0.051052049   -0.78124516     0.036807608   -0.66790888     0.0038427937 
   1085000   0.049831949   -0.78241942     0.035446654   -0.67227307    -0.003077897  
   1086000   0.049582939   -0.78153012     0.03651555    -0.67068814    -0.005453731  
   1087000   0.049652291   -0.78219732     0.034051927   -0.67371501    -0.000989331  
   1088000   0.049015109   -0.78235646     0.035015884   -0.67386534     0.0010296129 
   1089000   0.05033862    -0.78163502     0.036566719   -0.66960909    -0.008880464  
   1090000   0.050400911   -0.78123265     0.035303036   -0.67037703    -0.0023027115 
   1091000   0.05136039    -0.78193195     0.035308511   -0.66963256     0.00033117992
   1092000   0.05082904    -0.78109535     0.035802943   -0.66909804     0.0066254825 
   1093000   0.050919366   -0.78238892     0.035861553   -0.6701976     -0.00089081602
   1094000   0.049733279   -0.78175601     0.03665886    -0.67054536     0.0030046466 
   1095000   0.050003697   -0.78152358     0.036615107   -0.66995132    -0.0011292984 
   1096000   0.052007312   -0.78124028     0.035406089   -0.66787355     0.011826115  
   1097000   0.050546412   -0.78296682     0.035184962   -0.67201115    -0.0012737661 
   1098000   0.053147047   -0.78288719     0.035651984   -0.66756607    -0.0048095104 
   1099000   0.051135996   -0.7811197      0.03674683    -0.66771837     0.00017430533
   1100000   0.051230018   -0.78181105     0.036603186   -0.66841242    -0.0013358734 
   1101000   0.052474916   -0.78250349     0.037417092   -0.6664248     -0.003750454  
   11020