LAMMPS (22 Jul 2025)
OMP_NUM_THREADS environment is not set. Defaulting to 1 thread.
  using 1 OpenMP thread(s) per MPI task
package omp 0
using multi-threaded neighbor list subroutines
# Input Script of lammps for assembly simulation of polimeric network.
# Main code is based on: https://github.com/PipeB62/Hydrogel-Simulation
# Patchy particles are with bond style.

# Felipe Benavides modified by Fco. Vazquez

# Initialization
units lj
dimension 3
boundary p p p

# Styles of atoms and that stuff
atom_style full
bond_style harmonic
angle_style harmonic
pair_style hybrid/overlay zero 0.0 lj/cut/omp 1.12 table/omp linear 5000000 threebody/table

newton on

# Create simulaiton box
region simulation_box block -$L $L -$L $L -$L $L
region simulation_box block -9.796741 $L -$L $L -$L $L
region simulation_box block -9.796741 9.796741 -$L $L -$L $L
region simulation_box block -9.796741 9.796741 -9.796741 $L -$L $L
region simulation_box block -9.796741 9.796741 -9.796741 9.796741 -$L $L
region simulation_box block -9.796741 9.796741 -9.796741 9.796741 -9.796741 $L
region simulation_box block -9.796741 9.796741 -9.796741 9.796741 -9.796741 9.796741
# N-atom-types region-ID keyword value Is necesesary the extra/special/per/atom (# of special neighbors per atom)
create_box 4 simulation_box     bond/types 1     angle/types 2     extra/bond/per/atom 10     extra/angle/per/atom 6     extra/special/per/atom 10
Created orthogonal box = (-9.796741 -9.796741 -9.796741) to (9.796741 9.796741 9.796741)
  2 by 2 by 2 MPI processor grid

# Atom types
mass 1 1.0      # CL
mass 2 1.0      # MO
mass 3 1.0      # PA
mass 4 1.0      # PB

# Coefficients
include potential.in
# Script with the pair-wise interaction and bonds between particles

bond_coeff 1 100.0 0.45
angle_coeff 1 100.0 180
angle_coeff 2 100.0 109.4712
pair_coeff 1 3 zero 0.5
pair_coeff 1 4 zero 0.5
pair_coeff 2 3 zero 0.5
pair_coeff 2 4 zero 0.5
pair_coeff 3 3 zero 0.5
pair_coeff 1 1 lj/cut/omp 1.0 1.0 1.12
pair_coeff 2 2 lj/cut/omp 1.0 1.0 1.12
pair_coeff 1 2 lj/cut/omp 1.0 1.0 1.12
pair_coeff 3 4 table/omp sysFiles/pachTab.table POT 0.6 # sw/omp sysFiles/patchyPot.sw NULL NULL PA PB
Reading pair table potential file sysFiles/pachTab.table with DATE: 2024-07-08
WARNING: 7 of 1000000 force values in table POT are inconsistent with -dE/dr.
WARNING:  Should only be flagged at inflection points (src/pair_table.cpp:469)
pair_coeff 4 4 table/omp sysFiles/pachTab.table POT 0.6 # sw/omp sysFiles/patchyPot.sw NULL NULL PA PB
Reading pair table potential file sysFiles/pachTab.table with DATE: 2024-07-08
WARNING: 7 of 1000000 force values in table POT are inconsistent with -dE/dr.
WARNING:  Should only be flagged at inflection points (src/pair_table.cpp:469)
pair_coeff * * threebody/table swapMech.3b NULL NULL PA PB
pair_modify pair lj/cut/omp shift yes


# Molecules
include molecules.in
# Script with all molecule information and create groups for computes

# Read the molecule information
molecule CL sysFiles/molecule.patchy.CL
Read molecule template CL:
# Patchy Cross-Linker
  1 molecules
  0 fragments
  0 bodies
  5 atoms with max type 3
  4 bonds with max type 1
  6 angles with max type 2
  0 dihedrals with max type 0
  0 impropers with max type 0
molecule MO sysFiles/molecule.patchy.MO
Read molecule template MO:
# Patchy Monomer
  1 molecules
  0 fragments
  0 bodies
  3 atoms with max type 4
  2 bonds with max type 1
  1 angles with max type 1
  0 dihedrals with max type 0
  0 impropers with max type 0

# Introduce the molecules
# ID style args keyword arg
region spawn_box block -$L $L -$L $L -$L $L
region spawn_box block -9.796741 $L -$L $L -$L $L
region spawn_box block -9.796741 9.796741 -$L $L -$L $L
region spawn_box block -9.796741 9.796741 -9.796741 $L -$L $L
region spawn_box block -9.796741 9.796741 -9.796741 9.796741 -$L $L
region spawn_box block -9.796741 9.796741 -9.796741 9.796741 -9.796741 $L
region spawn_box block -9.796741 9.796741 -9.796741 9.796741 -9.796741 9.796741

# create_atoms type style args keyword values
# style_random: N seed region-ID
# keyword_mol: template-ID seed
# keyword_overlap: overlap value = only insert if at least this distance from all existing atoms
# keyword_maxtry: maxtry value = number of attempts to insert a particle before failure
create_atoms 0 random ${NCL} ${seed1} spawn_box mol CL ${seed1} overlap 1.0 maxtry 5000 #xls
create_atoms 0 random 25 ${seed1} spawn_box mol CL ${seed1} overlap 1.0 maxtry 5000 
create_atoms 0 random 25 3234 spawn_box mol CL ${seed1} overlap 1.0 maxtry 5000 
create_atoms 0 random 25 3234 spawn_box mol CL 3234 overlap 1.0 maxtry 5000 
Created 125 atoms
  using lattice units in orthogonal box = (-9.796741 -9.796741 -9.796741) to (9.796741 9.796741 9.796741)
  create_atoms CPU = 0.009 seconds
create_atoms 0 random ${NMO} ${seed2} spawn_box mol MO ${seed2} overlap 1.0 maxtry 5000 #mon
create_atoms 0 random 475 ${seed2} spawn_box mol MO ${seed2} overlap 1.0 maxtry 5000 
create_atoms 0 random 475 6321 spawn_box mol MO ${seed2} overlap 1.0 maxtry 5000 
create_atoms 0 random 475 6321 spawn_box mol MO 6321 overlap 1.0 maxtry 5000 
Created 1425 atoms
  using lattice units in orthogonal box = (-9.796741 -9.796741 -9.796741) to (9.796741 9.796741 9.796741)
  create_atoms CPU = 0.007 seconds

# Create patchy particles
group CrossLinker type 1 3
125 atoms in group CrossLinker
group Monomer type 2 4
1425 atoms in group Monomer
group Patches type 3 4
1050 atoms in group Patches
group CL type 1
25 atoms in group CL
group MO type 2
475 atoms in group MO
group PA type 3
100 atoms in group PA
group PB type 4
950 atoms in group PB
group CM type 1 2
500 atoms in group CM

# Neighbor list
neighbor 1.8 bin # extra-distance style
#neigh_modify delay 0 every 1 check no
#neigh_modify exclude molecule/intra CrossLinker
#neigh_modify exclude molecule/intra Monomer

# COMPUTES

# Compute global kinetic and potential energy and temperature
compute t all temp
compute p all pressure t
compute ep all pe
compute ek all ke
variable eT equal etotal
variable eB equal ebond
variable eA equal eangle
variable eM equal emol
variable ec equal ecouple
variable eC equal econserve

# Potencial energy per pair-wise interaction
compute wcaPair all pair lj/cut/omp epair
compute patchPair all pair table/omp epair
compute swapPair all pair threebody/table epair

# Compute the pressure
compute press all pressure t ke virial
compute pressVirial all pressure t virial
compute pressVirialMod all pressure t pair bond angle

# Computes for the stress
compute cstress all stress/atom t ke pair bond angle
compute cstressVirial all stress/atom t virial
compute cstressVirialMod all stress/atom t pair bond angle
compute stress all reduce sum c_cstress[*]
compute stressVirial all reduce sum c_cstressVirial[*]
compute stressVirialMod all reduce sum c_cstressVirialMod[*]

# Displacement of the central particles
compute disp CM displace/atom
compute redDisp CM reduce ave c_disp[*] # All, because yes

# Get the number of central particles per cluster
compute clusters all aggregate/atom 0.6                             # Create the clusters
compute Nclpart CM chunk/atom c_clusters compress yes discard yes   # Get the number of clusters
compute clsize CM property/chunk Nclpart count                      # Counts the atoms in each chunk
compute idcl CM property/chunk Nclpart id                           # Get the ids of the clusters

# DUMPS and FIXES

thermo ${NsaveStress}
thermo 1000

# Save global energies and temperature
fix Energy all ave/time 1 ${Nsave} ${Nsave} c_t c_wcaPair c_patchPair c_swapPair c_ep c_ek v_eT v_ec v_eC c_p v_eB v_eA v_eM c_redDisp[*] file ${Dir}/${file1_name}
fix Energy all ave/time 1 1000 ${Nsave} c_t c_wcaPair c_patchPair c_swapPair c_ep c_ek v_eT v_ec v_eC c_p v_eB v_eA v_eM c_redDisp[*] file ${Dir}/${file1_name}
fix Energy all ave/time 1 1000 1000 c_t c_wcaPair c_patchPair c_swapPair c_ep c_ek v_eT v_ec v_eC c_p v_eB v_eA v_eM c_redDisp[*] file ${Dir}/${file1_name}
fix Energy all ave/time 1 1000 1000 c_t c_wcaPair c_patchPair c_swapPair c_ep c_ek v_eT v_ec v_eC c_p v_eB v_eA v_eM c_redDisp[*] file /home/franvt/GitRepos/molDynLammps/polymericGels/gel-bonds-1/data/0.050.30.05500-2026-01-27-162300/${file1_name}
fix Energy all ave/time 1 1000 1000 c_t c_wcaPair c_patchPair c_swapPair c_ep c_ek v_eT v_ec v_eC c_p v_eB v_eA v_eM c_redDisp[*] file /home/franvt/GitRepos/molDynLammps/polymericGels/gel-bonds-1/data/0.050.30.05500-2026-01-27-162300/system_assembly.fixf

# Save Pressure and Stress tensor
fix fixStress5 all ave/time 1 ${NsaveStress} ${NsaveStress} c_p c_press[*] c_pressVirial[*] c_pressVirialMod[*] c_stress[*] c_stressVirial[*] c_stressVirialMod[*] file ${Dir}/${file2_name}
fix fixStress5 all ave/time 1 1000 ${NsaveStress} c_p c_press[*] c_pressVirial[*] c_pressVirialMod[*] c_stress[*] c_stressVirial[*] c_stressVirialMod[*] file ${Dir}/${file2_name}
fix fixStress5 all ave/time 1 1000 1000 c_p c_press[*] c_pressVirial[*] c_pressVirialMod[*] c_stress[*] c_stressVirial[*] c_stressVirialMod[*] file ${Dir}/${file2_name}
fix fixStress5 all ave/time 1 1000 1000 c_p c_press[*] c_pressVirial[*] c_pressVirialMod[*] c_stress[*] c_stressVirial[*] c_stressVirialMod[*] file /home/franvt/GitRepos/molDynLammps/polymericGels/gel-bonds-1/data/0.050.30.05500-2026-01-27-162300/${file2_name}
fix fixStress5 all ave/time 1 1000 1000 c_p c_press[*] c_pressVirial[*] c_pressVirialMod[*] c_stress[*] c_stressVirial[*] c_stressVirialMod[*] file /home/franvt/GitRepos/molDynLammps/polymericGels/gel-bonds-1/data/0.050.30.05500-2026-01-27-162300/stress_assembly.fixf

# Save the global cluster information
fix 1 CM ave/time 1 1 ${Ndump} c_idcl c_clsize file ${Dir}/${file3_name} mode vector
fix 1 CM ave/time 1 1 1000 c_idcl c_clsize file ${Dir}/${file3_name} mode vector
fix 1 CM ave/time 1 1 1000 c_idcl c_clsize file /home/franvt/GitRepos/molDynLammps/polymericGels/gel-bonds-1/data/0.050.30.05500-2026-01-27-162300/${file3_name} mode vector
fix 1 CM ave/time 1 1 1000 c_idcl c_clsize file /home/franvt/GitRepos/molDynLammps/polymericGels/gel-bonds-1/data/0.050.30.05500-2026-01-27-162300/clust_assembly.fixf mode vector

# Save atom positions with cluster id
dump dumpID all custom ${Ndump} ${Dir}/traj/${file5_name} id mol c_clusters type x y z vx vy vz
dump dumpID all custom 1000 ${Dir}/traj/${file5_name} id mol c_clusters type x y z vx vy vz
dump dumpID all custom 1000 /home/franvt/GitRepos/molDynLammps/polymericGels/gel-bonds-1/data/0.050.30.05500-2026-01-27-162300/traj/${file5_name} id mol c_clusters type x y z vx vy vz
dump dumpID all custom 1000 /home/franvt/GitRepos/molDynLammps/polymericGels/gel-bonds-1/data/0.050.30.05500-2026-01-27-162300/traj/traj_assembly.*.dumpf id mol c_clusters type x y z vx vy vz
dump_modify dumpID pbc yes # remap atoms via periodic boundary conditions

# RUN SIMULATION

# Brownian Dynamics using Langevin Thermostat

timestep ${tstep}
timestep 0.001

fix VelVerlet all nve # Use Velocity Verlet integrator

# First elevate the temperature
fix ThermoLng all langevin 0.0 ${temp} ${damp} ${seed3} tally yes zero yes # Brownian Dynamics: langevin + nve
fix ThermoLng all langevin 0.0 0.05 ${damp} ${seed3} tally yes zero yes 
fix ThermoLng all langevin 0.0 0.05 1 ${seed3} tally yes zero yes 
fix ThermoLng all langevin 0.0 0.05 1 2010 tally yes zero yes 
run ${stepsheat}
run 500000
WARNING: Using a manybody potential with bonds/angles/dihedrals and special_bond exclusions (src/pair.cpp:250)
Hybrid pair style last /omp style table/omp
Last active /omp style is angle_style harmonic/omp
Neighbor list info ...
  update: every = 1 steps, delay = 0 steps, check = yes
  max neighbors/atom: 2000, page size: 100000
  master list distance cutoff = 2.92
  ghost atom cutoff = 2.92
  binsize = 1.46, bins = 14 14 14
  7 neighbor lists, perpetual/occasional/extra = 6 1 0
  (1) pair zero, perpetual, skip from (7)
      attributes: half, newton on, omp
      pair build: skip/omp
      stencil: none
      bin: none
  (2) pair lj/cut/omp, perpetual, skip from (7)
      attributes: half, newton on, omp
      pair build: skip/omp
      stencil: none
      bin: none
  (3) pair table/omp, perpetual, skip from (7)
      attributes: half, newton on, omp
      pair build: skip/omp
      stencil: none
      bin: none
  (4) pair threebody/table, perpetual, skip from (6)
      attributes: full, newton on, omp
      pair build: skip/omp
      stencil: none
      bin: none
  (5) compute aggregate/atom, occasional, copy from (6)
      attributes: full, newton on, omp
      pair build: copy
      stencil: none
      bin: none
  (6) neighbor class addition, perpetual
      attributes: full, newton on, omp
      pair build: full/bin/omp
      stencil: full/bin/3d
      bin: standard
  (7) neighbor class addition, perpetual, half/full from (6)
      attributes: half, newton on, omp
      pair build: halffull/newton/omp
      stencil: none
      bin: none
Per MPI rank memory allocation (min/avg/max) = 20.03 | 20.03 | 20.03 Mbytes
   Step          Temp          E_pair         E_mol          TotEng         Press     
         0   0              0.00041490155  0.15480456     0.15521947    -0.21361809   
      1000   0.038128237    0              0.00013757075  0.057293028    0.0036255212 
      2000   0.00015524756  8.543009e-08   0.020977048    0.021209855    0.068369326  
      3000   0.0053601671   0              0.0001566732   0.0081917366   0.0024773034 
      4000   0.00032043582  0              0.0030278828   0.0035082264  -0.026562159  
      5000   0.0011098552   0              0.00027894739  0.0019426561  -0.0005261401 
      6000   0.00052871377  0              0.00073390715  0.0015264661   0.0095531329 
      7000   0.00072896697  0              0.00040823029  0.0015009753  -1.2979742e-05
      8000   0.0007251149   0              0.00053299756  0.0016199682  -0.0032626071 
      9000   0.00081771509  1.3387704e-06  0.00052435467  0.0017514747   2.4759112e-06
     10000   0.00090243713  0              0.0006006103   0.0019533927   0.0011493598 
     11000   0.0010197323   0              0.00066288448  0.0021914962  -0.00042254769
     12000   0.0011051079   0              0.00072884253  0.0023854349  -0.00024522879
     13000   0.0011985165   0              0.00078137006  0.0025779849   0.00057614678
     14000   0.0013249056   0              0.00085482435  0.0028409006   0.00081224385
     15000   0.0014112991   0              0.00096232634  0.0030779093  -0.00010780047
     16000   0.0015343975   0              0.0010154688   0.0033155802  -0.00081771796
     17000   0.0016020278   4.7441589e-08  0.0010642477   0.0034657865   0.00030980887
     18000   0.0017598133   0              0.0011497192   0.003787736    0.0012942109 
     19000   0.0018430414   0              0.0012059735   0.003968752    5.7970273e-05
     20000   0.0019080305   0              0.0012946994   0.0041548986  -0.00044607826
     21000   0.001992366    5.7799363e-07  0.0013610759   0.0043482748   0.00069963965
     22000   0.0021283243  -3.6672612e-09  0.0014649008   0.0046553239   0.00056659963
     23000   0.0025735469  -0.0015218821   0.0017283014   0.004064249    0.00012610136
     24000   0.0024444094  -0.0016039619   0.0016864538   0.0037467405  -0.00025353478
     25000   0.0024681684  -0.0016016608   0.0016795706   0.0037777739  -0.00025316254
     26000   0.0025092316  -0.001589946    0.001707866    0.0038793392   0.00073864395
     27000   0.0030589285  -0.0031177114   0.002012252    0.0034799731   0.00066127919
     28000   0.002845273   -0.0031717067   0.0020052056   0.003098655   -0.00065030665
     29000   0.0028512639  -0.0032042003   0.0019482227   0.0030181589  -0.00057429635
     30000   0.0032344357  -0.0047618896   0.0020775691   0.0021642029  -0.00033739482
     31000   0.0030894149  -0.0048363168   0.0022389438   0.0020337595  -5.3009553e-05
     32000   0.0032581607  -0.0048324545   0.0021927205   0.0022443541   0.0004081845 
     33000   0.0032215756  -0.0048326584   0.0023286392   0.0023252265   0.00081874659
     34000   0.0040031854  -0.0075381178   0.0027834668   0.0012462531  -0.00038818505
     35000   0.0034571004  -0.0077706526   0.0024728762  -0.00011547145 -0.00047436738
     36000   0.0044781808  -0.010762873    0.002879389   -0.0011705465   0.00029027022
     37000   0.0046349367  -0.012733258    0.0026719396  -0.0031133985   0.0014358727 
     38000   0.003998545   -0.012685588    0.002635141   -0.004056499    0.00085337462
     39000   0.0042627611  -0.014426017    0.0027870632  -0.0052489372  -0.00031597353
     40000   0.004134619   -0.014466278    0.0026197665  -0.0056485844  -0.0001137876 
     41000   0.0039847584  -0.014424344    0.0027835834  -0.005667479    0.0012337074 
     42000   0.0041003877  -0.014461977    0.0027443035  -0.00557106     0.00093054757
     43000   0.0046610268  -0.016092878    0.0029636582  -0.0061421907  -0.00089918803
     44000   0.0050067312  -0.017410171    0.0032844405  -0.0066204791   0.00065734213
     45000   0.004455419   -0.017661738    0.0034852371  -0.0074976837   0.00065597604
     46000   0.0051730411  -0.018875657    0.0031358034  -0.0079852986   0.0012827956 
     47000   0.0048234191  -0.020213159    0.0036651187  -0.0093175793  -0.00014686758
     48000   0.0050129943  -0.020804911    0.0032635772  -0.010026693    0.0010465819 
     49000   0.0048960789  -0.02092223     0.003432082   -0.010150768    0.00069088756
     50000   0.0049235086  -0.020936616    0.0033882007  -0.010167917    0.00079825125
     51000   0.00492648    -0.020952896    0.0034339135  -0.01013403    -9.9449397e-06
     52000   0.0049640066  -0.020935875    0.0036265379  -0.0098681306   0.0005278417 
     53000   0.0051770599  -0.020929367    0.003623604   -0.0095451832   0.00036990358
     54000   0.0052657508  -0.020944248    0.0034947157  -0.0095560024   0.00086037796
     55000   0.0060853671  -0.023751249    0.0038114575  -0.01081763    -0.0011225271 
     56000   0.0062538265  -0.025626116    0.0044453757  -0.011806053   -0.00027783503
     57000   0.0059547504  -0.025535002    0.0040988231  -0.012509816    0.00078965433
     58000   0.0058286135  -0.025713989    0.0042028718  -0.012773837    0.00087809502
     59000   0.0059676236  -0.025765081    0.004081245   -0.012738176   -0.00083566962
     60000   0.0062263966  -0.028179923    0.0047460447  -0.014100309   -0.00074142725
     61000   0.0059818772  -0.028790768    0.0043156234  -0.015508118    0.0019284784 
     62000   0.0067672005  -0.030551642    0.0044656802  -0.01594171     0.00085783845
     63000   0.0061759127  -0.030546407    0.0042984406  -0.016990074    0.00022777165
     64000   0.006368309   -0.030614988    0.0043737853  -0.016694903    0.00091681367
     65000   0.006979178   -0.03180092     0.0046508149  -0.016688092   -0.0010421423 
     66000   0.006667507   -0.033497093    0.0049865955  -0.018515689   -0.00018351472
     67000   0.0070366041  -0.035029979    0.0048388929  -0.019642989    0.001288804  
     68000   0.0066585769  -0.035294355    0.0049549037  -0.020358029    0.00035402746
     69000   0.00774469    -0.03695675     0.0046795276  -0.020667683    0.00070925206
     70000   0.0075509027  -0.04064005     0.0055705939  -0.02375041    -0.0018496157 
     71000   0.0080932312  -0.043399417    0.005499981   -0.025767421    0.0017198277 
     72000   0.0073398181  -0.043454734    0.0052650805  -0.02718703     0.0016786875 
     73000   0.0082095926  -0.045840785    0.0054637154  -0.028070625    0.0004600615 
     74000   0.0077800166  -0.046450173    0.0052802499  -0.029507427   -0.00041996995
     75000   0.0074292031  -0.046591614    0.0053660244  -0.030088975   -0.00041463259
     76000   0.0080027951  -0.048257038    0.0055370475  -0.030723543    0.0020339269 
     77000   0.0076748602  -0.048277163    0.0053867585  -0.031385542    0.001708909  
     78000   0.008144959   -0.049644101    0.0054825338  -0.03195201    -0.00091277784
     79000   0.0074898826  -0.051124451    0.005852221   -0.034044654    0.00045086305
     80000   0.0082122728  -0.052183593    0.0058364175  -0.034036714   -0.00035149015
     81000   0.0085000032  -0.054556112    0.0056781302  -0.036136202    0.00015970755
     82000   0.0082185397  -0.056153057    0.0062090051  -0.037624196    0.00014269859
     83000   0.0096146426  -0.058705174    0.006278348   -0.038014166    0.00037179401
     84000   0.0092357251  -0.059354831    0.005857861   -0.03965232     0.00047488718
     85000   0.0081015621  -0.059531149    0.0058980691  -0.041488577   -9.8837603e-05
     86000   0.0088965743  -0.061422849    0.0060647872  -0.04202181    -0.00091965681
     87000   0.008721849   -0.062409196    0.0064831676  -0.042851695    0.0029836841 
     88000   0.010043441   -0.06582373     0.0067625536  -0.044005735    0.0013747767 
     89000   0.0095545455  -0.066951882    0.0061576629  -0.046471648    0.00010086466
     90000   0.010147375   -0.069095769    0.0060937386  -0.047790787    0.00022778544
     91000   0.0092176955  -0.069033274    0.0067508475  -0.048464804    0.00063674755
     92000   0.0095120861  -0.070714241    0.0067916841  -0.049663633    0.0015618703 
     93000   0.0092714691  -0.070794768    0.006522662   -0.050373875    0.0014469555 
     94000   0.0093884616  -0.070797593    0.0067830233  -0.049940963    0.0010637428 
     95000   0.010528898   -0.073839706    0.0066369646  -0.051419583    0.0018230506 
     96000   0.0097243418  -0.073761103    0.0063165777  -0.052867424   -0.0007493365 
     97000   0.010361445   -0.075603985    0.0070295896  -0.053042255    0.00013826626
     98000   0.010936829   -0.078282777    0.0072153604  -0.054672758    0.00022203233
     99000   0.010007058   -0.07857286     0.0069755328  -0.056596425   -0.00061588076
    100000   0.010245952   -0.0787175      0.0072617911  -0.056096696   -0.00060968091
    101000   0.010321905   -0.080184721    0.006843532   -0.05786832    -2.6514343e-05
    102000   0.0098863423  -0.080469564    0.0071374487  -0.05851217     0.0013675838 
    103000   0.011470406   -0.083627393    0.0076160969  -0.058816787    0.00050325661
    104000   0.011527542   -0.085612898    0.0075690398  -0.060763701    0.0024648261 
    105000   0.011119937   -0.087780608    0.0078257665  -0.063285697    0.00052593822
    106000   0.01170929    -0.09016856     0.0077799722  -0.064835983   -0.0010794652 
    107000   0.011522565   -0.09285923     0.0077139178  -0.067872615    0.0014563314 
    108000   0.013520888   -0.099770544    0.0085623327  -0.070939963    0.0011599371 
    109000   0.011529412   -0.1033862      0.0088490306  -0.077254211    9.9780679e-05
    110000   0.012026175   -0.10566135     0.0082480033  -0.079385721    0.00075832342
    111000   0.011215969   -0.10599615     0.0076627336  -0.081520322    0.00083506577
    112000   0.011155031   -0.10616894     0.0077189127  -0.081728273   -0.00026488348
    113000   0.011436224   -0.10621597     0.0077084037  -0.081364294    7.3577918e-05
    114000   0.012672019   -0.11039043     0.0085998253  -0.082794837    0.0012530127 
    115000   0.012153045   -0.11208671     0.0085175372  -0.085351362   -6.4095154e-05
    116000   0.012049636   -0.11466189     0.0086054506  -0.087993642   -0.0015391253 
    117000   0.01243089    -0.11854191     0.0086683144  -0.09123929     0.00065466863
    118000   0.012108205   -0.1201731      0.0083938083  -0.093628703   -0.00041303951
    119000   0.012689081   -0.12013065     0.0088543273  -0.092254982   -0.00096825055
    120000   0.012507534   -0.12010363     0.0079302036  -0.093424231    0.00096341165
    121000   0.012065162   -0.12124812     0.0088226293  -0.094339426    0.0014168063 
    122000   0.012286842   -0.12179662     0.0084377469  -0.094940495    0.0012712939 
    123000   0.011881204   -0.12178198     0.0082467384  -0.095724935   -0.00058701291
    124000   0.011906768   -0.12185453     0.0084862301  -0.095519671    0.00041316515
    125000   0.013792785   -0.1248418      0.0083258689  -0.095840104    0.00016978222
    126000   0.013139208   -0.12489264     0.0088637578  -0.096332791    0.00086586767
    127000   0.01339256    -0.12597187     0.0092406025  -0.096655385    0.00021313089
    128000   0.012977605   -0.12746187     0.0094391684  -0.098568856    0.001440335  
    129000   0.012999544   -0.12831175     0.0090752144  -0.099749798    0.00011772323
    130000   0.013022825   -0.12899056     0.0094926808  -0.099976249    0.00052793574
    131000   0.013891834   -0.13118285     0.0097554493  -0.10060309     0.0034667808 
    132000   0.013860114   -0.13245439     0.0092993604  -0.10237827     0.0009786373 
    133000   0.014934926   -0.13600418     0.0096264331  -0.10398981     0.0016770208 
    134000   0.01462707    -0.1370186      0.0096314426  -0.10546071     0.0020788597 
    135000   0.014228718   -0.13993815     0.01054441    -0.10806443     0.00046501017
    136000   0.014914804   -0.14348418     0.0098365609  -0.11128985    -0.0021641173 
    137000   0.013973747   -0.14361697     0.009459494   -0.11321037    -0.0020976194 
    138000   0.013872876   -0.14417564     0.0092943229  -0.11408543     0.0023131397 
    139000   0.014460919   -0.14667179     0.0093290601  -0.11566535    -0.00066858715
    140000   0.015166561   -0.15084675     0.010136513   -0.11797507     0.00025845536
    141000   0.014208733   -0.15355689     0.010021478   -0.12223607    -0.0010538288 
    142000   0.014540299   -0.15515102     0.010751868   -0.12260277     0.00086521746
    143000   0.014997595   -0.15532283     0.010004932   -0.12283601     0.00099784296
    144000   0.01490291    -0.15833363     0.010711901   -0.12528178     0.0037683474 
    145000   0.015051655   -0.16026409     0.0099233847  -0.12777779     0.00049042536
    146000   0.015979182   -0.16192698     0.010423745   -0.12754993     0.0012575711 
    147000   0.015147878   -0.16551335     0.010249275   -0.13255692    -0.0013239703 
    148000   0.014825176   -0.16665825     0.01015925    -0.13427558     0.0015399896 
    149000   0.015494723   -0.16841666     0.010200502   -0.13498906     0.0023635142 
    150000   0.015465676   -0.1694731      0.010264762   -0.13602479     0.0026424569 
    151000   0.016167965   -0.17369113     0.010541863   -0.13891296    -0.00070770643
    152000   0.015683691   -0.17684387     0.011211877   -0.14212163     0.00034250157
    153000   0.01656846    -0.18126825     0.011133369   -0.14529822     0.0020014242 
    154000   0.016773033   -0.18366256     0.011995863   -0.14652338    -0.00059148474
    155000   0.015785556   -0.18395009     0.011174891   -0.14911214     0.00020290486
    156000   0.016256696   -0.18522459     0.011044093   -0.14981118     0.00096699587
    157000   0.015910268   -0.18725396     0.011083719   -0.15232024     0.0010204386 
    158000   0.01668863    -0.19126579     0.011264912   -0.15498408     0.0010892588 
    159000   0.017307707   -0.19490463     0.01210997    -0.15684985     0.00061754826
    160000   0.017286168   -0.19815935     0.011192504   -0.16105433     0.00042546026
    161000   0.01685865    -0.20211613     0.012425171   -0.1644193      0.0022811951 
    162000   0.016105746   -0.20289588     0.011789036   -0.16696381     8.273949e-06 
    163000   0.017682302   -0.20601745     0.011607279   -0.16790383     0.0036395121 
    164000   0.016711545   -0.20647337     0.011803369   -0.16961886     3.1427165e-05
    165000   0.017245625   -0.20780135     0.011940298   -0.17000931    -0.0012428759 
    166000   0.017541695   -0.21172958     0.011837362   -0.17359665     0.0011696033 
    167000   0.017069197   -0.21262288     0.012105317   -0.17493028     0.0032196413 
    168000   0.018187669   -0.21449267     0.011258684   -0.17597008     0.00087491087
    169000   0.017091391   -0.21537452     0.011513301   -0.17824068     0.00084536991
    170000   0.017678687   -0.21710045     0.011942382   -0.17865715     0.002610459  
    171000   0.017836617   -0.2173808      0.011492091   -0.17915105     0.00083438871
    172000   0.017235823   -0.21717107     0.011659228   -0.17967479    -0.0010030426 
    173000   0.016980286   -0.2183061      0.012029623   -0.18082248    -6.7138468e-05
    174000   0.018914965   -0.2229929      0.012969689   -0.18166906     0.0019989009 
    175000   0.017894866   -0.22375807     0.012662589   -0.1842705      0.00068528834
    176000   0.018384573   -0.22601438     0.012694707   -0.18576061     0.00091090186
    177000   0.018278042   -0.22698285     0.012272734   -0.18731074     0.0025119106 
    178000   0.018743196   -0.23004157     0.012406001   -0.18953891     0.0016600777 
    179000   0.019809599   -0.23265691     0.012306404   -0.19065528    -0.0010522512 
    180000   0.018859042   -0.23459107     0.013023229   -0.19329752     0.00072763275
    181000   0.018091767   -0.23554728     0.011872913   -0.19655423     0.0030833182 
    182000   0.018822617   -0.23738286     0.012312979   -0.19685417    -0.00071220455
    183000   0.020124442   -0.24064763     0.013071959   -0.19740848    -0.0014960358 
    184000   0.019127351   -0.2444336      0.013515999   -0.20224508     0.0051912273 
    185000   0.019609875   -0.24484309     0.012486548   -0.20296071     0.0048092299 
    186000   0.0197249     -0.24648401     0.012679914   -0.20423583     0.0056295484 
    187000   0.020705379   -0.25228128     0.014633631   -0.20660962     0.0025515556 
    188000   0.019151811   -0.25402013     0.013967739   -0.21134321     0.0011937287 
    189000   0.018625218   -0.25563509     0.013553296   -0.21416199     0.0037573733 
    190000   0.019605514   -0.25595194     0.013288484   -0.21327416     0.0025400461 
    191000   0.020011714   -0.25975658     0.013430991   -0.21632739     0.0019659513 
    192000   0.020272719   -0.2601826      0.013185245   -0.2166079      0.0050453176 
    193000   0.019700963   -0.26076787     0.013931567   -0.21730392    -0.0006335381 
    194000   0.01974209    -0.26051344     0.013705068   -0.21721434     0.0026431003 
    195000   0.019528476   -0.26081942     0.013796464   -0.21774914    -0.0028261175 
    196000   0.020847875   -0.26180311     0.013994319   -0.21655715    -0.0014210751 
    197000   0.020752863   -0.26587403     0.014089013   -0.22067581     0.0014279831 
    198000   0.020746688   -0.26668265     0.013695358   -0.22188734     0.0057267931 
    199000   0.020376723   -0.26664822     0.014284056   -0.2218188      0.0011137905 
    200000   0.020564482   -0.26827183     0.01416768    -0.22327733    -0.0022260281 
    201000   0.02152223    -0.26991351     0.013629715   -0.22402128     0.0041966306 
    202000   0.020320238   -0.27168149     0.015199289   -0.22602151     0.0013686853 
    203000   0.020647242   -0.27289309     0.014050637   -0.22789157     0.0022985773 
    204000   0.022206744   -0.27627058     0.01511956    -0.2278624      0.00039476784
    205000   0.021332742   -0.27759552     0.015603883   -0.23001317     0.002762463  
    206000   0.021806195   -0.28006701     0.014940895   -0.23243793    -0.0028518012 
    207000   0.020433408   -0.28018321     0.013470216   -0.23608266     0.0012217397 
    208000   0.021593674   -0.28278939     0.014792058   -0.23562772     0.0011186862 
    209000   0.022018056   -0.28430995     0.014134107   -0.23717007     0.0047496959 
    210000   0.021816359   -0.28594536     0.014438505   -0.23880343     0.00056101019
    211000   0.021717485   -0.28657692     0.014727566   -0.23929414     0.001095136  
    212000   0.022160084   -0.28629262     0.014291979   -0.23878196     0.0014269198 
    213000   0.021816044   -0.29070717     0.01517513    -0.24282909     0.0017950691 
    214000   0.023286297   -0.29595422     0.015344885   -0.24570242     0.0029296911 
    215000   0.021715143   -0.29726993     0.01575671    -0.24896152     0.0010772507 
    216000   0.022295345   -0.29760164     0.014016958   -0.25016324    -0.0012030449 
    217000   0.022406457   -0.30175774     0.015200195   -0.25296954     0.00094025328
    218000   0.022533532   -0.30333786     0.015566297   -0.25399307     0.0043354953 
    219000   0.023041914   -0.30670953     0.015382584   -0.25678637     0.0051030406 
    220000   0.023084739   -0.30748818     0.014403275   -0.25848014     0.0017070253 
    221000   0.022110167   -0.30960218     0.015173119   -0.2612852      0.0044769433 
    222000   0.022521283   -0.31174169     0.01593642    -0.26204514    -0.0030236054 
    223000   0.023426398   -0.3119563      0.016044544   -0.26079483     0.0056978253 
    224000   0.0236492     -0.31203738     0.015628559   -0.26095791    -0.00061461526
    225000   0.022297845   -0.31225943     0.015565858   -0.26326838     0.0015392877 
    226000   0.023375677   -0.31371247     0.014893005   -0.26377858     0.0041310608 
    227000   0.022912094   -0.31585272     0.015753695   -0.26575306    -0.00031987834
    228000   0.022392934   -0.31707021     0.015767768   -0.26773471     0.0026396159 
    229000   0.022794391   -0.3170614      0.015678674   -0.2672132     -0.0022149739 
    230000   0.023926918   -0.31920433     0.015720647   -0.26761646     0.0038768585 
    231000   0.024045544   -0.32095377     0.015843311   -0.26906541     0.0012855178 
    232000   0.023437912   -0.32278456     0.01649165    -0.27115872     0.0041943735 
    233000   0.024340687   -0.32398125     0.016036218   -0.27145756    -0.00056112981
    234000   0.023894039   -0.32599065     0.01670617    -0.27346654     0.0027167267 
    235000   0.024237429   -0.32728888     0.01609395    -0.27486224     0.0022162189 
    236000   0.023136171   -0.32774688     0.016738719   -0.27632629    -0.0026771586 
    237000   0.023622263   -0.3278874      0.016094536   -0.27638233    -0.00038193119
    238000   0.024386212   -0.32794226     0.016084903   -0.27530164     0.0059045931 
    239000   0.024482285   -0.32926387     0.016888595   -0.27567554     0.0020411081 
    240000   0.023584713   -0.33101721     0.016783582   -0.27887938     0.0001405098 
    241000   0.026104269   -0.3370344      0.017696097   -0.28020716     0.0038004594 
    242000   0.025032982   -0.33808156     0.017372211   -0.2831841      0.0010350864 
    243000   0.024654656   -0.3392564      0.016658808   -0.28563947    -0.00082079069
    244000   0.024500179   -0.33987971     0.01682043    -0.28633272     0.00041619872
    245000   0.024872106   -0.34054678     0.01696184    -0.28630085    -0.0012519638 
    246000   0.02479618    -0.34138462     0.01762747    -0.28658688    -0.0020451282 
    247000   0.024967264   -0.34141166     0.017504458   -0.28648047    -0.0043619252 
    248000   0.026225094   -0.34444887     0.01711264    -0.28802397     0.0040819565 
    249000   0.025526623   -0.34756551     0.017406956   -0.29189332     0.00032736332
    250000   0.025450118   -0.34927283     0.017790361   -0.29333192     0.0030175967 
    251000   0.027329468   -0.35422469     0.019467416   -0.29378952    -0.0010389788 
    252000   0.026372847   -0.35606816     0.018239231   -0.29829518    -0.001058947  
    253000   0.026001029   -0.35828464     0.017333863   -0.3019744     -0.00059830281
    254000   0.026447145   -0.36079715     0.017950846   -0.30320118    -0.0010535278 
    255000   0.026339722   -0.36163274     0.017808415   -0.30434024     0.0027599971 
    256000   0.026234759   -0.36206519     0.017107897   -0.30563054     0.0016074572 
    257000   0.02605375    -0.36338137     0.019433241   -0.30489272     0.0021903247 
    258000   0.026253194   -0.36334652     0.017996843   -0.30599529    -0.0045805029 
    259000   0.026169507   -0.36309598     0.018148698   -0.30571835     0.00077473796
    260000   0.026562806   -0.36410234     0.01859391    -0.30568993    -0.0029090817 
    261000   0.027035419   -0.36556724     0.019004173   -0.3060361      0.0025334014 
    262000   0.027526      -0.36663948     0.019265024   -0.3061121     -0.0029898142 
    263000   0.027481193   -0.36862453     0.019121576   -0.30830776     0.0011066165 
    264000   0.027062172   -0.37101471     0.019184724   -0.31126292     0.0011040764 
    265000   0.027349579   -0.37272324     0.018974086   -0.31275125     0.0013097512 
    266000   0.02697077    -0.37279022     0.018225612   -0.31413455     0.0019448978 
    267000   0.027048848   -0.37278574     0.018070064   -0.31416858    -0.0036252473 
    268000   0.027479579   -0.37443506     0.018667177   -0.3145751     -0.00091953651
    269000   0.027239188   -0.37755491     0.019238761   -0.31748373     0.0026703433 
    270000   0.029049453   -0.38075917     0.019097461   -0.31811565     0.002172794  
    271000   0.027739379   -0.38249539     0.019416941   -0.32149623     0.0046530754 
    272000   0.029679278   -0.38387933     0.01939632    -0.31999282     0.0023471087 
    273000   0.028573637   -0.38490582     0.020986682   -0.32108633    -0.0051075672 
    274000   0.029185995   -0.38498851     0.019995907   -0.32124186     0.0055573607 
    275000   0.027796175   -0.38537617     0.020981794   -0.32272701     0.002408214  
    276000   0.026706407   -0.385308       0.020217469   -0.32505676    -0.00022776361
    277000   0.029972381   -0.38641897     0.019809769   -0.32167964     0.0010788591 
    278000   0.028960493   -0.3879667      0.020598615   -0.32395537    -0.0015283892 
    279000   0.029191583   -0.38895924     0.018727552   -0.32647256     0.006192537  
    280000   0.028434676   -0.39040788     0.019811076   -0.32797231    -0.0026792895 
    281000   0.028475874   -0.39290505     0.019647262   -0.33057153     0.00091136267
    282000   0.028403496   -0.39550749     0.019556695   -0.33337304     0.0029727924 
    283000   0.029484984   -0.39718778     0.018973186   -0.33401565    -0.0019302768 
    284000   0.028416433   -0.3977014      0.019934021   -0.33517023     0.0017490871 
    285000   0.029212322   -0.39873199     0.019128836   -0.33581294     0.0069067076 
    286000   0.029487592   -0.40185223     0.021367165   -0.33628221     0.0021312715 
    287000   0.029122842   -0.40507336     0.020442777   -0.34097451     0.0060118341 
    288000   0.029542012   -0.40672785     0.019684665   -0.34275875     0.0027228871 
    289000   0.030301375   -0.40927699     0.02147636    -0.34237789     0.00097355899
    290000   0.029447672   -0.41102952     0.020110982   -0.34677553     0.0014111797 
    291000   0.030871151   -0.41326796     0.020038148   -0.34695296     6.6101542e-06
    292000   0.030251836   -0.41441741     0.020538136   -0.3485308      0.0046044612 
    293000   0.03042652    -0.4167456      0.021341551   -0.34979371     0.0030816364 
    294000   0.030716084   -0.41961743     0.020880478   -0.35269255     0.008025714  
    295000   0.031234097   -0.41975792     0.020807883   -0.35212912    -0.0019786208 
    296000   0.02964831    -0.4212245      0.021225288   -0.35555544    -0.0022796802 
    297000   0.030049562   -0.42223558     0.020789848   -0.35640047    -0.0026286531 
    298000   0.030639378   -0.42296911     0.020591515   -0.35644818     0.00065063505
    299000   0.029932271   -0.4228396      0.020689131   -0.35728103    -0.004469548  
    300000   0.030919378   -0.42381973     0.020698537   -0.35677205     0.0018301216 
    301000   0.029854713   -0.42427491     0.020474389   -0.35904734    -0.0032109452 
    302000   0.029407474   -0.42406933     0.02038311    -0.35960347     0.0024102559 
    303000   0.029635373   -0.42380016     0.02058844    -0.35878734     0.0099135646 
    304000   0.030777992   -0.42467306     0.020611213   -0.35792465     0.0026699631 
    305000   0.030620131   -0.42499936     0.02088337    -0.35821543    -0.0055037957 
    306000   0.031300341   -0.42794174     0.022029113   -0.35899241     0.0041201081 
    307000   0.031949597   -0.42903885     0.021742286   -0.35940308     0.0052669573 
    308000   0.031394351   -0.43091647     0.021470184   -0.36238514    -0.0082510477 
    309000   0.032585423   -0.43320814     0.02109776    -0.36326378    -0.0014119765 
    310000   0.032427327   -0.43447653     0.022679432   -0.36318749     0.0061077196 
    311000   0.032880456   -0.43618262     0.020900954   -0.3659928      0.0012489623 
    312000   0.033396682   -0.43834209     0.021472327   -0.36680706    -0.0012682411 
    313000   0.032302591   -0.44051782     0.021962091   -0.3701331      0.0091688605 
    314000   0.033220711   -0.44440287     0.021883077   -0.37272087    -0.0030525955 
    315000   0.032097435   -0.44763735     0.022805596   -0.37671666    -0.003364997  
    316000   0.032631711   -0.44988188     0.021437439   -0.37952845     0.00070156664
    317000   0.032660035   -0.4494792      0.02204671    -0.37847404     0.0061855167 
    318000   0.034857669   -0.45518741     0.024397512   -0.37853713    -0.0024771491 
    319000   0.033933732   -0.45643761     0.023061383   -0.38250847     0.0038790603 
    320000   0.033443338   -0.45727421     0.02300507    -0.3841365      0.009345309  
    321000   0.033973985   -0.45801813     0.023009946   -0.38408009     0.0054216362 
    322000   0.032708765   -0.45835985     0.025080851   -0.3842475      0.0005002405 
    323000   0.033382031   -0.45783062     0.022688535   -0.38510134     0.0016835619 
    324000   0.034130077   -0.46190497     0.022833325   -0.38790956    -0.0058584804 
    325000   0.033651469   -0.46495092     0.022601226   -0.39190505     0.0030436529 
    326000   0.033989277   -0.46708013     0.022599434   -0.39352968    -0.0059620974 
    327000   0.034446103   -0.46783342     0.023855653   -0.39234195    -0.0064521096 
    328000   0.032841433   -0.46749497     0.024474137   -0.39379046     0.0050606369 
    329000   0.033204204   -0.46698366     0.022940975   -0.39426851    -0.00098151645
    330000   0.033679669   -0.46901347     0.023392871   -0.39513369    -0.0073800069 
    331000   0.033756832   -0.471621       0.023744226   -0.3972742      0.0034840249 
    332000   0.034359625   -0.47369796     0.022376008   -0.39981576    -0.0005569644 
    333000   0.03385391    -0.47678388     0.022766704   -0.40326907     0.00018863006
    334000   0.03458672    -0.47762137     0.02385925    -0.40191552     0.0034163041 
    335000   0.033665208   -0.48086381     0.023979554   -0.40641902     8.1892518e-05
    336000   0.034816118   -0.48258398     0.022867686   -0.40752581    -0.0041005134 
    337000   0.034311934   -0.48403773     0.024123476   -0.40847956     0.0011182706 
    338000   0.033999171   -0.48579686     0.023671721   -0.41115928     0.0056876596 
    339000   0.035264207   -0.48847042     0.022804944   -0.41280329     0.00044400179
    340000   0.034520056   -0.48831884     0.024842066   -0.4117301     -0.013693565  
    341000   0.034127497   -0.48891685     0.025157135   -0.4126015     -0.00056103824
    342000   0.034933627   -0.48870829     0.024205524   -0.41213614     0.0010989303 
    343000   0.034595043   -0.4879465      0.02443784    -0.41164958    -0.0040843695 
    344000   0.035914203   -0.48829193     0.023883824   -0.41057155     0.0009957911 
    345000   0.035906845   -0.49026276     0.025546473   -0.41089077    -0.00098958169
    346000   0.036264639   -0.49191112     0.025316335   -0.41223292     0.0029724933 
    347000   0.036526324   -0.49041799     0.024367507   -0.41129634     0.0024332243 
    348000   0.034199737   -0.49225196     0.0235886     -0.41739685     0.00023980558
    349000   0.035010149   -0.4929966      0.023391507   -0.41712375     0.0078838651 
    350000   0.035192734   -0.49546039     0.024640023   -0.41806532     0.0044630731 
    351000   0.03640487    -0.49482252     0.024574548   -0.4156759      0.00011073278
    352000   0.036326147   -0.49454354     0.025371438   -0.41471803     0.0035291618 
    353000   0.034771932   -0.49559842     0.024808842   -0.41866533    -0.0093380753 
    354000   0.036105965   -0.49442183     0.023952864   -0.41634496     0.0019501967 
    355000   0.037119185   -0.49715187     0.025220371   -0.41628864    -0.001183541  
    356000   0.03774743    -0.50468404     0.026297712   -0.42180172    -0.0015720952 
    357000   0.036702041   -0.50439667     0.025323572   -0.42405556     0.0019550028 
    358000   0.035763844   -0.50699805     0.025070705   -0.42831619    -0.015978046  
    359000   0.037655311   -0.50788747     0.025099633   -0.42634131    -0.017206166  
    360000   0.036488582   -0.5100752      0.026275656   -0.42910198    -0.012451562  
    361000   0.037807087   -0.51440982     0.025643283   -0.4320925     -0.0023207404 
    362000   0.037559174   -0.51710447     0.025426246   -0.43537581     0.0080672792 
    363000   0.036716432   -0.51690636     0.024581454   -0.43728579    -0.012933533  
    364000   0.037989393   -0.51661457     0.025013166   -0.43465408    -0.0013349931 
    365000   0.035814711   -0.51882057     0.025804921   -0.43932824    -0.0018888816 
    366000   0.037643808   -0.51978063     0.025638113   -0.43771324    -0.0084196039 
    367000   0.038006682   -0.52311204     0.027170329   -0.43896847     0.0018480297 
    368000   0.038602006   -0.52139048     0.025761477   -0.43776335     0.0029299741 
    369000   0.03751789    -0.52281073     0.026391906   -0.4401783     -0.0046678532 
    370000   0.037904396   -0.5234688      0.02673388    -0.43991501    -0.0032166744 
    371000   0.038674363   -0.52593441     0.025537283   -0.44242301    -0.0037669038 
    372000   0.036504086   -0.52529098     0.026221713   -0.44434846     0.0025153347 
    373000   0.039065303   -0.52618489     0.027145285   -0.44047946    -0.00073142828
    374000   0.039240642   -0.52788416     0.027690922   -0.44137025     0.0015489809 
    375000   0.039085543   -0.52638216     0.026009129   -0.44178255    -0.0069171723 
    376000   0.039391928   -0.52641486     0.026554466   -0.44081062    -0.0054676925 
    377000   0.038766689   -0.5268522      0.027012845   -0.44172684     0.0037365621 
    378000   0.03865447    -0.5290818      0.026821586   -0.44431591     0.0059812412 
    379000   0.038704319   -0.52723245     0.026789275   -0.44242415    -0.015330646  
    380000   0.038352949   -0.52854124     0.026681676   -0.44436726     0.0064880502 
    381000   0.040295522   -0.53145958     0.027302522   -0.44375277     0.020766407  
    382000   0.038067144   -0.53277316     0.027654623   -0.44805466    -0.0077940949 
    383000   0.039614351   -0.53394718     0.026312685   -0.44825131    -0.00010657714
    384000   0.038843895   -0.53488049     0.027161977   -0.44949026     0.0044624019 
    385000   0.038639679   -0.53464897     0.027664413   -0.44906243    -0.0014191337 
    386000   0.03907296    -0.53678449     0.026748384   -0.45146448     0.010440057  
    387000   0.039842627   -0.53827546     0.026561799   -0.45198828     0.012211175  
    388000   0.038952961   -0.53964767     0.027841247   -0.45341468    -0.0044066002 
    389000   0.042249976   -0.54283247     0.027399962   -0.45209843    -0.0023294368 
    390000   0.042057822   -0.54303372     0.027838308   -0.45214938     0.0059336721 
    391000   0.040506272   -0.54673201     0.027214124   -0.45879768    -0.0045930293 
    392000   0.041003763   -0.54723111     0.028093136   -0.45767201    -0.010784707  
    393000   0.040392794   -0.54781692     0.027602021   -0.4596648     -0.020702075  
    394000   0.041430981   -0.54905834     0.027311632   -0.45964033    -0.0095484084 
    395000   0.042295827   -0.5529826      0.028231561   -0.46134823    -0.0018907899 
    396000   0.041202034   -0.55197242     0.028443972   -0.46176527    -0.03948422   
    397000   0.042277673   -0.55229468     0.028485582   -0.4604335     -0.030926491  
    398000   0.039386752   -0.55152182     0.028821789   -0.46365802    -0.0089537189 
    399000   0.040297909   -0.55302115     0.028291656   -0.46432162    -0.0049041935 
    400000   0.040943877   -0.55216698     0.029051028   -0.46173976    -0.024939957  
    401000   0.041050286   -0.55602252     0.028292207   -0.46619461    -0.021291238  
    402000   0.041613525   -0.55427217     0.028288988   -0.46360316    -0.00056102906
    403000   0.04036685    -0.55341552     0.027038753   -0.46586555    -0.0080388421 
    404000   0.039450713   -0.55266015     0.027835461   -0.4656868     -0.0012309318 
    405000   0.041371856   -0.55630554     0.02710739    -0.4671804      0.0021001923 
    406000   0.041850143   -0.55705182     0.028187045   -0.46613006    -0.014666722  
    407000   0.04312187    -0.55932428     0.028969333   -0.46571387     0.010039655  
    408000   0.043419344   -0.55798193     0.028770913   -0.46412402    -0.0023249088 
    409000   0.041609032   -0.56106639     0.029368715   -0.46932439    -0.0020025526 
    410000   0.041055052   -0.56040659     0.028175796   -0.47068795    -0.013748301  
    411000   0.040161904   -0.5615794      0.030282024   -0.47109338    -0.0093924304 
    412000   0.041967627   -0.56472529     0.03039347    -0.47142099     0.0049333788 
    413000   0.04207313    -0.56578647     0.03057442    -0.47214307    -0.0010181809 
    414000   0.04401099    -0.56898434     0.029861127   -0.47314932     0.0036350403 
    415000   0.042723721   -0.56568435     0.029124351   -0.47251577    -0.0084038861 
    416000   0.041814755   -0.56708187     0.029702788   -0.47469742     0.0084875604 
    417000   0.042355465   -0.56838343     0.028686475   -0.47620474     0.0084105231 
    418000   0.043774469   -0.56632048     0.029689577   -0.47101157    -1.0754656e-05
    419000   0.042811622   -0.56762554     0.029716536   -0.473733       0.00012005843
    420000   0.044363423   -0.56939992     0.029798981   -0.47309874     0.011615189  
    421000   0.042999424   -0.57113471     0.03068255    -0.47599463    -0.0065649572 
    422000   0.043432528   -0.5710833      0.028978315   -0.47699822     0.00048530183
    423000   0.044048415   -0.57513109     0.030426121   -0.47867497    -0.0020004373 
    424000   0.041798802   -0.57606845     0.029038759   -0.48437194    -0.0079359095 
    425000   0.043925851   -0.5769066      0.031016262   -0.48004407    -0.0040498661 
    426000   0.044714088   -0.58060279     0.031182571   -0.48239236     0.0092736846 
    427000   0.043367079   -0.58022801     0.031911352   -0.48330801    -0.0084237461 
    428000   0.044408776   -0.58497617     0.030426753   -0.48797923     0.0054310521 
    429000   0.044576964   -0.58546009     0.031025072   -0.48761271    -0.0010765354 
    430000   0.045199724   -0.58317152     0.029458913   -0.48595677    -0.0062898468 
    431000   0.044400945   -0.58622123     0.029186842   -0.49047594     0.0077207445 
    432000   0.043715346   -0.58435467     0.030917885   -0.48790607     0.0018809262 
    433000   0.043979778   -0.58668688     0.030778186   -0.48998159    -0.0050614563 
    434000   0.044112632   -0.58527064     0.030000682   -0.4891437      0.00080198478
    435000   0.044422908   -0.58772086     0.032745297   -0.4883842     -0.0030555954 
    436000   0.045502549   -0.5867308      0.031625494   -0.48689552    -0.0026573803 
    437000   0.045094053   -0.59015358     0.031050897   -0.49150524     0.0020609992 
    438000   0.046080936   -0.58771404     0.031148187   -0.48748905    -0.013781726  
    439000   0.044663238   -0.58777963     0.030690388   -0.49013761    -0.0075503509 
    440000   0.04457623    -0.58935149     0.031776032   -0.49075425     0.0054265825 
    441000   0.046358096   -0.59022395     0.03023959    -0.49049208    -0.003067133  
    442000   0.045488833   -0.58978536     0.032977789   -0.48861834    -0.0016083088 
    443000   0.046450913   -0.59094756     0.032961302   -0.48835484     0.0051530525 
    444000   0.046118414   -0.59593842     0.029935093   -0.49687034    -0.011692003  
    445000   0.046668031   -0.59307767     0.031259643   -0.49186115    -0.0095422889 
    446000   0.046301262   -0.59356037     0.033000029   -0.49115325    -0.0010339325 
    447000   0.046745514   -0.59280816     0.034220175   -0.48851496    -0.0031604826 
    448000   0.047921668   -0.59554275     0.032911025   -0.4907956     -0.01546808   
    449000   0.047270685   -0.59530434     0.034326477   -0.49011758     0.0010639497 
    450000   0.049061796   -0.59902793     0.034368235   -0.49111449     0.008345598  
    451000   0.045236328   -0.60126117     0.032690425   -0.50076003    -0.008932686  
    452000   0.04651221    -0.60223751     0.031518791   -0.50099541    -0.013171695  
    453000   0.045690562   -0.6021691      0.031952277   -0.50172519     0.0058004368 
    454000   0.04723571    -0.60316207     0.033621139   -0.49873308     0.0046175218 
    455000   0.046546869   -0.60060092     0.032442323   -0.49838334    -0.0020944069 
    456000   0.047353638   -0.60304331     0.031947016   -0.50011166    -0.014756429  
    457000   0.04626635    -0.60385931     0.031402419   -0.50310214     0.002472901  
    458000   0.045416661   -0.60282677     0.032370351   -0.50237538     0.0022670148 
    459000   0.046463446   -0.60335668     0.033322139   -0.50038433     0.0040942488 
    460000   0.047672279   -0.60545212     0.031742881   -0.50224696     0.0054193919 
    461000   0.045596507   -0.60626186     0.031096013   -0.50681521    -0.0055772278 
    462000   0.046154484   -0.60248736     0.034324196   -0.4989761     -0.014892853  
    463000   0.048279494   -0.60207342     0.033739883   -0.49596102    -0.012733597  
    464000   0.04806746    -0.60585611     0.033182792   -0.50061865    -0.016479704  
    465000   0.047931749   -0.60580338     0.033529401   -0.50042274     0.0036844652 
    466000   0.046645936   -0.60419152     0.033850027   -0.50041773    -0.0044129764 
    467000   0.047878695   -0.60757835     0.032640252   -0.50316639     0.00044947177
    468000   0.049126811   -0.6085977      0.034771505   -0.50018352    -0.009556112  
    469000   0.048352972   -0.61142997     0.03283299    -0.50611432     0.0086697337 
    470000   0.047435848   -0.61324578     0.034437955   -0.50769995    -0.021193046  
    471000   0.048755441   -0.61452769     0.03614302    -0.50529869     0.0041462943 
    472000   0.049656876   -0.61637643     0.034164149   -0.50777502     0.011099649  
    473000   0.049788707   -0.61543073     0.035120341   -0.50567551     0.0041075609 
    474000   0.049874037   -0.62039702     0.032184329   -0.5134499     -0.014322412  
    475000   0.051557986   -0.62141891     0.033288844   -0.51084298    -0.0051462986 
    476000   0.049267829   -0.62139508     0.035462646   -0.51207837    -0.012487678  
    477000   0.052091044   -0.62078981     0.033661229   -0.50904243     0.01027775   
    478000   0.0491109     -0.62284005     0.033757099   -0.51546413    -0.0065200887 
    479000   0.0483241     -0.62307763     0.035165969   -0.51547227    -0.024560524  
    480000   0.050038243   -0.62539385     0.03511873    -0.51526618     0.009734776  
    481000   0.049543591   -0.62587112     0.034935463   -0.51666822    -0.0056055527 
    482000   0.050240721   -0.62464743     0.034594032   -0.51474094    -0.0074217595 
    483000   0.049863203   -0.63061478     0.033891971   -0.52197626    -0.016589867  
    484000   0.048656621   -0.62965899     0.034173529   -0.52254762    -0.0011309049 
    485000   0.049409676   -0.63011012     0.032716414   -0.52332701     0.0022792189 
    486000   0.050321981   -0.63327185     0.033602343   -0.52423523    -0.027140496  
    487000   0.050762319   -0.631135       0.035064431   -0.51997621     0.0081265983 
    488000   0.05038876    -0.63254463     0.035765153   -0.5212451     -0.002039817  
    489000   0.049884158   -0.63119663     0.035555575   -0.5208631     -0.0020165575 
    490000   0.050316404   -0.63211138     0.035331395   -0.52135407    -0.01054029   
    491000   0.051872082   -0.63187257     0.033986783   -0.52012787     0.0044538804 
    492000   0.047759511   -0.63190746     0.035447506   -0.52486691     0.012003163  
    493000   0.050016754   -0.6316244      0.034406548   -0.52224112     0.0033174322 
    494000   0.050089127   -0.63465381     0.036574245   -0.52299435    -0.016874147  
    495000   0.050321654   -0.63425302     0.03619456    -0.52262468    -0.00044584044
    496000   0.050548147   -0.63459988     0.036809526   -0.52201705    -0.00096251846
    497000   0.053090754   -0.63527025     0.034719148   -0.52096635    -0.0041081591 
    498000   0.052869296   -0.63495585     0.034701072   -0.521002       0.0059667008 
    499000   0.051813503   -0.63723886     0.036601181   -0.52296757     0.012288644  
    500000   0.051318412   -0.63555189     0.035629389   -0.52299455    -0.011928703  
Loop time of 118.425 on 8 procs for 500000 steps with 1550 atoms

Performance: 364788.627 tau/day, 4222.091 timesteps/s, 6.544 Matom-step/s
91.7% CPU use with 8 MPI tasks x 1 OpenMP threads

MPI task timing breakdown:
Section |  min time  |  avg time  |  max time  |%varavg| %total
---------------------------------------------------------------
Pair    | 13.789     | 14.569     | 15.222     |  12.3 | 12.30
Bond    | 4.7243     | 5.2367     | 5.5164     |  11.1 |  4.42
Neigh   | 0.044547   | 0.044636   | 0.044717   |   0.0 |  0.04
Comm    | 10.976     | 11.966     | 13.335     |  20.9 | 10.10
Output  | 0.37309    | 0.39535    | 0.41848    |   2.4 |  0.33
Modify  | 84.778     | 84.891     | 85.002     |   0.9 | 71.68
Other   |            | 1.323      |            |       |  1.12

Nlocal:         193.75 ave         222 max         176 min
Histogram: 2 1 1 1 0 1 0 1 0 1
Nghost:        582.125 ave         607 max         555 min
Histogram: 3 0 0 0 0 0 2 0 1 2
Neighs:              0 ave           0 max           0 min
Histogram: 8 0 0 0 0 0 0 0 0 0
FullNghs:         3095 ave        4045 max        2735 min
Histogram: 3 3 0 0 0 0 1 0 0 1

Total # of neighbors = 24760
Ave neighs/atom = 15.974194
Ave special neighs/atom = 2.1612903
Neighbor list builds = 180
Dangerous builds = 0

unfix ThermoLng

# Now we let the system to create the polymeric network
fix ThermoLng all langevin ${temp} ${temp} ${damp} ${seed3} tally yes zero yes # Brownian Dynamics: langevin + nve
fix ThermoLng all langevin 0.05 ${temp} ${damp} ${seed3} tally yes zero yes 
fix ThermoLng all langevin 0.05 0.05 ${damp} ${seed3} tally yes zero yes 
fix ThermoLng all langevin 0.05 0.05 1 ${seed3} tally yes zero yes 
fix ThermoLng all langevin 0.05 0.05 1 2010 tally yes zero yes 
run ${steps}
run 3500000
WARNING: Using a manybody potential with bonds/angles/dihedrals and special_bond exclusions (src/pair.cpp:250)
Hybrid pair style last /omp style table/omp
Last active /omp style is angle_style harmonic/omp
Per MPI rank memory allocation (min/avg/max) = 24.03 | 24.03 | 24.04 Mbytes
   Step          Temp          E_pair         E_mol          TotEng         Press     
    500000   0.051318412   -0.63555189     0.035629389   -0.52299455    -0.014525361  
    501000   0.051914913   -0.63688823     0.033722033   -0.52534407    -0.010704146  
    502000   0.051827915   -0.63671689     0.036768227   -0.52225694    -0.0092161528 
    503000   0.051698855   -0.63786079     0.034919078   -0.52544346    -0.0046993575 
    504000   0.052329438   -0.63613945     0.035663948   -0.52203199    -0.0073009067 
    505000   0.054013834   -0.63973605     0.035177644   -0.52358992    -0.0015392418 
    506000   0.05308315    -0.6376737      0.036187068   -0.52191328    -0.0090892544 
    507000   0.051301487   -0.64097506     0.036060399   -0.52801208    -0.015835108  
    508000   0.049110259   -0.64290633     0.036331148   -0.53295732    -0.0096893292 
    509000   0.051685168   -0.64538433     0.037720393   -0.53018621    -0.01159462   
    510000   0.051308841   -0.64508548     0.037667215   -0.53050466    -0.0099195945 
    511000   0.054321265   -0.64403639     0.035716114   -0.52689095     0.0034570557 
    512000   0.051184586   -0.64410917     0.036397038   -0.53098478    -0.00098635724
    513000   0.051497767   -0.64295273     0.036824127   -0.52893179    -0.0032456742 
    514000   0.050661062   -0.64536701     0.036143339   -0.5332811     -0.0002262234 
    515000   0.0524414     -0.64588633     0.037170849   -0.53010413     0.0021680488 
    516000   0.050789473   -0.64411645     0.034814518   -0.53316687    -0.011229822  
    517000   0.049653096   -0.64536253     0.034925542   -0.5360054     -0.0052761413 
    518000   0.052672329   -0.64598505     0.034944892   -0.53208264    -0.016437307  
    519000   0.052734455   -0.64568703     0.034159027   -0.53247735    -0.0028686292 
    520000   0.053294188   -0.64810394     0.037116007   -0.53109823     0.0058404644 
    521000   0.055607511   -0.64918562     0.035892443   -0.52993572     0.0044580715 
    522000   0.052267838   -0.64734628     0.036105748   -0.53288935    -0.037090875  
    523000   0.051406417   -0.64922998     0.035460667   -0.53670944     0.0077942871 
    524000   0.049015107   -0.65110167     0.036289214   -0.54133723    -0.0030179346 
    525000   0.052199431   -0.64997336     0.036491759   -0.53523297     0.013185913  
    526000   0.052288345   -0.65283949     0.036941951   -0.53751563     0.011720294  
    527000   0.049055309   -0.65210645     0.037862885   -0.54070807    -0.014108081  
    528000   0.050542596   -0.65417126     0.035249064   -0.54315722     0.0012737876 
    529000   0.048939257   -0.65276981     0.037120877   -0.5422874      0.0030750207 
    530000   0.052686487   -0.65151272     0.033849908   -0.53868407    -0.01601436   
    531000   0.049497751   -0.65454264     0.037908428   -0.54243549     0.00069049423
    532000   0.051001926   -0.65346639     0.035717709   -0.54129515     0.0088868402 
    533000   0.05137931    -0.65282189     0.035916862   -0.53988578    -0.014154829  
    534000   0.053030058   -0.65288166     0.035431112   -0.53795678    -0.0019356919 
    535000   0.051591538   -0.65231618     0.035514219   -0.53946458    -0.024755443  
    536000   0.049312926   -0.65319315     0.035894565   -0.54337692    -0.0094738917 
    537000   0.051147005   -0.65304827     0.036909594   -0.53946766     0.0035994914 
    538000   0.051768678   -0.65483361     0.03587959    -0.5413511      0.010517835  
    539000   0.05144933    -0.65692895     0.034617565   -0.54518718    -0.012532015  
    540000   0.05055645    -0.6589463      0.037168247   -0.54599231    -0.016010288  
    541000   0.052908915   -0.65741034     0.036234367   -0.5418638      0.003105247  
    542000   0.051513149   -0.65619156     0.036940362   -0.54203132     0.015356759  
    543000   0.050309694   -0.65841345     0.037193884   -0.54580371    -0.00095031786
    544000   0.051881977   -0.65841846     0.036021051   -0.54462465    -0.0018541861 
    545000   0.051336069   -0.65925961     0.036145135   -0.54616005    -0.0037654491 
    546000   0.052538532   -0.65639911     0.037691578   -0.53995058    -0.010133248  
    547000   0.052504695   -0.65925638     0.036733304   -0.54381684    -0.013994008  
    548000   0.05178027    -0.65931461     0.037833033   -0.54386128    -0.011650242  
    549000   0.052766025   -0.6618471      0.036885372   -0.54586376    -0.0083820997 
    550000   0.050935617   -0.66073507     0.035722185   -0.54865876     0.011473433  
    551000   0.051592699   -0.66146007     0.035756843   -0.5483641      0.0020848708 
    552000   0.050940256   -0.66172628     0.035190926   -0.55017426    -0.0069237518 
    553000   0.051308022   -0.66270706     0.036583875   -0.5492108     -0.0031852223 
    554000   0.05221042    -0.66219412     0.036114151   -0.54781486     0.011245637  
    555000   0.050881796   -0.66148721     0.03643437    -0.54877939    -0.017914917  
    556000   0.050858856   -0.66409317     0.035944617   -0.55190949     0.015527098  
    557000   0.050446279   -0.66319881     0.034755959   -0.55282226     0.0056244306 
    558000   0.052803569   -0.66327275     0.03447329    -0.5496452     -0.013689154  
    559000   0.050897937   -0.66362166     0.034974272   -0.55234974    -0.0045803093 
    560000   0.050720256   -0.66407332     0.036374846   -0.55166718    -0.007411799  
    561000   0.051488618   -0.66402945     0.038607164   -0.54823918     0.0096913195 
    562000   0.052080899   -0.66367908     0.037004695   -0.54860344    -0.0031632885 
    563000   0.05094278    -0.66623745     0.038167185   -0.5517054      0.016619015  
    564000   0.051971101   -0.66623843     0.035930581   -0.55240149    -0.010067943  
    565000   0.050653793   -0.66537644     0.035883109   -0.55356166    -0.01784337   
    566000   0.051235387   -0.66453274     0.033871112   -0.55385813    -0.011183217  
    567000   0.051100867   -0.66539124     0.036594081   -0.55219531    -0.00058038266
    568000   0.052526746   -0.66536663     0.037503634   -0.54912371     6.314486e-05 
    569000   0.05140224    -0.66857551     0.035479587   -0.55604231    -0.0062333714 
    570000   0.052396048   -0.6664944      0.035391265   -0.55255977    -0.01467669   
    571000   0.052758176   -0.66588708     0.033743977   -0.55305689    -0.00097026042
    572000   0.052231559   -0.66615506     0.036117799   -0.55174047    -0.0088591089 
    573000   0.050844654   -0.6663057      0.03656546    -0.55352246    -0.013206767  
    574000   0.050756848   -0.66632945     0.034195237   -0.55604806    -0.012442061  
    575000   0.050935666   -0.66710963     0.035852393   -0.55490303     0.0055118314 
    576000   0.051966843   -0.6646447      0.037265669   -0.54947906     0.0028322337 
    577000   0.05119381    -0.66536828     0.035720735   -0.55290637    -0.0099231283 
    578000   0.049962949   -0.66773607     0.034654568   -0.55818543     0.0079046872 
    579000   0.051439894   -0.66881232     0.035220266   -0.55648199    -0.0030364919 
    580000   0.050506666   -0.66718516     0.036413977   -0.55506006    -0.0038952964 
    581000   0.050893555   -0.67037299     0.036372412   -0.5577095     -0.028621285  
    582000   0.050372351   -0.66880844     0.035031295   -0.55826736     0.0083289398 
    583000   0.051460826   -0.66996355     0.035087472   -0.55773464    -0.0039008465 
    584000   0.052641794   -0.67247088     0.038361042   -0.55519809    -0.010255489  
    585000   0.053289279   -0.67094595     0.03497186    -0.55609174     0.0052691499 
    586000   0.051786454   -0.66998493     0.037116117   -0.55523925    -0.0013407754 
    587000   0.050577841   -0.67294004     0.037865144   -0.55925708    -0.002382305  
    588000   0.05179516    -0.67265066     0.03598255    -0.55902549    -0.0080932441 
    589000   0.050341903   -0.67228771     0.036434564   -0.56038901     0.0011889408 
    590000   0.052209925   -0.67465001     0.034467391   -0.56191826    -0.0038461595 
    591000   0.050434694   -0.67443994     0.03571136    -0.56312534     0.0063951339 
    592000   0.051411257   -0.67481969     0.036057456   -0.5616951     -0.0014102602 
    593000   0.050929299   -0.67515005     0.035221206   -0.56358418    -0.0079948836 
    594000   0.049390391   -0.67268599     0.036764416   -0.56188378    -0.0084665598 
    595000   0.051728182   -0.67397166     0.036791291   -0.55963815    -0.013784271  
    596000   0.049610829   -0.67593509     0.03620285    -0.565364      -0.0044791729 
    597000   0.051386127   -0.67575989     0.036032365   -0.56269806    -0.0054889924 
    598000   0.050092283   -0.6736896      0.035903744   -0.56269591     0.0043780953 
    599000   0.051081256   -0.67334663     0.036095279   -0.5606789     -0.0087258392 
    600000   0.049019253   -0.67262503     0.035302366   -0.56384122    -0.01917673   
    601000   0.051692314   -0.67445191     0.036969345   -0.55999412    -0.0069510538 
    602000   0.050833679   -0.67618613     0.037194646   -0.56279016    -0.01112278   
    603000   0.049099529   -0.67593616     0.035353981   -0.5669804     -0.0025165932 
    604000   0.049819382   -0.67750056     0.035743761   -0.56707594    -0.00079953811
    605000   0.051186207   -0.6781801      0.034301595   -0.56714872     0.0032131253 
    606000   0.053820089   -0.67611351     0.035118168   -0.5603173     -0.013158952  
    607000   0.051322675   -0.67617145     0.035796034   -0.56344107    -0.016710348  
    608000   0.050615906   -0.67864175     0.036292665   -0.5664742     -0.0018720434 
    609000   0.051738263   -0.67980368     0.03637012    -0.56587624    -0.00070402183
    610000   0.050930533   -0.67831138     0.03524393    -0.56672094    -0.013067176  
    611000   0.050763116   -0.67790126     0.035753192   -0.56605252     0.010999841  
    612000   0.049984569   -0.68110747     0.037491101   -0.56868789    -0.014928576  
    613000   0.052559773   -0.67725706     0.03663319    -0.56183507    -0.0051064931 
    614000   0.05077161    -0.67806476     0.037049495   -0.56490698     0.0011743579 
    615000   0.049059216   -0.67878628     0.035395057   -0.56984987    -0.0036501685 
    616000   0.051270262   -0.67852237     0.032949054   -0.56871754    -0.01142459   
    617000   0.050138503   -0.67812696     0.035039905   -0.56792782    -0.0037546199 
    618000   0.049744951   -0.67973025     0.035055456   -0.57010551    -0.017466057  
    619000   0.051009914   -0.68096568     0.036674848   -0.56782532     0.0081898735 
    620000   0.050972707   -0.68296285     0.037664241   -0.56888887    -0.028235794  
    621000   0.051087662   -0.68238054     0.038265902   -0.56753258     0.0032409932 
    622000   0.049467564   -0.68239887     0.03599631    -0.57224908    -0.015111774  
    623000   0.049176457   -0.68172946     0.035307162   -0.5727052     -0.001832509  
    624000   0.052422621   -0.68312697     0.036918985   -0.56762478    -0.016797382  
    625000   0.0508076     -0.68166867     0.037339728   -0.56816671    -0.020508969  
    626000   0.050585917   -0.68638207     0.036535167   -0.57401698     0.00021636462
    627000   0.050432404   -0.68566561     0.03595256    -0.57411325    -0.013467383  
    628000   0.050503847   -0.68456765     0.036010095   -0.57285066     0.0012511643 
    629000   0.052887827   -0.68665468     0.036647048   -0.57072708    -0.021358802  
    630000   0.052745792   -0.67902582     0.037857127   -0.56210104    -0.013904426  
    631000   0.052145752   -0.68469187     0.036085073   -0.57043863    -0.0031206441 
    632000   0.052495509   -0.68452522     0.035999255   -0.56983351    -0.0088281511 
    633000   0.049630939   -0.68443155     0.036299428   -0.57373374    -0.0034237906 
    634000   0.05166561    -0.68618234     0.035138462   -0.57359546    -0.0058235331 
    635000   0.052596873   -0.68596307     0.036711865   -0.5704068     -4.8416785e-06
    636000   0.051934177   -0.68797159     0.036625864   -0.57349472    -0.0076305938 
    637000   0.053908028   -0.68918711     0.037284117   -0.57109312    -0.018038718  
    638000   0.050466112   -0.68683407     0.037029911   -0.57415383    -0.013299968  
    639000   0.053023074   -0.68843108     0.036993912   -0.57195387    -0.021539488  
    640000   0.05425514    -0.68923811     0.035169472   -0.57273843     0.01133673   
    641000   0.051641989   -0.69080094     0.034727262   -0.57866067     0.0046751137 
    642000   0.050604322   -0.69082487     0.035409433   -0.57955793     0.0054407695 
    643000   0.050449159   -0.69264899     0.036795375   -0.5802287     -0.0065110597 
    644000   0.052358883   -0.69106336     0.034943915   -0.57763179    -0.011343014  
    645000   0.050452888   -0.69282556     0.036316325   -0.58087873    -0.0053576887 
    646000   0.051925117   -0.69264461     0.0345933     -0.58021388    -0.0014868608 
    647000   0.051855717   -0.69366121     0.034933996   -0.58099382    -0.0084072097 
    648000   0.050247092   -0.69426447     0.03568393    -0.58325853     0.020276765  
    649000   0.05081122    -0.69599014     0.036714718   -0.58310776    -0.013904486  
    650000   0.049772114   -0.69422824     0.035787699   -0.58383054    -0.0077142259 
    651000   0.050822154   -0.6937706      0.03692496    -0.58066159    -0.0012199093 
    652000   0.051267023   -0.69606628     0.03634563    -0.58286973    -0.0035579573 
    653000   0.052527755   -0.6959061      0.035947439   -0.58121787    -0.0074315271 
    654000   0.052338634   -0.69638221     0.034084144   -0.58384076     0.0011698311 
    655000   0.049287635   -0.69725908     0.036307328   -0.587068      -0.019204734  
    656000   0.04896276    -0.69574631     0.035916484   -0.58643307    -0.0026433501 
    657000   0.050123419   -0.69635182     0.035855294   -0.5853599     -0.017282957  
    658000   0.051178114   -0.69938137     0.035088129   -0.5875756     -0.0070059513 
    659000   0.05370879    -0.6993699      0.033689686   -0.585169      -0.017842298  
    660000   0.051110396   -0.70008004     0.038138784   -0.58532513     0.0057834973 
    661000   0.050764644   -0.69940988     0.036168215   -0.58714383    -0.0023010458 
    662000   0.051187444   -0.70149509     0.038107229   -0.58665623    -0.0090118082 
    663000   0.051133251   -0.70224041     0.035770097   -0.58981992    -0.0093211795 
    664000   0.050478987   -0.70146661     0.036717419   -0.58907956    -0.001381125  
    665000   0.052605271   -0.70287622     0.035892085   -0.58812714    -0.014002716  
    666000   0.05332799    -0.70187326     0.038499624   -0.58343325    -0.022247081  
    667000   0.051248626   -0.70083563     0.039100771   -0.58491152    -0.0014365402 
    668000   0.052349639   -0.702413       0.037235536   -0.58670367    -0.013934592  
    669000   0.050874026   -0.70207634     0.036204997   -0.58960953    -0.0028163704 
    670000   0.053030448   -0.70264771     0.035032779   -0.58812058    -0.0025226429 
    671000   0.052380968   -0.7023263      0.036907718   -0.58689782    -0.00035175483
    672000   0.052492717   -0.70602585     0.036062205   -0.59127536    -0.016438156  
    673000   0.053110099   -0.70446961     0.03510144    -0.58975442     0.0079623472 
    674000   0.052054817   -0.7052904      0.037077145   -0.59018141    -0.0032025822 
    675000   0.05156642    -0.70164392     0.035593918   -0.58875028     0.0047594809 
    676000   0.051696573   -0.70302911     0.037094526   -0.58843975    -0.00095591654
    677000   0.050547811   -0.70542817     0.036140407   -0.59351496     0.00055729272
    678000   0.050819526   -0.70703528     0.036772556   -0.59408261    -0.0083861094 
    679000   0.051847299   -0.7050506      0.037247525   -0.5900823     -0.0079666075 
    680000   0.052347889   -0.70545281     0.03620827    -0.59077337    -0.013388523  
    681000   0.05151999    -0.70875913     0.034878583   -0.59665042     0.012298367  
    682000   0.051681951   -0.70860599     0.035353188   -0.59577989    -0.00032069565
    683000   0.052186685   -0.70875355     0.035441485   -0.59508254     0.008221492  
    684000   0.05278396    -0.70810228     0.036328525   -0.59264889    -0.012331309  
    685000   0.051766631   -0.70593405     0.037127631   -0.59120657    -0.0027152694 
    686000   0.051146933   -0.70796131     0.037058429   -0.59423197    -0.016403244  
    687000   0.051875562   -0.70914079     0.033834001   -0.59754365    -0.012989538  
    688000   0.050299702   -0.70922469     0.03695788    -0.59686594    -0.0020062241 
    689000   0.049654832   -0.70785698     0.035552534   -0.59787025     0.0032329064 
    690000   0.049873735   -0.70810723     0.036582543   -0.59676235    -0.017201715  
    691000   0.050280202   -0.70718046     0.035764765   -0.59604405    -0.019264944  
    692000   0.052044439   -0.70980962     0.035778236   -0.59601509    -0.0067411535 
    693000   0.052214932   -0.71204471     0.037764493   -0.59600835     0.0061356673 
    694000   0.051670753   -0.7118732      0.03733367    -0.59708341    -0.00023528141
    695000   0.051583508   -0.71075971     0.035742567   -0.5976918     -0.015897787  
    696000   0.050139443   -0.71141762     0.034632585   -0.60162439     0.013018325  
    697000   0.052540303   -0.71028678     0.034562737   -0.59696443     0.0089692439 
    698000   0.052435499   -0.71138518     0.034350351   -0.59843233    -0.013522774  
    699000   0.051622982   -0.71238523     0.036812176   -0.59818854    -0.020584593  
    700000   0.052851237   -0.71481578     0.034717608   -0.60087246    -0.027807854  
    701000   0.052605672   -0.71384463     0.036068293   -0.59891873    -0.016081247  
    702000   0.049490179   -0.7114125      0.034111654   -0.60311348     0.00014349797
    703000   0.0511262     -0.71100414     0.036658215   -0.5977061     -0.013912924  
    704000   0.051058536   -0.7124235      0.037480783   -0.59840433     0.0094187433 
    705000   0.052573868   -0.71254413     0.036279715   -0.59745449    -0.0090154318 
    706000   0.051001438   -0.71225638     0.037418554   -0.59838503    -0.0075373151 
    707000   0.052012096   -0.71309105     0.03773143    -0.59739181    -0.0078908071 
    708000   0.053165518   -0.71199956     0.035863493   -0.59643924    -0.015932646  
    709000   0.051854245   -0.71213403     0.035960691   -0.59844215    -0.0034057267 
    710000   0.05036215    -0.71536633     0.03613654    -0.6037353      0.00016363984
    711000   0.05073436    -0.71391143     0.037805569   -0.60005342    -0.0058832198 
    712000   0.052286449   -0.71340908     0.037425994   -0.59760401    -0.012774584  
    713000   0.051412009   -0.71318372     0.036566088   -0.59954937    -0.006291892  
    714000   0.05112672    -0.71211052     0.035122806   -0.60034711     0.0082159532 
    715000   0.050028142   -0.71419067     0.034562933   -0.60463394    -0.0049836475 
    716000   0.052113235   -0.71284868     0.035481322   -0.59924794    -0.0081817094 
    717000   0.050448592   -0.7119008      0.035566772   -0.60070996    -0.035111689  
    718000   0.052903053   -0.71231393     0.035646818   -0.59736372    -0.011042446  
    719000   0.05147636    -0.71234414     0.037999966   -0.59717945    -0.0088865555 
    720000   0.050978576   -0.71462836     0.035577036   -0.60263279     0.002468076  
    721000   0.052488981   -0.71456264     0.034803029   -0.60107693     0.0022172301 
    722000   0.050195001   -0.71565533     0.034487245   -0.60592416    -0.004725487  
    723000   0.051772535   -0.71375952     0.035273588   -0.60087724    -0.008088929  
    724000   0.048424829   -0.71478066     0.036585808   -0.60560447     0.0091711094 
    725000   0.04862674    -0.71418276     0.035272816   -0.6060169     -0.00096603783
    726000   0.05084541    -0.71567739     0.034959541   -0.60449894    -0.0027403824 
    727000   0.052337519   -0.71476625     0.035299963   -0.60101066    -0.0067150399 
    728000   0.051429173   -0.71800964     0.037232281   -0.60368337     0.0061705264 
    729000   0.05136274    -0.71895894     0.036295754   -0.60566879    -0.032461864  
    730000   0.052145947   -0.71709612     0.036683431   -0.60224423    -0.017118943  
    731000   0.052837013   -0.71694808     0.034954604   -0.60278909    -0.0060844882 
    732000   0.050782564   -0.71752731     0.03775415    -0.60364846    -0.02180086   
    733000   0.051034271   -0.71454441     0.036800038   -0.60124235     0.0063303628 
    734000   0.051229514   -0.71821852     0.035771645   -0.60565218    -0.010245683  
    735000   0.052881921   -0.71630063     0.035922096   -0.60110683    -0.0026698703 
    736000   0.051682841   -0.71816764     0.037007311   -0.60368608    -0.024259254  
    737000   0.051729159   -0.71771705     0.037463738   -0.60270964     0.00089722231
    738000   0.052402401   -0.71913954     0.037156468   -0.60343019    -0.01440866   
    739000   0.05186234    -0.71610779     0.0370475     -0.60131697    -0.02101606   
    740000   0.052503562   -0.714227       0.037542296   -0.59798017     0.0030860932 
    741000   0.05147226    -0.71398738     0.035866389   -0.60096241    -0.002762855  
    742000   0.051088166   -0.71586052     0.035214859   -0.60406285    -0.0021302362 
    743000   0.051866299   -0.71435329     0.03576228    -0.60084175    -0.00092842315
    744000   0.053243815   -0.71858159     0.037255496   -0.6015119     -0.003948158  
    745000   0.04896513    -0.71805567     0.035702669   -0.60895269    -0.036495276  
    746000   0.050586945   -0.71817033     0.033457248   -0.60888162    -0.00029292769
    747000   0.050203987   -0.71714635     0.036923054   -0.60496591    -0.0018798344 
    748000   0.05248101    -0.71932414     0.036208055   -0.60444536    -0.017922943  
    749000   0.051522707   -0.71702969     0.03745539    -0.6023401      0.0045166375 
    750000   0.053566049   -0.71741851     0.038190095   -0.59893118     0.0005739866 
    751000   0.054372044   -0.71511383     0.037830034   -0.59577835    -0.0045123447 
    752000   0.053193814   -0.7179526      0.038601622   -0.59961174    -0.013398832  
    753000   0.052517883   -0.71330221     0.038321779   -0.59625443    -0.028869509  
    754000   0.052022544   -0.71719187     0.038801222   -0.60040717    -0.015629257  
    755000   0.053888816   -0.71595514     0.035518484   -0.59965558    -0.0099459083 
    756000   0.05521799    -0.71804851     0.038474748   -0.59680022    -0.0017319229 
    757000   0.05213138    -0.71394562     0.038158055   -0.59764095    -0.0022487103 
    758000   0.052901365   -0.71593224     0.038399999   -0.59823139    -0.019025196  
    759000   0.049564999   -0.71697765     0.038989197   -0.60368892    -0.019050395  
    760000   0.052404088   -0.71619266     0.037029577   -0.60060767     0.014534885  
    761000   0.051785142   -0.71466037     0.038905867   -0.5981269     -0.0076469197 
    762000   0.052102126   -0.71469815     0.037562745   -0.59903264    -0.024456343  
    763000   0.052475563   -0.71575529     0.036838591   -0.60025413    -0.020915904  
    764000   0.051999859   -0.71631093     0.037414217   -0.60094725    -0.015914235  
    765000   0.050825417   -0.71627943     0.037809858   -0.60228063    -0.0073470143 
    766000   0.050795075   -0.7150716      0.038865347   -0.6000628     -0.022461967  
    767000   0.050988059   -0.71600842     0.038665991   -0.60090968    -0.023505219  
    768000   0.053445424   -0.71600532     0.037036874   -0.59885203    -0.0078983319 
    769000   0.051077793   -0.71841844     0.038630276   -0.60322091    -0.0021080289 
    770000   0.052406278   -0.7174195      0.038940567   -0.59992023    -0.015291269  
    771000   0.050760611   -0.71650924     0.037978718   -0.60243873     0.0024667244 
    772000   0.052743657   -0.71708508     0.037138811   -0.60088182    -0.0024598848 
    773000   0.052061615   -0.7177458      0.037500198   -0.60220357    -0.0096649054 
    774000   0.052400373   -0.71505966     0.038329778   -0.59818003    -0.010638273  
    775000   0.05200663    -0.71653808     0.038330788   -0.60024768    -0.011372665  
    776000   0.052643001   -0.71665519     0.03616878    -0.60157285    -0.02127842   
    777000   0.053268998   -0.71817941     0.038620117   -0.59970735     0.0050501134 
    778000   0.053439423   -0.71603681     0.039709099   -0.59622029    -0.0095574883 
    779000   0.052965104   -0.7176286      0.038454342   -0.59977785    -0.023644512  
    780000   0.052676809   -0.71913462     0.037163981   -0.6030064     -0.015525158  
    781000   0.051187678   -0.71657921     0.038314125   -0.6015331     -0.0033646153 
    782000   0.054253992   -0.71690869     0.038446244   -0.59713396    -0.01393876   
    783000   0.053296387   -0.71864854     0.038883076   -0.59987246     0.0057595332 
    784000   0.052671295   -0.71790896     0.03841878    -0.60053421    -0.022963588  
    785000   0.051869414   -0.71534685     0.040796817   -0.59679611    -0.029071281  
    786000   0.054816783   -0.71764055     0.038359197   -0.59710923    -0.007557149  
    787000   0.050359129   -0.71502751     0.03805391    -0.60148364     0.0074297499 
    788000   0.050337159   -0.71936949     0.036687538   -0.60722492    -0.030300031  
    789000   0.050686512   -0.71665791     0.036803059   -0.60387413     0.0032827285 
    790000   0.049809382   -0.71459019     0.036359001   -0.60356532    -0.00018732677
    791000   0.049567708   -0.71688854     0.035070492   -0.60751446    -0.015200261  
    792000   0.051618649   -0.71834335     0.037809638   -0.60315569     0.0013944277 
    793000   0.051105354   -0.71845589     0.038007829   -0.60383949    -0.0036110981 
    794000   0.05154612    -0.71832137     0.039390463   -0.60166161     0.0033251665 
    795000   0.051200887   -0.71629545     0.03693645    -0.60260722     0.0036115044 
    796000   0.053600455   -0.71652302     0.037133991   -0.59904022     0.0013048233 
    797000   0.051758141   -0.71814197     0.038283434   -0.60227141     0.0087641552 
    798000   0.052121347   -0.72076888     0.038442727   -0.60419457    -0.025176961  
    799000   0.052812192   -0.72186509     0.038004421   -0.6046935     -0.0090084153 
    800000   0.0532748     -0.72009473     0.037815019   -0.60241906    -0.0075274465 
    801000   0.049512678   -0.71867239     0.03921199    -0.6052393     -0.026706435  
    802000   0.05160618    -0.71979233     0.037679093   -0.60475391     0.0096359155 
    803000   0.05363351    -0.72083183     0.037363832   -0.60306964    -0.0037614863 
    804000   0.051490277   -0.72034431     0.037640661   -0.60551806    -0.023752977  
    805000   0.051119706   -0.72112624     0.039920612   -0.60457554    -0.012393883  
    806000   0.052589015   -0.72280271     0.036277881   -0.6076922     -0.0044939698 
    807000   0.051201149   -0.72069543     0.038850814   -0.60509245    -0.020944007  
    808000   0.051513646   -0.71983772     0.038163114   -0.60445399    -0.033289212  
    809000   0.051871441   -0.72403589     0.038320385   -0.60795855    -0.0078655039 
    810000   0.053217676   -0.72444483     0.037408197   -0.60726162    -0.025260587  
    811000   0.055090861   -0.72657        0.036987986   -0.60699904    -0.011858256  
    812000   0.052568966   -0.72505051     0.036299278   -0.60994865    -0.0039599484 
    813000   0.051421869   -0.72498498     0.039220734   -0.60868121     0.0056504098 
    814000   0.05115069    -0.7268789      0.039829419   -0.61037295    -0.0012371765 
    815000   0.052968282   -0.7284249      0.0404249     -0.60859884     0.00038818848
    816000   0.053102609   -0.72849273     0.035349874   -0.61354033    -0.0028282259 
    817000   0.051873941   -0.72860889     0.037475577   -0.6133726     -1.6916235e-06
    818000   0.051562598   -0.7297616      0.039948051   -0.61251955    -0.028288211  
    819000   0.050903703   -0.72895774     0.039226989   -0.61342446    -0.0025300818 
    820000   0.052275481   -0.72957332     0.03646539    -0.6147453     -0.0086960347 
    821000   0.050908463   -0.72819559     0.038498265   -0.6133839      0.013779019  
    822000   0.05344968    -0.72829531     0.037967677   -0.61020484    -0.014288803  
    823000   0.055013433   -0.73076231     0.039008646   -0.60928675    -0.031872504  
    824000   0.053347254   -0.73240536     0.038870017   -0.61356609    -0.0056046785 
    825000   0.050453021   -0.73217549     0.035348302   -0.62119649    -0.018485178  
    826000   0.053728023   -0.73375404     0.037234568   -0.61597943     0.00050056098
    827000   0.05114846    -0.73398573     0.038127942   -0.61918459    -0.010797064  
    828000   0.055410559   -0.73525977     0.039205087   -0.61299246    -0.0072652449 
    829000   0.053601034   -0.73374994     0.038854364   -0.6145459     -0.0090234874 
    830000   0.053161717   -0.73416741     0.040106158   -0.61437012     0.00019968706
    831000   0.053817118   -0.73162697     0.036348203   -0.61460517    -0.022922818  
    832000   0.051381966   -0.73491886     0.037590557   -0.62030508    -0.013988282  
    833000   0.050224625   -0.73202398     0.038748565   -0.61798708     0.00032656635
    834000   0.051874273   -0.73388279     0.038021402   -0.61810018    -0.0030344377 
    835000   0.05195534    -0.73529059     0.039624344   -0.61778352    -0.0087445165 
    836000   0.050965504   -0.73425389     0.04027964    -0.61757532    -0.013777793  
    837000   0.051763579   -0.73308984     0.038251424   -0.61724315    -0.017991409  
    838000   0.051791666   -0.73612582     0.039442995   -0.61904545    -0.020746394  
    839000   0.053937259   -0.73376574     0.039226805   -0.61368525    -0.0082401001 
    840000   0.050591093   -0.73351988     0.040604958   -0.61707724    -0.03848153   
    841000   0.052711811   -0.73415344     0.037319665   -0.61781707    -0.0173087    
    842000   0.053175047   -0.73032626     0.03804771    -0.61256744    -0.019633063  
    843000   0.052652818   -0.73337907     0.037877128   -0.61657367    -0.032816418  
    844000   0.053975014   -0.73432643     0.038175161   -0.61524098    -0.0053296909 
    845000   0.053515309   -0.73172276     0.03776357    -0.61373801    -0.030455233  
    846000   0.052542008   -0.73350632     0.038156207   -0.61658795    -0.029726487  
    847000   0.052869706   -0.729277       0.040156711   -0.60986689    -0.026286998  
    848000   0.052318775   -0.73483822     0.040534862   -0.61587583    -0.012132216  
    849000   0.052994868   -0.73394078     0.037636046   -0.61686371    -0.012134468  
    850000   0.052922661   -0.73354554     0.039430554   -0.61478221    -0.0048661197 
    851000   0.053476807   -0.73283724     0.039293394   -0.61338039    -0.027698047  
    852000   0.053051357   -0.7376795      0.038446007   -0.61970779    -0.011583215  
    853000   0.052701569   -0.7352367      0.038152454   -0.6180829     -0.017751819  
    854000   0.052818502   -0.73940405     0.039719489   -0.62050792     0.0016113239 
    855000   0.054688233   -0.73988203     0.039989139   -0.61791347    -0.016437245  
    856000   0.053758826   -0.74031679     0.038862687   -0.62086788    -0.023441257  
    857000   0.051138932   -0.73933829     0.039939457   -0.62273993    -0.01762355   
    858000   0.052071004   -0.74171243     0.039100097   -0.62455622    -0.002049178  
    859000   0.050792323   -0.74053943     0.039021406   -0.6253787     -0.0084650888 
    860000   0.052963896   -0.73773811     0.04023078    -0.61811274    -0.015938146  
    861000   0.05262539    -0.74033026     0.039786983   -0.62165612     0.00033090002
    862000   0.05316571    -0.74057819     0.03914066    -0.62174041    -0.031560895  
    863000   0.052886157   -0.73975428     0.038043505   -0.62243272    -0.0093015138 
    864000   0.053252086   -0.74215147     0.040117629   -0.62220725    -0.01270592   
    865000   0.051662143   -0.73840404     0.038264336   -0.62269648    -0.018248942  
    866000   0.051581921   -0.73722917     0.041927949   -0.61797826    -0.0082007762 
    867000   0.051429096   -0.74107335     0.041028099   -0.62295138    -0.032468012  
    868000   0.053010986   -0.73735727     0.039784071   -0.61810802     0.0083187283 
    869000   0.05603628    -0.73922286     0.039220141   -0.61600253    -0.001413573  
    870000   0.054854151   -0.74124064     0.039330122   -0.61968237    -0.0022006535 
    871000   0.054244581   -0.74247756     0.038701137   -0.62246204    -0.002740558  
    872000   0.052798419   -0.74009171     0.040367991   -0.62057718    -0.0045587572 
    873000   0.05229164    -0.74111945     0.037049815   -0.62568278    -0.0036428331 
    874000   0.052791077   -0.74190305     0.037577205   -0.62519032    -0.013357274  
    875000   0.054586107   -0.74257474     0.038601235   -0.62214717     0.0024940608 
    876000   0.053330962   -0.74488203     0.038759678   -0.62617752    -0.0011535267 
    877000   0.054081533   -0.74482132     0.036216964   -0.6275344      0.011083989  
    878000   0.050226408   -0.74559036     0.038312642   -0.63198671     0.0049321268 
    879000   0.051057704   -0.7458902      0.036802292   -0.63255076    -0.012346901  
    880000   0.052646731   -0.74403493     0.036987949   -0.62812784    -0.0047368577 
    881000   0.050935961   -0.74464588     0.037769467   -0.63052176    -0.011525112  
    882000   0.052485394   -0.74389952     0.039991099   -0.62523113    -0.0092003657 
    883000   0.051977699   -0.7478087      0.03840589    -0.63148656     1.0613217e-05
    884000   0.050512369   -0.74596791     0.036959302   -0.63328894    -0.0010976078 
    885000   0.053394083   -0.74683181     0.036369554   -0.6304228     -0.010838876  
    886000   0.052933073   -0.74513002     0.037153049   -0.62862858     0.0041454941 
    887000   0.05276443    -0.74616707     0.037466495   -0.629605      -0.011792702  
    888000   0.053403283   -0.74801492     0.036242681   -0.63171899     0.0035945174 
    889000   0.050791449   -0.74637134     0.036274524   -0.6339588      0.00061652023
    890000   0.051895233   -0.7478549      0.035127222   -0.63493505    -0.0068241217 
    891000   0.054125525   -0.74878431     0.035569248   -0.63207916     0.0081566373 
    892000   0.052717986   -0.74896457     0.038451436   -0.63148717    -0.0014563832 
    893000   0.050660434   -0.74563128     0.035412248   -0.6342774      0.0074693095 
    894000   0.051390377   -0.74860862     0.038633621   -0.63293917     0.0085663345 
    895000   0.051569859   -0.75000109     0.036313137   -0.63638307    -0.014684245  
    896000   0.052980817   -0.7485553      0.03740804    -0.63172731     0.016407023  
    897000   0.05092288    -0.74580304     0.035214611   -0.63425339     0.011513734  
    898000   0.052269679   -0.74899204     0.037295123   -0.63334298     0.0039906777 
    899000   0.050920085   -0.74736719     0.036733161   -0.63430318     0.012590057  
    900000   0.052330741   -0.74874249     0.037373932   -0.63292309    -0.0065937228 
    901000   0.051206614   -0.75114465     0.03778432    -0.63659997    -0.0096896556 
    902000   0.052205089   -0.75037173     0.037368454   -0.63474616     0.007100975  
    903000   0.052715247   -0.7485944      0.038147463   -0.63142508    -0.0095544153 
    904000   0.053759436   -0.74921766     0.038239024   -0.63039151    -0.0088987283 
    905000   0.052952225   -0.74802486     0.039419363   -0.6292284     -0.00014270054
    906000   0.05289101    -0.74709472     0.03810371    -0.62970568    -0.015915835  
    907000   0.052449292   -0.74476145     0.037393991   -0.62874428    -0.018580826  
    908000   0.052979352   -0.74538341     0.037707085   -0.62825856    -0.024601204  
    909000   0.052900841   -0.74594905     0.036696266   -0.62995272    -0.006412696  
    910000   0.051987629   -0.74498693     0.037996419   -0.62905937     0.00061930616
    911000   0.053383252   -0.74604517     0.03814081    -0.62788114    -4.4789537e-05
    912000   0.053402283   -0.74722244     0.037487558   -0.62968314     0.001190094  
    913000   0.055071885   -0.74561512     0.038224457   -0.62483613    -0.013192307  
    914000   0.051124353   -0.74866957     0.039906717   -0.6321258     -0.021628598  
    915000   0.052069808   -0.74682235     0.037616693   -0.63115133    -0.0019872785 
    916000   0.053130358   -0.74667716     0.038115581   -0.62891745    -0.0042571431 
    917000   0.051652319   -0.74735622     0.03946783    -0.6304599     -0.0053654668 
    918000   0.05529495    -0.74726292     0.040606648   -0.62376736    -0.014859758  
    919000   0.051297111   -0.74936125     0.038957169   -0.63350806    -0.0058060655 
    920000   0.049987821   -0.74787932     0.040314827   -0.63263114    -0.0063030924 
    921000   0.051633239   -0.74835772     0.038392412   -0.63256542    -0.0017679579 
    922000   0.049261774   -0.74794897     0.038746808   -0.63535718    -0.0018252697 
    923000   0.051407896   -0.74907645     0.039392413   -0.63262195     0.0022220099 
    924000   0.050552712   -0.74570429     0.037608353   -0.6323158      0.011514036  
    925000   0.051722552   -0.74873742     0.038611521   -0.63259213    -0.00018285539
    926000   0.050745982   -0.74796058     0.037312316   -0.6345784      0.018127608  
    927000   0.052527955   -0.74731536     0.038693009   -0.62988126    -0.0047897938 
    928000   0.054084248   -0.7505503      0.038925585   -0.63055068    -0.023987077  
    929000   0.052307144   -0.75043485     0.038260497   -0.63376426    -0.0038859911 
    930000   0.050991921   -0.74712296     0.038007705   -0.63267672    -0.0038784869 
    931000   0.052136623   -0.75216152     0.036640347   -0.6373667     -0.0047373208 
    932000   0.051027606   -0.74986609     0.037345215   -0.63602885    -0.041618822  
    933000   0.051375654   -0.74850473     0.036108612   -0.63538235     0.0020001427 
    934000   0.053094945   -0.74840044     0.03674819    -0.63206122    -0.012516461  
    935000   0.05044453    -0.75057312     0.036844161   -0.63811098     0.015926707  
    936000   0.04844848    -0.75093351     0.039267731   -0.63903995    -0.002394466  
    937000   0.049731196   -0.74941154     0.037193322   -0.63766955     0.011502147  
    938000   0.051845065   -0.75033307     0.037306567   -0.63530908     0.017626228  
    939000   0.053250157   -0.75192147     0.038198216   -0.63389955    -0.0061265693 
    940000   0.052568935   -0.75092323     0.036379364   -0.63574134     0.02532878   
    941000   0.052917915   -0.75078058     0.040359775   -0.63109515    -0.0095902684 
    942000   0.052314067   -0.74903617     0.037821676   -0.63279402     0.012982309  
    943000   0.053045723   -0.75093082     0.037741005   -0.63367256    -0.012161205  
    944000   0.053530268   -0.75256347     0.037064711   -0.63525516    -0.019325085  
    945000   0.051706726   -0.75536506     0.038888142   -0.63896687    -0.019857357  
    946000   0.052576189   -0.75167547     0.037910985   -0.63495109    -0.014759132  
    947000   0.052422481   -0.75292002     0.040322123   -0.6340149     -0.0049706629 
    948000   0.05250504    -0.75362604     0.038293915   -0.63662537    -0.017042604  
    949000   0.051611147   -0.75038479     0.037564344   -0.63545367    -0.014664992  
    950000   0.053188761   -0.75263711     0.038404274   -0.63450117    -0.012556204  
    951000   0.052852604   -0.7514077      0.038196095   -0.63398385    -0.0098255397 
    952000   0.052937003   -0.74972083     0.038161773   -0.63220478    -0.0054504853 
    953000   0.053653603   -0.75319118     0.03692366    -0.63583904     0.020394761  
    954000   0.051723582   -0.75431098     0.037024346   -0.63975132    -0.0040258586 
    955000   0.050028548   -0.75273896     0.038575682   -0.63916887    -0.024332153  
    956000   0.052728243   -0.75034071     0.039258216   -0.63204116    -0.0097477283 
    957000   0.051955772   -0.755273       0.038664834   -0.63872478     0.0031372008 
    958000   0.053145523   -0.7507095      0.039746186   -0.63129646    -0.019547731  
    959000   0.051343192   -0.75086025     0.037957865   -0.63593728     0.010381298  
    960000   0.050588362   -0.75420897     0.038403843   -0.63997154    -0.010936668  
    961000   0.052940303   -0.75538408     0.035830406   -0.64019445    -0.0034237928 
    962000   0.052937547   -0.75411257     0.040063258   -0.63469422    -0.0060988255 
    963000   0.051614536   -0.75549457     0.03855189    -0.63957083    -0.01775513   
    964000   0.052258681   -0.75614009     0.03852566    -0.63927698     0.0063741179 
    965000   0.054388144   -0.75280712     0.038900111   -0.63237742    -0.022771276  
    966000   0.051266184   -0.75505842     0.039661656   -0.6385471      0.0082367392 
    967000   0.052667648   -0.75213233     0.038341541   -0.63484029     0.011445947  
    968000   0.052649817   -0.75496082     0.036552976   -0.63948407    -0.016619226  
    969000   0.05197472    -0.75373038     0.036633717   -0.63918488     0.0048582661 
    970000   0.0523955     -0.75667851     0.039104853   -0.63903112    -0.0082505528 
    971000   0.053236212   -0.75650104     0.039341922   -0.63735632    -0.0096718449 
    972000   0.052663664   -0.75567255     0.036805468   -0.63992255     0.017488533  
    973000   0.050769172   -0.75780327     0.037546005   -0.64415263    -0.00047584472
    974000   0.052573765   -0.7556237      0.037789361   -0.63902457    -0.011149602  
    975000   0.052604053   -0.75654044     0.039160088   -0.63852518    -0.0085472528 
    976000   0.052790829   -0.75879059     0.038636506   -0.64101893     0.012710108  
    977000   0.051350061   -0.75945298     0.041627745   -0.64084983    -0.016682438  
    978000   0.05160243    -0.75903854     0.039918384   -0.64176645    -0.0024337021 
    979000   0.053792912   -0.76495225     0.03848229    -0.64583265    -0.02055497   
    980000   0.05335558    -0.76580007     0.037685182   -0.64813315    -0.0020533534 
    981000   0.050887122   -0.76558103     0.038136263   -0.65116333    -0.018172935  
    982000   0.049300043   -0.7657855      0.038626288   -0.65325686     0.0020712647 
    983000   0.050865937   -0.76603462     0.037802578   -0.65198237     0.0055140767 
    984000   0.050489234   -0.76528752     0.036808467   -0.65279407    -0.010689408  
    985000   0.051919036   -0.76799837     0.037584825   -0.65258523    -0.0041223143 
    986000   0.052414135   -0.76598185     0.03864441    -0.64876696    -0.02032279   
    987000   0.05148399    -0.76766355     0.038447755   -0.65203963    -0.023355982  
    988000   0.052078028   -0.76416062     0.039320648   -0.64677333     0.010366985  
    989000   0.052289143   -0.76691483     0.038375877   -0.65015584    -0.026066935  
    990000   0.052769092   -0.76716394     0.038701109   -0.64936026    -0.002791769  
    991000   0.054689491   -0.76638055     0.037888402   -0.64651084    -0.009941807  
    992000   0.051915103   -0.76613233     0.037497292   -0.65081263    -0.0071648868 
    993000   0.050067975   -0.76648721     0.036466585   -0.65496711    -0.0093503455 
    994000   0.051725184   -0.76679883     0.038332698   -0.65092841    -0.0079804889 
    995000   0.052403405   -0.76754703     0.038982865   -0.65000977    -0.0085569996 
    996000   0.053305179   -0.76451175     0.038645103   -0.64596046    -0.011506851  
    997000   0.050503125   -0.76508474     0.038248731   -0.6511302      0.011431311  
    998000   0.050397861   -0.76636472     0.039948969   -0.65086773    -0.0099127171 
    999000   0.053751837   -0.76406075     0.037701232   -0.64578378    -0.017894261  
   1000000   0.052157358   -0.76773801     0.038437691   -0.65111475     0.013036736  
   1001000   0.052228807   -0.76669194     0.03979585    -0.64860342    -0.0094552237 
   1002000   0.051318572   -0.76571158     0.036272281   -0.6525111     -0.011933618  
   1003000   0.053248997   -0.76537443     0.038228805   -0.64732366    -0.0056403724 
   1004000   0.053298987   -0.76643963     0.038461376   -0.64808136    -0.01630437   
   1005000   0.051978627   -0.76743332     0.038280341   -0.65123534    -0.019941668  
   1006000   0.054682307   -0.76711467     0.037821981   -0.64732214     0.010395589  
   1007000   0.051482222   -0.76654124     0.038984729   -0.650383       0.0037162426 
   1008000   0.053560875   -0.7690249      0.038315566   -0.65041986    -0.027354898  
   1009000   0.052412819   -0.76887514     0.038143711   -0.65216292     0.0070025888 
   1010000   0.053293038   -0.7641327      0.038276225   -0.64596849    -0.010466068  
   1011000   0.052701928   -0.7681755      0.039710421   -0.64946319     0.0060853162 
   1012000   0.051447122   -0.77073695     0.039533959   -0.6540821     -0.020426914  
   1013000   0.051896452   -0.76767072     0.038522161   -0.6513541      0.013837037  
   1014000   0.053157569   -0.76836056     0.037908066   -0.65076758     0.0035500389 
   1015000   0.051976315   -0.76843416     0.038642896   -0.65187709    -0.022725064  
   1016000   0.050905355   -0.76915893     0.037930307   -0.65491985    -0.034618697  
   1017000   0.053302409   -0.76681066     0.036494683   -0.65041395    -0.0017412498 
   1018000   0.053494283   -0.76799165     0.03882424    -0.64897775    -0.01241501   
   1019000   0.052902201   -0.76997879     0.039324301   -0.65135238    -0.020965721  
   1020000   0.053312518   -0.76993023     0.03866318    -0.65134987    -0.0012217026 
   1021000   0.052392613   -0.77129104     0.035538766   -0.65721406     0.0058488554 
   1022000   0.052894424   -0.77179701     0.038994555   -0.65351201     0.014643344  
   1023000   0.051991857   -0.77011552     0.037263325   -0.65491473     0.026980129  
   1024000   0.053201697   -0.77049383     0.038698394   -0.65204437    -0.019610282  
   1025000   0.053629663   -0.77199907     0.039637599   -0.65196887    -0.021170634  
   1026000   0.054020566   -0.77414503     0.039855374   -0.65331109    -0.010217993  
   1027000   0.052660367   -0.77228404     0.038498501   -0.65484595    -0.0081984572 
   1028000   0.051415655   -0.77424427     0.039211005   -0.65795953     0.0021070296 
   1029000   0.053682178   -0.77418364     0.038849148   -0.65486317    -0.00092237203
   1030000   0.053095344   -0.77308573     0.039583074   -0.65391103     0.00097476618
   1031000   0.05138292    -0.7739808      0.038103076   -0.65885307     0.0037260066 
   1032000   0.053613632   -0.77463967     0.037969985   -0.65630112    -0.04774457   
   1033000   0.052318464   -0.7732564      0.040290038   -0.6545393     -0.012697585  
   1034000   0.05089987    -0.7733833      0.039336953   -0.6577458      0.0020546062 
   1035000   0.053269666   -0.77382284     0.037787213   -0.65618268    -0.016839828  
   1036000   0.050886704   -0.77336535     0.038440738   -0.65864381    -0.0039435705 
   1037000   0.050305048   -0.77427809     0.039372716   -0.65949648    -0.036277339  
   1038000   0.051812169   -0.77444373     0.037699662   -0.65907596    -0.0055024822 
   1039000   0.050823531   -0.77357341     0.036067557   -0.66131974    -0.029905572  
   1040000   0.051836647   -0.77276207     0.038392085   -0.65666518    -0.00094065147
   1041000   0.050877285   -0.77444803     0.038522912   -0.65965843    -0.011412761  
   1042000   0.051439076   -0.77262235     0.039117683   -0.65639584     0.015280633  
   1043000   0.051856196   -0.77539169     0.037614968   -0.66004261    -0.0012724831 
   1044000   0.051333349   -0.77427062     0.037251915   -0.66006836    -0.0054030658 
   1045000   0.052583132   -0.77380788     0.038412347   -0.65657173    -0.032282049  
   1046000   0.053302985   -0.77337313     0.040385826   -0.65308441    -0.020361656  
   1047000   0.052485084   -0.77289489     0.040819901   -0.65339816    -0.0088206118 
   1048000   0.051318801   -0.7722927      0.040203962   -0.6551602     -0.011910481  
   1049000   0.051633764   -0.7753097      0.037821849   -0.66008718    -0.0026240419 
   1050000   0.053090644   -0.77601582     0.040304294   -0.65612694    -0.024560962  
   1051000   0.05285527    -0.77338578     0.041200001   -0.65295402    -0.0039583304 
   1052000   0.052810478   -0.77117111     0.038353502   -0.653653      -0.0037876386 
   1053000   0.052285202   -0.77215127     0.040569087   -0.65320498    -0.0046315407 
   1054000   0.052412097   -0.77391341     0.040422831   -0.65492316    -0.0026555334 
   1055000   0.051656076   -0.77801176     0.039500223   -0.66107741    -0.015969339  
   1056000   0.052249286   -0.7767211      0.0405128     -0.65788493    -0.011269002  
   1057000   0.053370022   -0.7719053      0.038791051   -0.65311087    -0.007446255  
   1058000   0.052271122   -0.77323256     0.038524052   -0.65635241    -0.0022045234 
   1059000   0.051527995   -0.77192547     0.038711099   -0.65597224    -0.0064247877 
   1060000   0.05368657    -0.77414682     0.04039971    -0.65326921    -0.027373078  
   1061000   0.054857319   -0.77447449     0.039399965   -0.65284163     0.0082684614 
   1062000   0.051843571   -0.77775414     0.040894939   -0.65914401    -0.022135829  
   1063000   0.053984069   -0.77560057     0.039893551   -0.65478316    -0.021554698  
   1064000   0.05342353    -0.77193459     0.040516386   -0.65133461     0.00047508221
   1065000   0.052983803   -0.77218372     0.038906798   -0.65385249    -0.01369832   
   1066000   0.052472013   -0.77600387     0.038834251   -0.65851238    -0.0073461021 
   1067000   0.051430083   -0.7722731      0.03875129    -0.65642646     0.009110588  
   1068000   0.051228707   -0.77441982     0.039362747   -0.65826359    -0.0071228371 
   1069000   0.053648361   -0.77599384     0.039517108   -0.65605611    -0.018534993  
   1070000   0.052384793   -0.77691356     0.039303906   -0.65908316     0.0060608989 
   1071000   0.053060964   -0.77753297     0.038121344   -0.65987153     0.006763772  
   1072000   0.05052826    -0.77747931     0.038573107   -0.66316271    -0.00055975224
   1073000   0.051635116   -0.77879658     0.040668982   -0.66072489    -0.029486747  
   1074000   0.053410244   -0.77628036     0.039302992   -0.65691368     0.012218592  
   1075000   0.052870007   -0.77571517     0.040464078   -0.65599724     0.023616889  
   1076000   0.051802005   -0.77786176     0.03871728    -0.6614916     -0.030834285  
   1077000   0.052195157   -0.77792326     0.040406917   -0.65927411     0.00012074049
   1078000   0.053002214   -0.77775534     0.038709118   -0.65959419     0.0079170912 
   1079000   0.052919034   -0.77743316     0.037989317   -0.6601165     -0.025120043  
   1080000   0.050693756   -0.77954951     0.03969416    -0.66386377    -0.027468109  
   1081000   0.052393073   -0.77675809     0.037854697   -0.66036449    -0.010225826  
   1082000   0.053684432   -0.77809073     0.038950981   -0.65866505     6.4924579e-05
   1083000   0.052414167   -0.77701957     0.037813381   -0.66063567    -0.023930527  
   1084000   0.050252172   -0.77901564     0.039768163   -0.66391785    -0.016476527  
   1085000   0.050918055   -0.77900316     0.039627824   -0.66304753    -0.0052277467 
   1086000   0.051469722   -0.77671783     0.038459172   -0.66110388    -0.017512648  
   1087000   0.052042023   -0.77723634     0.038550593   -0.66067308    -0.011613594  
   1088000   0.052397493   -0.78050707     0.039224499   -0.66273704    -0.0078597816 
   1089000   0.050893988   -0.77585413     0.038914759   -0.66064764     0.0086879962 
   1090000   0.050287734   -0.77977536     0.039104056   -0.66528837    -0.033549897  
   1091000   0.052143951   -0.77654738     0.03922147    -0.65916045    -0.022280639  
   1092000   0.051323995   -0.77863523     0.039537548   -0.66216136    -0.016819606  
   1093000   0.05157312    -0.77587442     0.039435212   -0.65912944    -0.016894984  
   1094000   0.052652993   -0.77879553     0.038863183   -0.66100381    -0.018648209  
   1095000   0.05207484    -0.77754464     0.037618327   -0.66186445    -0.0062478652 
   1096000   0.051832961   -0.77832074     0.040121202   -0.66050025    -0.044105504  
   1097000   0.052802206   -0.78042838     0.038628421   -0.66264775    -0.021214136  
   1098000   0.051645224   -0.77743244     0.038382464   -0.66163211    -0.023457402  
   1099000   0.052220867   -0.77844112     0.03805759    -0.66210276     0.0059355971 
   1100000   0.052206875   -0.77758625     0.038343831   -0.66098263    -0.031253051  
   1101000   0.051795595   -0.77891653     0.039297468   -0.66197579     0.00028707759
   1102000   0.053313385   -0.77689967     0.041320851   -0.65566034    -0.0051568493 
   1103000   0.051747917   -0.77716867     0.037765031   -0.66183184    -0.0065213492 
   1104000   0.05033151    -0.77916468     0.038614053   -0.66510207    -0.022514033  
   1105000   0.052881794   -0.77705652     0.041545588   -0.65623942    -0.016839662  
   1106000   0.054316705   -0.77804821     0.041039117   -0.6555866      0.014499336  
   1107000   0.05276287    -0.77765165     0.038760464   -0.65979795    -0.036859302  
   1108000   0.053518103   -0.77561574     0.038913596   -0.65647678    -0.014292523  
   1109000   0.053063743   -0.78108364     0.038959825   -0.66257956     0.0015397337 
   1110000   0.052782161   -0.77862514     0.040115154   -0.65938782    -0.0072231615 
   1111000   0.052629236   -0.77724303     0.03764506    -0.66070504    -0.029533023  
   1112000   0.051352687   -0.78026029     0.040371401   -0.66290955    -0.015265954  
   1113000   0.051177576   -0.77832947     0.03920633    -0.6624063     -0.029152881  
   1114000   0.05115949    -0.77855137     0.038725386   -0.66313626    -0.0024582486 
   1115000   0.052316943   -0.7776737      0.03661713    -0.66263179     0.014357114  
   1116000   0.053012159   -0.77714734     0.03978664    -0.65789377    -0.032499965  
   1117000   0.051300985   -0.77941356     0.039454145   -0.66305758    -0.016820365  
   1118000   0.053137388   -0.77950446     0.038279433   -0.66157037    -0.0086425722 
   1119000   0.051639921   -0.77931357     0.039285941   -0.66261772     0.0036886194 
   1120000   0.052368658   -0.77876949     0.039508651   -0.66075853    -0.02518192   
   1121000   0.051796639   -0.77821582     0.038569185   -0.6620018     -0.0152931    
   1122000   0.052757987   -0.77494332     0.039098328   -0.65675906    -0.008534686  
   1123000   0.05094174    -0.77936259     0.039060045   -0.66393923     0.00093324559
   1124000   0.050720482   -0.7791081      0.040504712   -0.66257175    -0.00092145035
   1125000   0.051660812   -0.77715298     0.037890699   -0.66182106    -0.00080949696
   1126000   0.051012639   -0.77859286     0.037595287   -0.66452799    -0.0058451719 
   1127000   0.051130018   -0.77735405     0.039178666   -0.66152983    -0.0013849842 
   1128000   0.051263406   -0.77934251     0.038055693   -0.66444132     0.016484566  
   1129000   0.049943184   -0.77958862     0.040370505   -0.66435167     0.010207138  
   1130000   0.053225644   -0.77438897     0.040544318   -0.65405769    -0.0027900008 
   1131000   0.052781732   -0.77856721     0.040830953   -0.65861473     0.0018999336 
   1132000   0.050799886   -0.77925        0.040322203   -0.66277713     0.014652199  
   1133000   0.054914816   -0.77869239     0.038867307   -0.657506      -0.016312959  
   1134000   0.052458547   -0.77691094     0.036944932   -0.66132895    -0.0096603488 
   1135000   0.051282952   -0.77636874     0.03929585    -0.66019809    -0.011695255  
   1136000   0.053002819   -0.77734859     0.03969135    -0.65820431    -0.011648779  
   1137000   0.052823886   -0.77662483     0.040526972   -0.65691315     0.0097893348 
   1138000   0.052833034   -0.7798821      0.037829809   -0.66285387     0.0015303277 
   1139000   0.051530218   -0.77779187     0.038721404   -0.66182501    -0.023602411  
   1140000   0.051728258   -0.77927901     0.038480137   -0.66325654    -0.020037129  
   1141000   0.053332699   -0.78060531     0.037616493   -0.66304138    -0.016172074  
   1142000   0.052893024   -0.77931391     0.040278113   -0.65974745    -0.020456711  
   1143000   0.053056884   -0.78033568     0.038725404   -0.66207629    -0.024754355  
   1144000   0.05297195    -0.77806552     0.037621339   -0.66103752     0.02323992   
   1145000   0.051720788   -0.77815375     0.039733332   -0.66088929    -0.030062258  
   1146000   0.053047145   -0.77875407     0.041302106   -0.65793258    -0.020933995  
   1147000   0.052014358   -0.77889404     0.038936526   -0.66198632     0.0081189955 
   1148000   0.052080695   -0.77885328     0.04044242    -0.66034022     0.0011312696 
   1149000   0.052897567   -0.77929312     0.038004802   -0.66199316    -0.019235698  
   1150000   0.053360442   -0.77828388     0.039483947   -0.65881091    -0.019360112  
   1151000   0.052061645   -0.77740007     0.039902392   -0.65945559    -0.0058621915 
   1152000   0.051828617   -0.77939681     0.038188473   -0.66351557    -0.037125931  
   1153000   0.051536726   -0.77927602     0.038901416   -0.66311939    -0.019960456  
   1154000   0.053106147   -0.78056484     0.03924066    -0.66171635     0.0063959294 
   1155000   0.052924764   -0.77848982     0.039034781   -0.66011911    -0.0049172161 
   1156000   0.052161934   -0.77990771     0.036757952   -0.66495734    -0.0052116326 
   1157000   0.05124162    -0.78084067     0.036457117   -0.66757072    -0.014340186  
   1158000   0.051867916   -0.78158642     0.040072616   -0.66376212    -0.0070206548 
   1159000   0.051350232   -0.78025926     0.040172116   -0.66311149    -0.010884806  
   1160000   0.052171985   -0.7805021      0.040164779   -0.66212984    -0.0014418366 
   1161000   0.052652942   -0.7790989      0.038567412   -0.66160303     0.0029865532 
   1162000   0.052931289   -0.78136606     0.041985034   -0.66003532    -0.0046520017 
   1163000   0.052765713   -0.78083511     0.039633051   -0.66210456    -0.02054517   
   1164000   0.053307459   -0.77887885     0.04062888    -0.65834037    -0.022007025  
   1165000   0.052633254   -0.7808034      0.04210012    -0.65980433    -0.025346828  
   1166000   0.054187001   -0.78168425     0.037600951   -0.66285524     0.0034780355 
   1167000   0.053157134   -0.78075088     0.039453121   -0.6616135     -0.0049184927 
   1168000   0.053374092   -0.78028657     0.042915302   -0.65736178    -0.0049225838 
   1169000   0.054019903   -0.78301212     0.041529004   -0.66050554     0.018602192  
   1170000   0.051042615   -0.78058555     0.040335636   -0.66373539    -0.016029406  
   1171000   0.050900469   -0.78250403     0.037674353   -0.66852823    -0.0087240943 
   1172000   0.052117147   -0.78222058     0.037774123   -0.66632117    -0.0038190332 
   1173000   0.052289782   -0.7820389      0.037979601   -0.66567523    -0.0030430613 
   1174000   0.050834851   -0.78011782     0.036948666   -0.66696607    -0.0021339873 
   1175000   0.051226278   -0.78051361     0.038597825   -0.66512594     0.011062305  
   1176000   0.053152565   -0.78297739     0.038263838   -0.66503614     0.0026599774 
   1177000   0.052748908   -0.78014293     0.039567371   -0.66150324    -0.025338965  
   1178000   0.052635826   -0.783422       0.037826303   -0.6666929     -0.014812118  
   1179000   0.054342819   -0.78296001     0.040291605   -0.66120677    -0.0018397157 
   1180000   0.052085666   -0.7838773      0.040676019   -0.66512319    -0.012814281  
   1181000   0.053542287   -0.78300179     0.038892318   -0.66384786     0.0087203209 
   1182000   0.050834385   -0.78352332     0.039597927   -0.66772301    -0.015358086  
   1183000   0.051747      -0.78204699     0.03736422    -0.66711235    -0.007405177  
   1184000   0.053340747   -0.78009789     0.039671264   -0.66046713    -0.015005451  
   1185000   0.052158825   -0.78327998     0.041352428   -0.66373979    -0.034886592  
   1186000   0.051504054   -0.78340722     0.03963101    -0.66656997    -0.0033898737 
   1187000   0.053318074   -0.78316406     0.041437728   -0.66180082    -0.0067783558 
   1188000   0.052749959   -0.78237453     0.041457754   -0.66184289    -0.014519797  
   1189000   0.051966954   -0.78232709     0.040337693   -0.66408926    -0.010462448  
   1190000   0.051868211   -0.78364666     0.039321616   -0.66657293     0.0014683091 
   1191000   0.053824805   -0.78525529     0.03954898    -0.66502119    -0.01952889   
   1192000   0.05212838    -0.78535978     0.040158423   -0.66705924    -0.024619518  
   1193000   0.050025093   -0.78424999     0.039837177   -0.66942359    -0.0060831104 
   1194000   0.052970976   -0.78480532     0.039964089   -0.66543602     0.0072386927 
   1195000   0.051959419   -0.78442931     0.040623789   -0.66591668     0.010523231  
   1196000   0.050344277   -0.78335179     0.039897865   -0.66798623    -0.036168611  
   1197000   0.053058214   -0.78373442     0.041524168   -0.66267428    -0.010815174  
   1198000   0.05308416    -0.78425287     0.039531965   -0.66514604     0.024248611  
   1199000   0.052318479   -0.78584798     0.040231055   -0.66718984    -0.012317891  
   1200000   0.05161629    -0.78448072     0.040367471   -0.66673877    -0.026288932  
   1201000   0.051832698   -0.78553869     0.038423051   -0.66941675    -0.026141636  
   1202000   0.052626009   -0.78520672     0.039202428   -0.66711621    -0.024158091  
   1203000   0.053288423   -0.78334398     0.040588932   -0.66287398    -0.024257947  
   1204000   0.049450452   -0.78285854     0.039751208   -0.66897951    -0.024158042  
   1205000   0.051006558   -0.78373836     0.039276604   -0.66800128    -0.0018686897 
   1206000   0.052892584   -0.78469537     0.039165523   -0.66624216    -0.024142321  
   1207000   0.052806254   -0.78308427     0.037709809   -0.66621618    -0.015978145  
   1208000   0.050275815   -0.78457731     0.040407344   -0.66880489     0.01138984   
   1209000   0.053057816   -0.7846343      0.041030511   -0.66406841    -0.0037202533 
   1210000   0.052224349   -0.78547719     0.037612266   -0.66957894    -0.014787756  
   1211000   0.052123084   -0.78429237     0.038845521   -0.66731266    -0.032685473  
   1212000   0.053809114   -0.7830367      0.039052379   -0.66332272    -0.013156764  
   1213000   0.05271112    -0.78301347     0.038832868   -0.66516494    -0.013650072  
   1214000   0.053531502   -0.78518277     0.04053178    -0.66440554    -0.01663385   
   1215000   0.05298245    -0.78679255     0.041224131   -0.66614601    -0.00096661651
   1216000   0.05391223    -0.78387321     0.041310429   -0.66174661    -0.004977751  
   1217000   0.052069748   -0.78629937     0.040011872   -0.66823327    -0.013420704  
   1218000   0.053938568   -0.7844888      0.039306121   -0.66432703    -0.0038116344 
   1219000   0.054352324   -0.78543617     0.041243945   -0.66271633    -0.017503083  
   1220000   0.052045891   -0.78661649     0.038565401   -0.67003262    -0.025610351  
   1221000   0.050725217   -0.78143631     0.038873649   -0.66652393     0.0058463855 
   1222000   0.051610796   -0.78686776     0.039659055   -0.66984245    -0.0074847069 
   1223000   0.052945935   -0.78448486     0.040964777   -0.66415241     0.0013861706 
   1224000   0.052614226   -0.78609634     0.041955403   -0.66527051    -0.003544133  
   1225000   0.052589537   -0.78502002     0.041571421   -0.66461519    -0.015597816  
   1226000   0.0530438     -0.78892362     0.039409938   -0.66999931    -0.012035996  
   1227000   0.053430936   -0.78574657     0.037433951   -0.66821792     0.0015651471 
   1228000   0.05291878    -0.78692812     0.03840874    -0.66919242    -0.009480279  
   1229000   0.052929081   -0.78726222     0.040612486   -0.66730734    -0.023466546  
   1230000   0.051614384   -0.78649077     0.040729046   -0.66839009    -0.01409202   
   1231000   0.053625588   -0.78732233     0.040935726   -0.66600011    -0.031327976  
   1232000   0.053865571   -0.790985       0.038797124   -0.67144165     0.0014302694 
   1233000   0.052372716   -0.78741341     0.039085935   -0.66981908    -0.016301032  
   1234000   0.054486175   -0.79066096     0.040011699   -0.66897273    -0.0027889338 
   1235000   0.05417197    -0.78796602     0.04044238    -0.66631811    -0.016181983  
   1236000   0.05405051    -0.78744558     0.039717717   -0.6667044     -0.023579014  
   1237000   0.053521666   -0.7918157      0.040248945   -0.67133605    -0.029967624  
   1238000   0.052155396   -0.79045489     0.039243      -0.67302927    -0.0074724781 
   1239000   0.051355039   -0.78907304     0.038171272   -0.67391891    -0.0067310724 
   1240000   0.053085027   -0.78689922     0.038811282   -0.66851177    -0.0095862733 
   1241000   0.053972497   -0.79132742     0.039277607   -0.6711433     -0.016306845  
   1242000   0.051694982   -0.78903873     0.038276177   -0.67327011     0.0045205042 
   1243000   0.052843511   -0.78720073     0.040091475   -0.66789513    -0.0086116179 
   1244000   0.052686645   -0.79015733     0.04147674    -0.66970161    -0.012178437  
   1245000   0.054574225   -0.78887669     0.039852334   -0.66721584    -0.016334107  
   1246000   0.053677277   -0.7893016      0.039778345   -0.66905928     0.011803322  
   1247000   0.052063585   -0.7921973      0.039995921   -0.67415639     0.006519972  
   1248000   0.053898384   -0.78998684     0.040602455   -0.66858897    -0.013453367  
   1249000   0.054124206   -0.79352487     0.042238971   -0.67015197    -0.030417782  
   1250000   0.052082979   -0.79184188     0.039222574   -0.67454524     6.6006425e-05
   1251000   0.052228354   -0.79136196     0.040535186   -0.67253479    -0.021666062  
   1252000   0.05189188    -0.79260903     0.039773667   -0.67504776    -0.013932461  
   1253000   0.051662137   -0.79344022     0.039902012   -0.676095       0.00042412354
   1254000   0.052729512   -0.7945736      0.039839792   -0.67569056    -0.0062737828 
   1255000   0.051793992   -0.79372029     0.039921488   -0.67615794    -0.017865789  
   1256000   0.05152024    -0.79366956     0.038570954   -0.6778681     -0.012407756  
   1257000   0.050954943   -0.79180491     0.041652904   -0.6737689     -0.020189124  
   1258000   0.050801322   -0.79204297     0.040295142   -0.67559501    -0.034144858  
   1259000   0.053058094   -0.79030499     0.038869687   -0.67189951    -0.038618121  
   1260000   0.051983603   -0.79494536     0.040111272   -0.67690899    -0.02316455   
   1261000   0.051668042   -0.79206237     0.041017292   -0.67359302    -0.0042110359 
   1262000   0.052300441   -0.79271372     0.040644528   -0.67366914    -0.029604592  
   1263000   0.053163605   -0.79228176     0.039374331   -0.67321347    -0.015287939  
   1264000   0.051120978   -0.7918122      0.041003726   -0.67417648     0.00094292346
   1265000   0.051324068   -0.79294464     0.040299869   -0.67570834    -0.017012504  
   1266000   0.053477802   -0.79218746     0.036472661   -0.67554985    -0.0039079908 
   1267000   0.052450287   -0.79049308     0.03731983    -0.67454858     0.00087858565
   1268000   0.052162968   -0.79185668     0.037835784   -0.67582693    -0.011486959  
   1269000   0.052802304   -0.79341259     0.038275104   -0.67598513    -0.033345028  
   1270000   0.053226927   -0.79333179     0.039478893   -0.67406401    -0.0035965041 
   1271000   0.052684545   -0.79205051     0.039443819   -0.67363086    -0.012403651  
   1272000   0.053516201   -0.79387179     0.038925548   -0.67472373    -0.0055477711 
   1273000   0.054610201   -0.79242315     0.039172342   -0.67138836    -0.0061415083 
   1274000   0.053509631   -0.79604184     0.039044096   -0.67678508    -0.025782119  
   1275000   0.052478892   -0.79373564     0.040854471   -0.67421362    -0.0064727583 
   1276000   0.053723025   -0.79299923     0.039339823   -0.67312686    -0.017973092  
   1277000   0.054252996   -0.79367063     0.037092748   -0.67525089     0.0011000034 
   1278000   0.052347895   -0.79249923     0.039501031   -0.67452702     0.004812237  
   1279000   0.054001214   -0.79386891     0.038207862   -0.67471149    -0.018670325  
   1280000   0.051461203   -0.79406126     0.042613014   -0.67430624     0.0039466238 
   1281000   0.051327562   -0.79193726     0.040281323   -0.67471426    -0.036743668  
   1282000   0.052554699   -0.79217971     0.038044856   -0.67535367     0.0087091181 
   1283000   0.053177799   -0.79327275     0.040184456   -0.67337306    -0.026429584  
   1284000   0.05405568    -0.7946132      0.0402597     -0.6733223      0.0031007754 
   1285000   0.053162308   -0.79178244     0.040466474   -0.67162395    -0.020477658  
   1286000   0.052595224   -0.79319835     0.040196015   -0.6741604     -0.0037985617 
   1287000   0.051208173   -0.79266593     0.03928465    -0.67661858    -0.013651966  
   1288000   0.0519595     -0.79520656     0.039369051   -0.67794854    -0.0018328193 
   1289000   0.052762291   -0.79535287     0.040550018   -0.67571048    -0.012482246  
   1290000   0.051903359   -0.79286356     0.039232264   -0.67582648    -0.013057681  
   1291000   0.052059957   -0.79560841     0.040553973   -0.67701489    -0.01469729   
   1292000   0.053122756   -0.79384716     0.040530624   -0.67368381    -0.026584614  
   1293000   0.052525371   -0.79346263     0.039404623   -0.67532078    -0.020636482  
   1294000   0.051202939   -0.79402906     0.042016651   -0.67525755    -0.026503436  
   1295000   0.05378869    -0.79436653     0.038900717   -0.67483483    -0.018948025  
   1296000   0.053722815   -0.79562052     0.041791153   -0.67329714    -0.044380375  
   1297000   0.052816031   -0.79362936     0.039287901   -0.67516852    -0.02052832   
   1298000   0.053565946   -0.79700786     0.038899147   -0.67781163    -0.03246519   
   1299000   0.049889728   -0.79263281     0.037838274   -0.68000823    -0.023104495  
   1300000   0.052760284   -0.79528851     0.038449961   -0.67774918    -0.033178444  
   1301000   0.051381488   -0.79506736     0.040434332   -0.67761052    -0.031787723  
   1302000   0.052554132   -0.79417514     0.038265383   -0.67712942    -0.018384314  
   1303000   0.052164022   -0.79381393     0.039035445   -0.67658294    -0.011076928  
   1304000   0.052061823   -0.79409145     0.03965828    -0.67639082    -0.017111257  
   1305000   0.053773635   -0.79404988     0.038927745   -0.67451372     0.0017830541 
   1306000   0.052974337   -0.79417127     0.041175905   -0.67358513     0.017766536  
   1307000   0.05311548    -0.7960654      0.040449218   -0.67599436    -0.021211643  
   1308000   0.052786497   -0.79504947     0.039138145   -0.67678267    -0.019720859  
   1309000   0.054277089   -0.79419672     0.040474554   -0.67235906    -0.0079730969 
   1310000   0.053785689   -0.79471914     0.038588241   -0.67550441    -0.025354178  
   1311000   0.052861623   -0.79330946     0.039584217   -0.67448397    -0.035380971  
   1312000   0.051835673   -0.79314945     0.039362784   -0.67608332    -0.021419056  
   1313000   0.052321544   -0.79619206     0.04070864    -0.67705173    -0.032496994  
   1314000   0.053458026   -0.79523193     0.038361325   -0.6767353     -0.022305243  
   1315000   0.053242593   -0.7940791      0.040664361   -0.67360237     0.0020865259 
   1316000   0.052870755   -0.79486805     0.04166446    -0.67394862    -0.018371062  
   1317000   0.052981266   -0.79405589     0.041298083   -0.67333718    -0.042424679  
   1318000   0.05346413    -0.7966806      0.040137597   -0.67639855    -0.047701614  
   1319000   0.053175945   -0.79603499     0.042034419   -0.67428811    -0.016166042  
   1320000   0.052222001   -0.79261843     0.040560495   -0.67377548    -0.011571916  
   1321000   0.051771707   -0.79622811     0.041530146   -0.6770905     -0.015471604  
   1322000   0.053676899   -0.79419086     0.039498225   -0.67422923     0.013550357  
   1323000   0.05268677    -0.79427073     0.041797886   -0.67349367    -0.0072579933 
   1324000   0.053595646   -0.79303974     0.038251965   -0.67444617    -0.038091947  
   1325000   0.050597875   -0.79682258     0.039724546   -0.68125018    -0.0032705362 
   1326000   0.051526567   -0.79250157     0.037998591   -0.67726299    -0.039863576  
   1327000   0.052799707   -0.79472863     0.038851481   -0.67672869    -0.0026513479 
   1328000   0.053441079   -0.79383315     0.039101074   -0.67462217    -0.028657381  
   1329000   0.053531577   -0.7955826      0.04022892    -0.67510813    -0.050911254  
   1330000   0.052442697   -0.79782844     0.040866317   -0.67834883    -0.0051361785 
   1331000   0.05324568    -0.79525392     0.040476107   -0.67496082    -0.014457027  
   1332000   0.0519795     -0.79766339     0.039397806   -0.68034664    -0.039682776  
   1333000   0.051670877   -0.79526541     0.039235219   -0.67857388    -0.017546812  
   1334000   0.052454386   -0.7975947      0.041522038   -0.67744184    -0.039437955  
   1335000   0.05220663    -0.79687855     0.040302849   -0.67831628    -0.014667362  
   1336000   0.052295616   -0.79744633     0.037299991   -0.68175353    -0.049262064  
   1337000   0.05216802    -0.79504083     0.039884178   -0.67695511    -0.040665133  
   1338000   0.053524209   -0.79742265     0.040794927   -0.67639321    -0.032402253  
   1339000   0.054051916   -0.79639344     0.040289337   -0.67507854    -0.033315603  
   1340000   0.053326229   -0.79574139     0.040200256   -0.67560339    -0.038553613  
   1341000   0.051732236   -0.79365674     0.042277389   -0.67383106    -0.018642299  
   1342000   0.052217116   -0.79451172     0.042088917   -0.67414766    -0.01568848   
   1343000   0.05403191    -0.79545884     0.039704617   -0.67475865     0.010573276  
   1344000   0.053032306   -0.79211591     0.039812444   -0.67280633    -0.034058025  
   1345000   0.052651779   -0.79209117     0.040259457   -0.672905      -0.02842148   
   1346000   0.051400866   -0.79349422     0.039750327   -0.67669233    -0.016319738  
   1347000   0.052128338   -0.79513815     0.039532788   -0.6774633     -0.038641095  
   1348000   0.052286996   -0.79622963     0.039629919   -0.67821981    -0.033700118  
   1349000   0.050705133   -0.79509335     0.040216881   -0.67886784    -0.054725081  
   1350000   0.051705199   -0.79269086     0.041031276   -0.67415182    -0.043284828  
   1351000   0.051258301   -0.79588745     0.040694577   -0.67835503    -0.044264833  
   1352000   0.053988904   -0.79158691     0.039762095   -0.67089371    -0.028691214  
   1353000   0.05281183    -0.79497985     0.041544241   -0.67426897    -0.037427911  
   1354000   0.052103469   -0.79485511     0.041341938   -0.6754084      0.010950924  
   1355000   0.051968867   -0.79278949     0.040085633   -0.67480085    -0.013330154  
   1356000   0.050528168   -0.79082167     0.04218102    -0.6728973     -0.020840262  
   1357000   0.052703968   -0.79155775     0.04072797    -0.67182483    -0.017911878  
   1358000   0.052848613   -0.79351098     0.043101506   -0.6711877     -0.01624547   
   1359000   0.052408421   -0.79375422     0.039076412   -0.6761159     -0.028615687  
   1360000   0.051648862   -0.79381259     0.041122875   -0.67526641    -0.001236405  
   1361000   0.054136451   -0.79281257     0.040515219   -0.67114506    -0.012348613  
   1362000   0.051718558   -0.79299326     0.037681457   -0.67778402    -0.045385359  
   1363000   0.053316137   -0.79421306     0.042076829   -0.67221362    -0.044174713  
   1364000   0.052826473   -0.79285437     0.038612692   -0.67505309    -0.057937829  
   1365000   0.0518184     -0.79631931     0.040626575   -0.67801528    -0.0050690142 
   1366000   0.05207139    -0.79516588     0.040420464   -0.67668873    -0.043636205  
   1367000   0.053444467   -0.7952418      0.040179749   -0.67494707    -0.025674235  
   1368000   0.053175527   -0.79649229     0.038749204   -0.67803126    -0.02565722   
   1369000   0.053476559   -0.7966263      0.039390151   -0.67707306     0.015323782  
   1370000   0.053898702   -0.79590671     0.039497987   -0.67561283    -0.020503604  
   1371000   0.052011004   -0.79481103     0.042500982   -0.67434388    -0.072675669  
   1372000   0.053555824   -0.79812316     0.03887702    -0.67896423    -0.0059282256 
   1373000   0.052526177   -0.79752724     0.03865373    -0.68013507    -0.046460604  
   1374000   0.051687173   -0.79913091     0.039765804   -0.68188437    -0.026938038  
   1375000   0.051063789   -0.79532403     0.039574219   -0.67920354    -0.0021700183 
   1376000   0.05209211    -0.79546055     0.040689922   -0.67668287    -0.028877266  
   1377000   0.052209105   -0.79615829     0.039737582   -0.67815758    -0.059260984  
   1378000   0.051407047   -0.79707066     0.040412788   -0.67959705    -0.036879494  
   1379000   0.05300552    -0.80050651     0.039915587   -0.68113394    -0.017211508  
   1380000   0.051692979   -0.79913914     0.04088336    -0.68076634    -0.0023864386 
   1381000   0.053302088   -0.79945031     0.04122177    -0.67832699    -0.031209717  
   1382000   0.052791987   -0.79572349     0.041252793   -0.6753338     -0.018290671  
   1383000   0.052292604   -0.79758187     0.042836399   -0.67635717    -0.02288347   
   1384000   0.051858173   -0.79640164     0.039982137   -0.67868243    -0.023570583  
   1385000   0.053583614   -0.79603905     0.039895781   -0.67581971    -0.017746331  
   1386000   0.05388771    -0.79630414     0.041616262   -0.67390846    -0.051347811  
   1387000   0.052275808   -0.79491368     0.039031631   -0.67751893    -0.0078681082 
   1388000   0.051816435   -0.7962798      0.040646609   -0.67795869    -0.017289061  
   1389000   0.052234803   -0.79795416     0.039667696   -0.6799848     -0.017491848  
   1390000   0.053532923   -0.79812446     0.039643975   -0.6782329     -0.042125972  
   1391000   0.051385578   -0.79508085     0.04005411    -0.6779981      0.0010582189 
   1392000   0.052736275   -0.79531985     0.037404603   -0.67886187    -0.018863727  
   1393000   0.052280794   -0.79455706     0.037277064   -0.67890939     0.0061596414 
   1394000   0.053001958   -0.79556495     0.040657435   -0.67545587    -0.034286946  
   1395000   0.053322151   -0.79796031     0.041094036   -0.67693465    -0.02260132   
   1396000   0.051712075   -0.79520199     0.040499561   -0.67718436    -0.005623548  
   1397000   0.052300503   -0.79494566     0.041279883   -0.67526563    -0.021626701  
   1398000   0.054172451   -0.79589704     0.040580593   -0.67411019    -0.033044264  
   1399000   0.054013464   -0.79512635     0.038648982   -0.67550944    -0.0097243347 
   1400000   0.053173014   -0.79894024     0.039145534   -0.68008665    -0.016530404  
   1401000   0.053275299   -0.79804575     0.039821737   -0.67836262     0.0022514074 
   1402000   0.051252942   -0.79717716     0.041077025   -0.67927032    -0.014620046  
   1403000   0.052372263   -0.79543931     0.039926697   -0.6770049     -0.0064565029 
   1404000   0.051409021   -0.79472862     0.040097039   -0.6775678     -0.019965396  
   1405000   0.050951655   -0.7979029      0.039922955   -0.68160177    -0.026899923  
   1406000   0.052686068   -0.79609678     0.040727266   -0.6763914     -0.03131431   
   1407000   0.053182827   -0.79943599     0.042016723   -0.67769649    -0.017398352  
   1408000   0.05253777    -0.79736606     0.041604181   -0.67700607     0.014854498  
   1409000   0.053592096   -0.79650209     0.042271245   -0.67389456    -0.015751733  
   1410000   0.052540953   -0.79764965     0.042262469   -0.6766266      0.0022308739 
   1411000   0.053278622   -0.7951556      0.039414855   -0.67587438    -0.0011299471 
   1412000   0.051792245   -0.79657302     0.040532286   -0.67840249    -0.0057410817 
   1413000   0.053402342   -0.79466199     0.039592991   -0.67501717    -0.0025217828 
   1414000   0.053317784   -0.79601674     0.039904395   -0.67618727    -0.015341853  
   1415000   0.051422027   -0.79703909     0.040169261   -0.67978656    -0.0099121588 
   1416000   0.053747639   -0.79664033     0.041067561   -0.67500332    -0.034431197  
   1417000   0.051037704   -0.79691845     0.041706916   -0.67870437    -0.021979073  
   1418000   0.051649034   -0.79589735     0.037869233   -0.68060455    -0.00042606321
   1419000   0.053826062   -0.79697059     0.039955102   -0.67632849    -0.029723711  
   1420000   0.05187306    -0.79472672     0.040095507   -0.67687182    -0.015500814  
   1421000   0.05218359    -0.79595522     0.04010439    -0.67762595     0.0053899226 
   1422000   0.053079866   -0.79771251     0.041484482   -0.6766596     -0.018922093  
   1423000   0.051343455   -0.79537671     0.039216373   -0.67919485    -0.02513712   
   1424000   0.050758746   -0.79549577     0.037852528   -0.68155425    -0.049799497  
   1425000   0.051647728   -0.79637617     0.040854837   -0.67809972    -0.030762578  
   1426000   0.050630948   -0.79447432     0.040721473   -0.67785543    -0.051844814  
   1427000   0.050444508   -0.7977635      0.040832387   -0.68131316    -0.043310517  
   1428000   0.050867818   -0.79452353     0.038867028   -0.67940401    -0.026017174  
   1429000   0.052565964   -0.79327236     0.03977311    -0.67470117    -0.024865872  
   1430000   0.053784917   -0.79614505     0.040155463   -0.67536426    -0.0012477006 
   1431000   0.051830265   -0.79713243     0.040696306   -0.67874089    -0.016356265  
   1432000   0.052753822   -0.79571543     0.039285773   -0.67734998    -0.028978407  
   1433000   0.053211305   -0.79704186     0.043261545   -0.67401485    -0.028304295  
   1434000   0.055511041   -0.79779818     0.040333158   -0.67425218    -0.068011635  
   1435000   0.053122486   -0.79657928     0.040452174   -0.67649479    -0.037253755  
   1436000   0.052679695   -0.79779002     0.038252316   -0.68056914    -0.015592332  
   1437000   0.052864844   -0.79808437     0.040468688   -0.67836957    -0.026798542  
   1438000   0.0533514     -0.79596006     0.040506032   -0.67547855    -0.0050388226 
   1439000   0.05369989    -0.7965154      0.040901375   -0.67511616     0.015365684  
   1440000   0.05213848    -0.7995398      0.038878109   -0.68250443    -0.0014556387 
   1441000   0.052493603   -0.79478318     0.039253059   -0.67684052    -0.014146685  
   1442000   0.050958015   -0.79582219     0.04020614    -0.67922834    -0.003726404  
   1443000   0.052822537   -0.79572987     0.038824216   -0.67772297    -0.002009121  
   1444000   0.052580913   -0.79931003     0.038630841   -0.6818587     -0.020449311  
   1445000   0.054114993   -0.79660938     0.040769807   -0.67471945    -0.024899736  
   1446000   0.051255147   -0.79790557     0.041136004   -0.67993645     0.0048211624 
   1447000   0.051431685   -0.79541948     0.039585507   -0.67873622     0.0026986419 
   1448000   0.051258473   -0.79509378     0.040655619   -0.67760006    -0.0018879038 
   1449000   0.052105087   -0.79594159     0.037516495   -0.68031789    -0.016321148  
   1450000   0.051863358   -0.79848865     0.039986188   -0.68075762    -0.02038121   
   1451000   0.050820474   -0.79672868     0.040409424   -0.68013773    -0.036609171  
   1452000   0.053288863   -0.79297697     0.041210679   -0.67188457    -0.0092267077 
   1453000   0.054561536   -0.79648467     0.040362548   -0.67433262    -0.015907833  
   1454000   0.05469173    -0.79438585     0.039772286   -0.6726289      0.0066631491 
   1455000   0.055603735   -0.79601097     0.040354143   -0.67230503     0.016799308  
   1456000   0.052386224   -0.79316518     0.040054809   -0.67458173     0.0032099346 
   1457000   0.052830992   -0.79790871     0.041310756   -0.6774026      0.0095770911 
   1458000   0.055373211   -0.7976582      0.040076078   -0.67457589    -0.031520291  
   1459000   0.052997591   -0.79174729     0.04139491    -0.67090728     0.0037401357 
   1460000   0.051528609   -0.79678275     0.040367919   -0.67917179    -0.01599946   
   1461000   0.051757176   -0.7955361      0.041945437   -0.67600499    -0.017861806  
   1462000   0.050521594   -0.79779266     0.041143365   -0.68091579    -0.0075626479 
   1463000   0.051567912   -0.79600573     0.041707553   -0.67699621    -0.057343428  
   1464000   0.051765271   -0.79492123     0.040347492   -0.67697593     0.00026442844
   1465000   0.05264569    -0.79592681     0.040220857   -0.67678836    -0.03515782   
   1466000   0.052506168   -0.7976612      0.04228987    -0.67666289     0.011020311  
   1467000   0.053569409   -0.79799324     0.041776894   -0.67591408    -0.055458465  
   1468000   0.05325426    -0.79414895     0.039050792   -0.6752683     -0.061845983  
   1469000   0.051091883   -0.79476091     0.03718697    -0.68098556    -0.0019691202 
   1470000   0.049897035   -0.79561378     0.04054136    -0.68027516    -0.036551132  
   1471000   0.052855556   -0.79523939     0.040085486   -0.67592172    -0.033331601  
   1472000   0.051570182   -0.79636095     0.038960799   -0.68009479    -0.036960433  
   1473000   0.049944103   -0.79399299     0.038857554   -0.68026761    -0.022810966  
   1474000   0.053901121   -0.79735328     0.040235753   -0.67631801    -0.0047052559 
   1475000   0.051574387   -0.79684528     0.040279251   -0.67925436    -0.019598609  
   1476000   0.052291756   -0.7951265      0.039494661   -0.67724481     3.5614477e-05
   1477000   0.053267569   -0.79715213     0.039951022   -0.67735131    -0.022854451  
   1478000   0.052487875   -0.79659573     0.04182031    -0.6760944     -0.053552168  
   1479000   0.051784149   -0.79637379     0.041324119   -0.67742357    -0.027372198  
   1480000   0.053296576   -0.7957704      0.040773978   -0.67510314    -0.017051363  
   1481000   0.052903485   -0.79643354     0.039534559   -0.67759495    -0.021390418  
   1482000   0.053359131   -0.79560996     0.040291944   -0.67533095    -0.029467734  
   1483000   0.052119452   -0.79640872     0.041979572   -0.6763004     -0.029239861  
   1484000   0.052340128   -0.7982821      0.040513176   -0.67930939    -0.025191789  
   1485000   0.053676005   -0.80023267     0.039316086   -0.68045452    -0.051484186  
   1486000   0.05480953    -0.79971417     0.039576559   -0.67797636    -0.031353957  
   1487000   0.051009003   -0.79912429     0.041588816   -0.68107133     0.01787964   
   1488000   0.052426085   -0.79378684     0.038456609   -0.67674183    -0.04218023   
   1489000   0.053356385   -0.79821088     0.038750939   -0.679477      -0.0034485542 
   1490000   0.052650904   -0.79886725     0.03906966    -0.68087218    -0.035494774  
   1491000   0.052630026   -0.79909855     0.041416471   -0.67878797    -0.024174953  
   1492000   0.053180675   -0.79974204     0.040792227   -0.67923027    -0.0043742164 
   1493000   0.053017216   -0.79874169     0.042799363   -0.67646781     0.0011397947 
   1494000   0.052014022   -0.79949879     0.040984276   -0.68054382    -0.024548425  
   1495000   0.052800324   -0.79810302     0.040506968   -0.67844666     0.0079592183 
   1496000   0.05305153    -0.79997882     0.041003394   -0.67944947    -0.0069627073 
   1497000   0.053093885   -0.79956499     0.040555022   -0.67942052     0.003041997  
   1498000   0.052050404   -0.80178596     0.040222774   -0.68353795     0.0014860368 
   1499000   0.052742618   -0.79776146     0.040659685   -0.67803888    -0.044056932  
   1500000   0.055145007   -0.80136537     0.039400024   -0.6793012     -0.029886025  
   1501000   0.052356801   -0.79876192     0.041414803   -0.67886258    -0.030474487  
   1502000   0.054142726   -0.80093906     0.040525281   -0.67925209    -0.037810564  
   1503000   0.053791821   -0.80002597     0.041182903   -0.67820739    -0.022706396  
   1504000   0.053026327   -0.80407015     0.042727841   -0.68185414    -0.033487077  
   1505000   0.052885956   -0.80398198     0.040797966   -0.68390626     0.0021751932 
   1506000   0.052005405   -0.80336973     0.040096273   -0.68531568    -0.034814917  
   1507000   0.052547382   -0.8054274      0.041120228   -0.68553695    -0.019285236  
   1508000   0.051364864   -0.80289528     0.042327851   -0.68356984    -0.028483988  
   1509000   0.050440005   -0.80389744     0.041202816   -0.68708343     0.0020202616 
   1510000   0.051489205   -0.80334351     0.041735396   -0.68442413    -0.022165419  
   1511000   0.052081926   -0.80131317     0.039464552   -0.68377613    -0.0064094747 
   1512000   0.051999361   -0.80270022     0.041165183   -0.68358632    -0.058272229  
   1513000   0.05305846    -0.80596256     0.040853941   -0.68557228    -0.039943066  
   1514000   0.05082551    -0.80500646     0.040740385   -0.68807699    -0.038126978  
   1515000   0.051160387   -0.80403141     0.039152174   -0.68818816    -0.007495173  
   1516000   0.051791381   -0.80575003     0.041790372   -0.68632271    -0.015610086  
   1517000   0.05376618    -0.80732911     0.03828445    -0.68844742    -0.015027802  
   1518000   0.050722855   -0.80493236     0.039891066   -0.6890061     -0.023226538  
   1519000   0.052684493   -0.80470154     0.038086208   -0.68763957    -0.016425409  
   1520000   0.052873183   -0.8057919      0.040441448   -0.68609184    -0.015252248  
   1521000   0.052573588   -0.80383362     0.041729398   -0.68329472    -0.021474513  
   1522000   0.051884135   -0.80705374     0.039807264   -0.68947049    -0.024278185  
   1523000   0.054098719   -0.79964483     0.040915651   -0.67763346    -0.015020997  
   1524000   0.054880841   -0.80346578     0.039448896   -0.68174873    -0.020061131  
   1525000   0.053430944   -0.80170167     0.040513206   -0.68109376     0.0058659285 
   1526000   0.050155108   -0.80062849     0.042974877   -0.68246949     0.010949295  
   1527000   0.055863752   -0.80505961     0.041198834   -0.68011921    -0.029056235  
   1528000   0.050959238   -0.80234854     0.041885707   -0.6840733     -0.0021864173 
   1529000   0.05409694    -0.80485253     0.039443073   -0.6843164     -0.017319789  
   1530000   0.054139326   -0.80456288     0.041119395   -0.68228689    -0.018392589  
   1531000   0.051913861   -0.80167059     0.043307427   -0.68054261    -0.028081334  
   1532000   0.053256638   -0.80379078     0.043252437   -0.68070493    -0.0086116618 
   1533000   0.05209457    -0.8050166      0.041439241   -0.68548592    -0.0094569895 
   1534000   0.05141002    -0.80457716     0.039285586   -0.68822629    -0.026909134  
   1535000   0.052132895   -0.80564464     0.039785693   -0.68771005     0.01321707   
   1536000   0.050265886   -0.80466088     0.038501987   -0.69080871    -0.013578808  
   1537000   0.051458226   -0.80376757     0.039609303   -0.68702073    -0.01466012   
   1538000   0.0521399     -0.80186737     0.040565283   -0.68314269    -0.0017048161 
   1539000   0.052582719   -0.80286243     0.040490557   -0.68354868    -0.0041654653 
   1540000   0.050513705   -0.80443268     0.040541221   -0.68816978    -0.011771567  
   1541000   0.052230322   -0.80325531     0.040992298   -0.68396807    -0.026747852  
   1542000   0.051921555   -0.8010109      0.04306447    -0.68011435    -0.019882856  
   1543000   0.054152827   -0.80259667     0.041234243   -0.68018559    -0.016447302  
   1544000   0.054266669   -0.80055908     0.046113465   -0.67309813    -0.016216516  
   1545000   0.053681758   -0.79955718     0.044633608   -0.67445289    -0.014955226  
   1546000   0.054270388   -0.80218369     0.041817946   -0.67901269    -0.041516484  
   1547000   0.052680675   -0.80334445     0.042303075   -0.68207134    -0.021458667  
   1548000   0.052812234   -0.80027079     0.041886149   -0.6792174      0.0013885936 
   1549000   0.051738712   -0.80077928     0.040175208   -0.68304608    -0.0044690663 
   1550000   0.052457392   -0.80147271     0.042646608   -0.68019078    -0.037701727  
   1551000   0.051830165   -0.80154139     0.041723407   -0.6821229      0.014975984  
   1552000   0.052902861   -0.80275077     0.040139745   -0.68330793    -0.019100278  
   1553000   0.052127653   -0.80029833     0.040544524   -0.68161277     0.0033297458 
   1554000   0.052498292   -0.79862496     0.039960394   -0.67996793    -0.026959005  
   1555000   0.052234144   -0.8027029      0.043282514   -0.68111972    -0.016187789  
   1556000   0.052022381   -0.80172988     0.042928529   -0.68081812    -0.00092997248
   1557000   0.053909148   -0.80204243     0.043185468   -0.67804541     0.00748793   
   1558000   0.05351195    -0.80043349     0.044013495   -0.67620385     0.012345603  
   1559000   0.051538376   -0.79870102     0.042184233   -0.6792591     -0.013925068  
   1560000   0.052355358   -0.80340309     0.041378822   -0.6835419     -0.027145227  
   1561000   0.052245629   -0.80145411     0.041427433   -0.68170879    -0.010517416  
   1562000   0.054224957   -0.79815205     0.041166085   -0.67570101    -0.0079535201 
   1563000   0.051490545   -0.80168839     0.040793973   -0.68370843    -0.0088669401 
   1564000   0.054763207   -0.80259697     0.040612933   -0.67989223     0.0091073146 
   1565000   0.056546164   -0.80276457     0.043078818   -0.67492123    -0.029626839  
   1566000   0.053725867   -0.80286536     0.042701381   -0.67962718    -0.028593139  
   1567000   0.051370367   -0.80619643     0.040936785   -0.68825381    -0.018933509  
   1568000   0.051894137   -0.80310536     0.043817262   -0.68149711    -0.027417393  
   1569000   0.053977414   -0.8037854      0.042019069   -0.68085245    -0.04332702   
   1570000   0.053328619   -0.80064555     0.042475633   -0.6782286     -0.022958456  
   1571000   0.053703893   -0.80231054     0.042013409   -0.67979326     0.0077777649 
   1572000   0.053083976   -0.80461297     0.042233448   -0.68280493    -0.0063906521 
   1573000   0.052173364   -0.80457837     0.044841167   -0.68152765    -0.022014162  
   1574000   0.054651004   -0.80283194     0.039548038   -0.68136029     0.0069266672 
   1575000   0.053093919   -0.80200334     0.043608838   -0.678805      -0.0034641794 
   1576000   0.05327691    -0.80544739     0.042948859   -0.68263472     0.0073462918 
   1577000   0.051783741   -0.80415265     0.041285944   -0.68524121    -0.042457565  
   1578000   0.052930567   -0.80440031     0.041183182   -0.6838725     -0.025717581  
   1579000   0.053486869   -0.80178177     0.040938194   -0.68066503    -0.022047475  
   1580000   0.051477107   -0.80505023     0.042434041   -0.68545034    -0.020095793  
   1581000   0.052922881   -0.80399475     0.041965828   -0.68269582    -0.031890808  
   1582000   0.052980912   -0.80489709     0.043815548   -0.68166144    -0.048840932  
   1583000   0.051230777   -0.80479072     0.044794397   -0.68319974    -0.024521293  
   1584000   0.055009327   -0.80715092     0.040693285   -0.68399687    -0.028345447  
   1585000   0.052563419   -0.80373139     0.041691372   -0.68324576    -0.013095066  
   1586000   0.05300242    -0.80365574     0.043995573   -0.68020783    -0.018893719  
   1587000   0.053939528   -0.80508858     0.043321924   -0.68090957    -0.048657542  
   1588000   0.052773914   -0.80409767     0.044590397   -0.68039747     0.017136105  
   1589000   0.051617031   -0.80503365     0.043099976   -0.68455808    -0.020435286  
   1590000   0.052602623   -0.80397725     0.041274155   -0.68385007     0.0029961059 
   1591000   0.053159226   -0.80554227     0.043287664   -0.68256721    -0.03415556   
   1592000   0.051453382   -0.80651465     0.044238067   -0.6851463     -0.076198318  
   1593000   0.054848358   -0.80319228     0.044018668   -0.67695416    -0.042967263  
   1594000   0.053754267   -0.80456783     0.042976588   -0.68101186    -0.03527909   
   1595000   0.053005348   -0.80488541     0.04398458    -0.68144411    -0.024620975  
   1596000   0.054697237   -0.80554431     0.044671632   -0.67887975    -0.015990844  
   1597000   0.0548115     -0.80422252     0.043308185   -0.67875013     0.0020231111 
   1598000   0.054013591   -0.80375192     0.042906968   -0.67987684    -0.021026167  
   1599000   0.051463966   -0.80437857     0.042345334   -0.6848871     -0.0086984744 
   1600000   0.054254786   -0.804326       0.042675963   -0.68032037    -0.0002287069 
   1601000   0.053339374   -0.80525504     0.042452268   -0.68284533    -0.020742417  
   1602000   0.052059176   -0.80417439     0.041528695   -0.68460731    -0.01313687   
   1603000   0.053073075   -0.80734947     0.042040727   -0.68575049    -0.023859712  
   1604000   0.05294684    -0.80336319     0.04099412    -0.68300005    -0.00070400394
   1605000   0.053199872   -0.80587556     0.041979659   -0.68414758    -0.045247736  
   1606000   0.053351787   -0.80652887     0.042798938   -0.68375389    -0.038258837  
   1607000   0.054893479   -0.80455342     0.041634127   -0.6806322     -0.0017097225 
   1608000   0.05410991    -0.8028459      0.042782666   -0.67895074    -0.013717498  
   1609000   0.054243069   -0.80533532     0.044598865   -0.67942434    -0.0091803563 
   1610000   0.053563169   -0.80332923     0.044659622   -0.67837669    -0.032042685  
   1611000   0.05392868    -0.8046773      0.040964832   -0.68287164    -0.041086684  
   1612000   0.054901855   -0.80538592     0.042613107   -0.68047316    -0.021361087  
   1613000   0.052302747   -0.80605226     0.042183576   -0.68546518    -0.0060313027 
   1614000   0.052760496   -0.8055281      0.042610977   -0.68382744    -0.011369124  
   1615000   0.052900885   -0.80292276     0.042307145   -0.68131548    -0.01498607   
   1616000   0.051379243   -0.80476177     0.042584848   -0.68515778    -0.013465512  
   1617000   0.053951557   -0.8048341      0.041604648   -0.68235433    -0.040426071  
   1618000   0.051799206   -0.80353677     0.043606687   -0.6822814     -0.015109123  
   1619000   0.051071911   -0.80375709     0.042424916   -0.68477373    -0.0470939    
   1620000   0.054252964   -0.80454235     0.043473527   -0.67974188    -0.011004959  
   1621000   0.053832189   -0.80418763     0.041939307   -0.68155213     0.003055427  
   1622000   0.053159395   -0.80263276     0.044724532   -0.67822058    -0.03347733   
   1623000   0.054302109   -0.80275525     0.042059587   -0.67929505    -0.0076873599 
   1624000   0.053325562   -0.80432774     0.044473721   -0.67991728    -0.01829445   
   1625000   0.054049088   -0.80570459     0.042626771   -0.68205649    -0.04461336   
   1626000   0.052851011   -0.8046246      0.044873868   -0.68052536    -0.037311584  
   1627000   0.053181027   -0.80355481     0.044974273   -0.67886046    -0.010767842  
   1628000   0.051852248   -0.80167701     0.0443316     -0.67961722    -0.009623124  
   1629000   0.05221652    -0.80391243     0.043681235   -0.68195695    -0.02491535   
   1630000   0.053042136   -0.80424438     0.042699495   -0.68203301    -0.018506446  
   1631000   0.053727545   -0.80505714     0.043174723   -0.6813431     -0.021311181  
   1632000   0.054813789   -0.80494454     0.044114888   -0.67866202    -0.029316403  
   1633000   0.053201033   -0.803729       0.0439797     -0.67999924    -0.032043742  
   1634000   0.052320145   -0.804598       0.044219778   -0.68194863    -0.061006523  
   1635000   0.053052089   -0.80529004     0.046248407   -0.67951484    -0.041110871  
   1636000   0.053660143   -0.80312613     0.044725445   -0.6779624     -0.023724992  
   1637000   0.053498807   -0.80359862     0.042637227   -0.68076496    -0.019705785  
   1638000   0.050271254   -0.80311837     0.042102762   -0.68565737    -0.042301086  
   1639000   0.052815521   -0.80372928     0.042169104   -0.68238801    -0.036567981  
   1640000   0.05338955    -0.80547067     0.043885699   -0.68155231    -0.022574302  
   1641000   0.052457477   -0.80615562     0.044310577   -0.6832096     -0.034081607  
   1642000   0.052321908   -0.80306196     0.043915108   -0.68071462    -0.059665388  
   1643000   0.055872431   -0.80629355     0.04440646    -0.67813251    -0.038625693  
   1644000   0.051944994   -0.80448913     0.045761851   -0.68086006    -0.038580911  
   1645000   0.052131458   -0.80486734     0.044377074   -0.68234353    -0.046618351  
   1646000   0.053037795   -0.80536915     0.04269918    -0.68316461    -0.023654955  
   1647000   0.053661806   -0.80248451     0.041716069   -0.68032767    -0.016928816  
   1648000   0.053378853   -0.80312829     0.045340105   -0.67777157    -0.0089854039 
   1649000   0.052367661   -0.80445762     0.042643993   -0.68331282    -0.010674615  
   1650000   0.051570818   -0.80269913     0.045081381   -0.68031143    -0.045042996  
   1651000   0.053197248   -0.80585775     0.046290829   -0.67982253    -0.061567225  
   1652000   0.053973408   -0.80495363     0.045127242   -0.67891851    -0.013896046  
   1653000   0.053563422   -0.80478372     0.04340405    -0.68108637    -0.018644778  
   1654000   0.051239261   -0.80535911     0.042579948   -0.68596986    -0.042328078  
   1655000   0.052794366   -0.80570538     0.041173041   -0.68539188    -0.026618661  
   1656000   0.053696148   -0.80601911     0.042479404   -0.68304744     0.0061424478 
   1657000   0.055082611   -0.80633224     0.04488328    -0.67887835    -0.0030678222 
   1658000   0.052552625   -0.80263491     0.042998729   -0.6808581     -0.037619771  
   1659000   0.053079709   -0.80469018     0.043647396   -0.68147458    -0.039766469  
   1660000   0.053222843   -0.80385246     0.042561442   -0.68150826    -0.00014605347
   1661000   0.051965123   -0.80459288     0.04494266    -0.68175282    -0.035714989  
   1662000   0.051814403   -0.80348951     0.043027764   -0.68279029    -0.018510088  
   1663000   0.052033695   -0.80478356     0.043607808   -0.68317557    -0.051024193  
   1664000   0.052239621   -0.80582976     0.044041771   -0.68347911    -0.0085323737 
   1665000   0.05240143    -0.80390039     0.043001568   -0.68234739    -0.014037622  
   1666000   0.052173968   -0.80347887     0.043373644   -0.68189477    -0.02595107   
   1667000   0.052668182   -0.80464463     0.043723143   -0.68197019     0.0061849396 
   1668000   0.053355873   -0.80364827     0.042287573   -0.68137852    -0.018640874  
   1669000   0.05348117    -0.80382096     0.043687805   -0.67996316    -0.026296159  
   1670000   0.053216949   -0.80399154     0.043219943   -0.68099767     0.0065872555 
   1671000   0.052381471   -0.80556946     0.044378723   -0.68266922    -0.019468265  
   1672000   0.052282951   -0.80726553     0.04404863    -0.68484307    -0.036506664  
   1673000   0.051188426   -0.80601906     0.042903006   -0.68638295    -0.032466082  
   1674000   0.0538083     -0.80724128     0.043694111   -0.68288679    -0.02076362   
   1675000   0.053915726   -0.80552345     0.043964792   -0.68073725    -0.040882809  
   1676000   0.053063317   -0.80342673     0.042790583   -0.68109253    -0.0099562284 
   1677000   0.051799016   -0.80583753     0.043590788   -0.68459834    -0.05183892   
   1678000   0.054447413   -0.8049765      0.045850988   -0.67750709    -0.057651362  
   1679000   0.054320317   -0.80843016     0.045764205   -0.68123805    -0.059205526  
   1680000   0.052182946   -0.80593006     0.041963665   -0.68574248    -0.04884279   
   1681000   0.053616637   -0.80563454     0.044709251   -0.68055222    -0.022136696  
   1682000   0.052273508   -0.80470862     0.043996818   -0.68235212    -0.050824296  
   1683000   0.05226815    -0.80643934     0.043254171   -0.68483352    -0.034632835  
   1684000   0.053669219   -0.80509232     0.040780509   -0.68385992    -0.068525342  
   1685000   0.051335569   -0.80260368     0.042294257   -0.68335575    -0.017415925  
   1686000   0.052425204   -0.80566742     0.042783001   -0.68429734    -0.034780586  
   1687000   0.053819505   -0.80377292     0.043116752   -0.67997899    -0.02657184   
   1688000   0.052334731   -0.80404312     0.04237999    -0.68321168    -0.0016686568 
   1689000   0.052431853   -0.80634651     0.042506813   -0.68524266    -0.050561131  
   1690000   0.053070899   -0.80452844     0.040790344   -0.6841831     -0.033778092  
   1691000   0.05223031    -0.80710996     0.043186406   -0.68562864    -0.023730889  
   1692000   0.053159509   -0.80726542     0.043066729   -0.68451087    -0.020125807  
   1693000   0.054939752   -0.80460861     0.041725049   -0.6805271     -0.045433008  
   1694000   0.05339142    -0.80679904     0.043302651   -0.68346093    -0.025011489  
   1695000   0.052429795   -0.80720441     0.04104407    -0.68756638    -0.031821978  
   1696000   0.053139784   -0.80364118     0.042813413   -0.68116952    -0.012219073  
   1697000   0.053525857   -0.80398496     0.043926841   -0.67982113    -0.037436653  
   1698000   0.051902192   -0.80572424     0.043609516   -0.68431166    -0.02793546   
   1699000   0.0524963     -0.80529292     0.043336024   -0.68326325    -0.041422527  
   1700000   0.051559518   -0.80633865     0.042772583   -0.68627669    -0.018782663  
   1701000   0.053443722   -0.80458465     0.04207446    -0.68239632    -0.025314581  
   1702000   0.051109875   -0.80702987     0.040755578   -0.68965895    -0.022200153  
   1703000   0.051682446   -0.80623271     0.040436489   -0.68832257    -0.02730816   
   1704000   0.051104905   -0.80583906     0.04004843    -0.68918273    -0.020047226  
   1705000   0.052350437   -0.80618083     0.037919204   -0.68978663    -0.0014458481 
   1706000   0.052063543   -0.80624589     0.040631125   -0.68756984     0.0040819819 
   1707000   0.054010995   -0.80586403     0.041628826   -0.68327098    -0.030709566  
   1708000   0.052603797   -0.80607025     0.042452604   -0.68476286    -0.018588051  
   1709000   0.054561331   -0.80422868     0.041307035   -0.68113245    -0.01475474   
   1710000   0.052457225   -0.80704393     0.042340456   -0.6860684     -0.010989443  
   1711000   0.051145477   -0.80794991     0.040406142   -0.69087504    -0.0345777    
   1712000   0.050784458   -0.80616838     0.042654763   -0.68738607    -0.043149681  
   1713000   0.050136069   -0.80547479     0.04103939    -0.68927981    -0.039584734  
   1714000   0.053904875   -0.80339149     0.042404884   -0.68018146    -0.043711929  
   1715000   0.053803399   -0.80390734     0.042272144   -0.68098216    -0.0093147765 
   1716000   0.053742873   -0.80825797     0.041457892   -0.68623777    -0.01191528   
   1717000   0.054013758   -0.80313574     0.04352407    -0.6786433     -0.035189893  
   1718000   0.052108423   -0.80426906     0.04212764    -0.68402921    -0.012187709  
   1719000   0.050374847   -0.80385638     0.044467167   -0.68387569    -0.045997173  
   1720000   0.051808273   -0.80427164     0.042066271   -0.68454309    -0.0057211827 
   1721000   0.052713879   -0.80678006     0.042804862   -0.68495539     4.9710064e-05
   1722000   0.051462303   -0.80573477     0.038969302   -0.68962182    -0.045071117  
   1723000   0.052816208   -0.80827263     0.041548036   -0.6875514     -0.063211799  
   1724000   0.053339888   -0.80764171     0.040512064   -0.68717143    -0.02208902   
   1725000   0.05327857    -0.80506645     0.042699692   -0.68250046     0.00061407399
   1726000   0.055721579   -0.80404579     0.04230828    -0.67820906    -0.047369507  
   1727000   0.052820853   -0.80289515     0.043807113   -0.67990787    -0.0020902151 
   1728000   0.05309027    -0.8067373      0.04308879    -0.68406448    -0.02047813   
   1729000   0.053039291   -0.80706924     0.043046983   -0.68451465    -0.024032287  
   1730000   0.053683225   -0.80366532     0.041492615   -0.68169982    -0.036261394  
   1731000   0.054779749   -0.80768564     0.043090255   -0.68247877    -0.025180648  
   1732000   0.053098999   -0.80341683     0.041025521   -0.6827942     -0.039900037  
   1733000   0.053955968   -0.80544078     0.043915037   -0.68064401    -0.019197093  
   1734000   0.052059386   -0.80500429     0.043688034   -0.68327755    -0.033119679  
   1735000   0.052438242   -0.80484173     0.041815097   -0.68442002    -0.028321907  
   1736000   0.053000783   -0.80386229     0.040968482   -0.68344392    -0.0093126923 
   1737000   0.05159047    -0.80482868     0.041472051   -0.68602085    -0.021905321  
   1738000   0.053106563   -0.80384867     0.042947581   -0.68129264    -0.04113697   
   1739000   0.051751184   -0.80563278     0.043149541   -0.68490655    -0.017080437  
   1740000   0.051208626   -0.80672288     0.042705298   -0.6872542     -0.042324579  
   1741000   0.052579043   -0.80696661     0.043063415   -0.68508551    -0.046307843  
   1742000   0.054407009   -0.8059967      0.041537748   -0.68290109     0.0068035035 
   1743000   0.054425567   -0.80177364     0.042729683   -0.67745827    -0.047708725  
   1744000   0.052858576   -0.8049599      0.042772747   -0.68295044    -0.0057754297 
   1745000   0.052264675   -0.80958511     0.041827756   -0.68941092    -0.066238274  
   1746000   0.0536487     -0.80289781     0.042585328   -0.67989135    -0.032825646  
   1747000   0.054135531   -0.80297632     0.042339303   -0.6794861     -0.0042076361 
   1748000   0.052672461   -0.80597945     0.041437667   -0.68558406    -0.0080578051 
   1749000   0.05163567    -0.80509195     0.044289989   -0.68339842    -0.02486061   
   1750000   0.05329759    -0.80381837     0.041072367   -0.6828512     -0.0028509468 
   1751000   0.051607516   -0.80579325     0.039315757   -0.68911616     0.00035351447
   1752000   0.051502593   -0.80515096     0.042550523   -0.68539639    -0.023305728  
   1753000   0.050714937   -0.80455745     0.040984186   -0.68754994    -0.0015748769 
   1754000   0.05341004    -0.80492757     0.041756072   -0.68310813    -0.03842036   
   1755000   0.052430385   -0.80626469     0.042099791   -0.68557006    -0.033529901  
   1756000   0.051171654   -0.80433202     0.041768876   -0.68585519    -0.051069906  
   1757000   0.053925778   -0.80331115     0.041859705   -0.68061496    -0.025731628  
   1758000   0.052455856   -0.80520585     0.041648071   -0.68492476    -0.032930008  
   1759000   0.05437433    -0.80478773     0.041872619   -0.68140623    -0.01152179   
   1760000   0.04941861    -0.80617228     0.044426485   -0.6876657     -0.036835284  
   1761000   0.052949169   -0.80475616     0.041337453   -0.6840462     -0.022947361  
   1762000   0.054042309   -0.80483648     0.042355959   -0.68146936     0.005591785  
   1763000   0.053768419   -0.80503899     0.043812191   -0.6806262     -0.026528072  
   1764000   0.052249141   -0.80431793     0.042109281   -0.68388551    -0.023584848  
   1765000   0.053690604   -0.80304441     0.041590606   -0.68096986    -0.038189073  
   1766000   0.052038877   -0.80354333     0.040258214   -0.68527716    -0.040165686  
   1767000   0.054498902   -0.80549555     0.041240204   -0.68255973    -0.011471432  
   1768000   0.054369722   -0.80326978     0.041989825   -0.67977798     0.0045000545 
   1769000   0.053033682   -0.80575759     0.044305584   -0.68195281    -0.044980889  
   1770000   0.052602873   -0.80273707     0.042801034   -0.68108263    -0.029272097  
   1771000   0.053704782   -0.8048838      0.043361928   -0.68101667    -0.021903233  
   1772000   0.053739443   -0.8041701      0.042640013   -0.68097293    -0.026608992  
   1773000   0.052464093   -0.80326194     0.042562482   -0.68205409    -0.023595158  
   1774000   0.053925759   -0.80585242     0.043947904   -0.68106806    -0.02386016   
   1775000   0.053605024   -0.80444543     0.042292999   -0.68179678    -0.034607027  
   1776000   0.052917212   -0.80436347     0.04320789    -0.68183097    -0.040235711  
   1777000   0.052873057   -0.80526102     0.040965382   -0.68503722    -0.014753048  
   1778000   0.052631125   -0.80403692     0.041865965   -0.6832752     -0.0063145905 
   1779000   0.053713697   -0.80264717     0.042155238   -0.67997336    -0.035881875  
   1780000   0.05384939    -0.8059275      0.043602763   -0.68160276    -0.04398601   
   1781000   0.051945562   -0.80473886     0.043393337   -0.68347745    -0.036260533  
   1782000   0.052787126   -0.80364528     0.042348642   -0.68216704    -0.013717513  
   1783000   0.05327692    -0.80486454     0.040861193   -0.68413953    -0.015289976  
   1784000   0.050449746   -0.8041032      0.042877375   -0.68560003    -0.026409589  
   1785000   0.052128393   -0.80632828     0.04290647    -0.68527966    -0.014608249  
   1786000   0.052292152   -0.80319706     0.042487686   -0.68232176    -0.014956713  
   1787000   0.053328608   -0.8055116      0.041310274   -0.68426002    -0.034509707  
   1788000   0.053671209   -0.80360606     0.042697044   -0.68045414    -0.031233043  
   1789000   0.05398852    -0.80458001     0.044830104   -0.67881938    -0.059887927  
   1790000   0.053388554   -0.80407264     0.040491961   -0.68354951    -0.021943025  
   1791000   0.050774777   -0.80349183     0.041483823   -0.68589498    -0.020450167  
   1792000   0.052301096   -0.80340551     0.043078036   -0.68192644    -0.020283106  
   1793000   0.053169252   -0.80333642     0.043675608   -0.67995839    -0.0046544093 
   1794000   0.054014469   -0.80305978     0.041673022   -0.68041733    -0.0071978355 
   1795000   0.053650452   -0.80187479     0.042317826   -0.67913321    -0.016118582  
   1796000   0.053072622   -0.8059881      0.043228194   -0.68320233    -0.024002108  
   1797000   0.052645406   -0.80576871     0.043137725   -0.68371382    -0.012435009  
   1798000   0.053629987   -0.79985531     0.04262376    -0.67683847    -0.037556322  
   1799000   0.052516935   -0.80334655     0.042420708   -0.68220127    -0.02469917   
   1800000   0.052127903   -0.80441008     0.043125857   -0.68314281    -0.032402423  
   1801000   0.054306546   -0.80476489     0.044260231   -0.6790974     -0.037392392  
   1802000   0.053758719   -0.8040717      0.042234571   -0.68125107    -0.002713798  
   1803000   0.05293647    -0.80624941     0.043503172   -0.68339276    -0.039910086  
   1804000   0.053538728   -0.80327486     0.040494208   -0.68252437    -0.019708381  
   1805000   0.053330003   -0.80406257     0.042617471   -0.68150171    -0.017389148  
   1806000   0.052022936   -0.80294586     0.041838224   -0.68312358    -0.036933007  
   1807000   0.049691334   -0.80475793     0.043625588   -0.68664343    -0.044448304  
   1808000   0.050020498   -0.80438548     0.039572609   -0.68983053    -0.026090157  
   1809000   0.053744086   -0.80481077     0.042674298   -0.68157235    -0.029589837  
   1810000   0.053610433   -0.80463514     0.04381954    -0.68045183    -0.014593745  
   1811000   0.052354538   -0.80421522     0.04531804    -0.68041603    -0.024732598  
   1812000   0.053474172   -0.80477481     0.041068641   -0.68354666    -0.017268263  
   1813000   0.053662147   -0.80407234     0.042097491   -0.68153356    -0.010358516  
   1814000   0.053163335   -0.80349178     0.043417648   -0.68038058    -0.0097988381 
   1815000   0.054218462   -0.8055511      0.041714502   -0.68256138    -0.030326654  
   1816000   0.053079613   -0.80402853     0.04390181    -0.68055867    -0.030547814  
   1817000   0.051280966   -0.80279405     0.042228491   -0.68369374    -0.017615383  
   1818000   0.05380682    -0.803051       0.042201065   -0.68019177    -0.0022296468 
   1819000   0.053206608   -0.80274604     0.042995107   -0.67999251    -0.0051253812 
   1820000   0.052897217   -0.80259382     0.042271528   -0.68102766    -0.0060922114 
   1821000   0.054614746   -0.80374605     0.043482455   -0.67839432    -0.029075621  
   1822000   0.052502344   -0.80489366     0.045037143   -0.68115381     0.0035169181 
   1823000   0.051151413   -0.80571586     0.040880295   -0.68815795    -0.0051100604 
   1824000   0.052677987   -0.80497336     0.041363489   -0.68464387    -0.013424464  
   1825000   0.053984252   -0.80829017     0.042684301   -0.68468173    -0.019465759  
   1826000   0.052015941   -0.80653285     0.041901749   -0.68665752    -0.0028828136 
   1827000   0.050268766   -0.80641992     0.041815891   -0.68924953    -0.028766186  
   1828000   0.053502744   -0.80780895     0.04095426    -0.68665235    -0.023566381  
   1829000   0.053988238   -0.80511855     0.041598113   -0.68259032    -0.011233118  
   1830000   0.053897434   -0.80563994     0.0396618     -0.68518415    -0.042997193  
   1831000   0.053200769   -0.80502013     0.041447027   -0.68382343    -0.056015784  
   1832000   0.052697311   -0.80407243     0.043207598   -0.68186986    -0.019260067  
   1833000   0.053064146   -0.80586697     0.040700422   -0.68562168    -0.027076806  
   1834000   0.053779578   -0.80362009     0.043468115   -0.67953466    -0.037156735  
   1835000   0.052713075   -0.80406282     0.04295209    -0.68209213    -0.041474864  
   1836000   0.051930857   -0.80632686     0.042610572   -0.68587026    -0.020111933  
   1837000   0.052163068   -0.80536666     0.045033854   -0.68213868    -0.022701742  
   1838000   0.055360043   -0.80460718     0.043110422   -0.67851027     0.0030937802 
   1839000   0.05573105    -0.80775463     0.043282831   -0.68092916    -0.018455845  
   1840000   0.053321795   -0.80821409     0.044055443   -0.68422755    -0.010658467  
   1841000   0.054007304   -0.80975477     0.0448047     -0.68399138    -0.0378957    
   1842000   0.052436434   -0.80599896     0.043001093   -0.68439396    -0.0097816614 
   1843000   0.053887895   -0.8066327      0.041819276   -0.68403373    -0.03003087   
   1844000   0.053510552   -0.80788359     0.041161301   -0.68650824    -0.036878199  
   1845000   0.050867476   -0.8050137      0.040922161   -0.68783955    -0.033655666  
   1846000   0.051918255   -0.80516544     0.040744383   -0.68659392    -0.018351036  
   1847000   0.055007694   -0.80824539     0.042098894   -0.68368819    -0.034363683  
   1848000   0.053015753   -0.80852651     0.043011599   -0.68604259     0.0056066761 
   1849000   0.052472139   -0.80640445     0.042409585   -0.68533744    -0.036898131  
   1850000   0.053516568   -0.8048922      0.041494774   -0.68317437    -0.0054253441 
   1851000   0.052929716   -0.80693327     0.044716109   -0.68287381    -0.016587412  
   1852000   0.050831973   -0.80475313     0.041235111   -0.68731925    -0.019891353  
   1853000   0.05073276    -0.8069274      0.043494338   -0.68738302     0.0070332071 
   1854000   0.052858585   -0.80445967     0.042421127   -0.68280181    -0.003391498  
   1855000   0.050566172   -0.80716748     0.041033473   -0.69033368    -0.050316867  
   1856000   0.051428177   -0.80838872     0.041547614   -0.68974861    -0.031054141  
   1857000   0.052372133   -0.80621912     0.039958473   -0.68775313    -0.033400939  
   1858000   0.052638368   -0.80518933     0.041254458   -0.68502826     0.0038872206 
   1859000   0.054162029   -0.8044503      0.042406615   -0.68085305    -0.025781361  
   1860000   0.051852528   -0.80426168     0.041980536   -0.68455253    -0.017094828  
   1861000   0.051522357   -0.80694882     0.041272401   -0.68844274    -0.0022690607 
   1862000   0.054345654   -0.80440477     0.041836626   -0.68110225    -0.035953313  
   1863000   0.051652273   -0.80377445     0.044318234   -0.6820278     -0.051905783  
   1864000   0.05400847    -0.80794963     0.043663685   -0.68332551    -0.023663259  
   1865000   0.054796981   -0.80582228     0.041532323   -0.68214751    -0.022736546  
   1866000   0.055375418   -0.80592201     0.040055522   -0.68285695    -0.009695126  
   1867000   0.05307325    -0.80502253     0.042938548   -0.68252547    -0.013121801  
   1868000   0.053658923   -0.80915133     0.041710457   -0.68700442    -0.015194811  
   1869000   0.053404432   -0.80881504     0.043178334   -0.68558174    -0.0034320608 
   1870000   0.052139553   -0.8071974      0.043295363   -0.68574316    -0.040779482  
   1871000   0.051840784   -0.8054142      0.040435592   -0.6872676     -0.027756541  
   1872000   0.051353565   -0.80713392     0.041351533   -0.68880174    -0.045184073  
   1873000   0.051099426   -0.80413244     0.040618733   -0.68691402    -0.039059958  
   1874000   0.049864528   -0.80499978     0.046104105   -0.68414714    -0.04366554   
   1875000   0.0544911     -0.80652981     0.042736333   -0.68210956    -0.021479552  
   1876000   0.05192998    -0.8041577      0.044336168   -0.68197682    -0.021221007  
   1877000   0.056428579   -0.80652748     0.042424262   -0.67951495    -0.033572235  
   1878000   0.053479579   -0.80643071     0.042972075   -0.68329102    -0.0023404086 
   1879000   0.053342846   -0.80624201     0.041795337   -0.68448403    -0.039369083  
   1880000   0.053001299   -0.80545779     0.042058381   -0.68394875    -0.035850415  
   1881000   0.052310865   -0.8083513      0.043352665   -0.68658296    -0.030276293  
   1882000   0.052939745   -0.80735216     0.043449046   -0.68454472    -0.027771251  
   1883000   0.052795153   -0.80726338     0.041011858   -0.68710989    -0.03359652   
   1884000   0.052666846   -0.80844921     0.041561407   -0.6879385     -0.023717031  
   1885000   0.052248926   -0.8063594      0.041507258   -0.68652931    -0.046256998  
   1886000   0.053703243   -0.81030934     0.040877868   -0.68892858    -0.019029505  
   1887000   0.053878405   -0.80670516     0.04332402    -0.68261568    -0.022673956  
   1888000   0.056077136   -0.80461365     0.042453046   -0.67809917    -0.029174438  
   1889000   0.054413552   -0.80302577     0.043831786   -0.67762632    -0.035962573  
   1890000   0.054569841   -0.80870907     0.042512805   -0.68439432    -0.040176025  
   1891000   0.052695541   -0.80575502     0.039737883   -0.68702482    -0.023726837  
   1892000   0.051183218   -0.80356394     0.041124222   -0.68571443    -0.03012076   
   1893000   0.054015125   -0.80388638     0.04161826    -0.68129771    -0.040344716  
   1894000   0.052706109   -0.80456185     0.041177016   -0.68437668    -0.057160202  
   1895000   0.053959402   -0.80779557     0.042040013   -0.68486867    -0.013045722  
   1896000   0.054330043   -0.80412287     0.043671012   -0.67900937    -0.013691586  
   1897000   0.053261931   -0.80572667     0.042621764   -0.68326355    -0.010707529  
   1898000   0.054757489   -0.8055666      0.043550671   -0.67993269    -0.012551218  
   1899000   0.052749611   -0.8053025      0.040459702   -0.68576943    -0.043127252  
   1900000   0.053201912   -0.80768647     0.040620179   -0.68731491    -0.012358242  
   1901000   0.052922826   -0.80438785     0.04250586    -0.68254896    -0.011039389  
   1902000   0.053866831   -0.80481119     0.04237048    -0.6816926     -3.1220192e-05
   1903000   0.055070737   -0.80721905     0.044777155   -0.67988908    -0.036244652  
   1904000   0.053636717   -0.80496293     0.042707678   -0.68185208    -0.040745311  
   1905000   0.055359005   -0.80711976     0.043206211   -0.68092862    -0.025164937  
   1906000   0.054136072   -0.80771954     0.042917563   -0.68365026    -0.024632592  
   1907000   0.053965662   -0.80933355     0.042165095   -0.68627218    -0.02477032   
   1908000   0.05487585    -0.80762413     0.042229151   -0.68313431    -0.048096395  
   1909000   0.051353634   -0.80874485     0.041727034   -0.69003707    -0.076162365  
   1910000   0.052447193   -0.80714396     0.042702298   -0.68582163    -0.029409938  
   1911000   0.053844251   -0.80835724     0.043126782   -0.68451619    -0.034332938  
   1912000   0.0537394     -0.80671872     0.041094015   -0.68506762    -0.04898557   
   1913000   0.053960772   -0.80523274     0.040588501   -0.6837553     -0.030703201  
   1914000   0.052885177   -0.80908354     0.042822365   -0.68698459    -0.032021797  
   1915000   0.05166578    -0.80784303     0.043581916   -0.68681244    -0.035602782  
   1916000   0.053296874   -0.80628198     0.043658804   -0.68272945    -0.0090716009 
   1917000   0.053410743   -0.80693432     0.041113698   -0.68575619    -0.054093925  
   1918000   0.051811507   -0.80610402     0.042159881   -0.68627702    -0.032929227  
   1919000   0.052655572   -0.80764184     0.042877166   -0.68583228    -0.040031397  
   1920000   0.051648911   -0.80340379     0.039509059   -0.68647134    -0.023992879  
   1921000   0.052341546   -0.80711378     0.041285046   -0.68736707    -0.022384581  
   1922000   0.051476125   -0.80571326     0.041567582   -0.6869813     -0.023115544  
   1923000   0.051700744   -0.80444913     0.043245143   -0.6837029     -0.051629644  
   1924000   0.053615536   -0.80507083     0.041923565   -0.68277584    -0.0064585934 
   1925000   0.052723215   -0.80561963     0.041745549   -0.68484028    -0.036266711  
   1926000   0.052632042   -0.80717433     0.043658663   -0.68461854    -0.063988082  
   1927000   0.053345011   -0.8063948      0.043255175   -0.68317374    -0.022253828  
   1928000   0.052770735   -0.80727028     0.043177434   -0.68498781    -0.054097126  
   1929000   0.053346381   -0.8053199      0.042567656   -0.6827843     -0.027201547  
   1930000   0.05376391    -0.80562196     0.046215382   -0.67881274    -0.018661408  
   1931000   0.05462619    -0.8063682      0.045563358   -0.67891842    -0.053674761  
   1932000   0.054233931   -0.80499685     0.042145442   -0.68155299    -0.015293201  
   1933000   0.053454702   -0.80597422     0.044125843   -0.68171805    -0.035827852  
   1934000   0.051812656   -0.80524954     0.043368997   -0.6842117     -0.029829501  
   1935000   0.054920925   -0.80868137     0.044164489   -0.68218864    -0.03806781   
   1936000   0.0512528     -0.8059132      0.043214147   -0.68586945    -0.041241498  
   1937000   0.051193398   -0.80746006     0.041443732   -0.68927578    -0.038759064  
   1938000   0.052541268   -0.8071911      0.041167488   -0.68726256    -0.027066731  
   1939000   0.052419414   -0.80967756     0.04268821    -0.68841096    -0.040741229  
   1940000   0.05356983    -0.80671352     0.04331536    -0.68309526    -0.049325129  
   1941000   0.054090959   -0.80819911     0.042925291   -0.68418972    -0.035054858  
   1942000   0.054001742   -0.80784126     0.042689052   -0.68420186    -0.042926922  
   1943000   0.05430431    -0.80855654     0.043753387   -0.68339925    -0.041160226  
   1944000   0.052327781   -0.80740824     0.045495343   -0.68347187    -0.01833794   
   1945000   0.054496798   -0.80546485     0.039932128   -0.68384026    -0.071007281  
   1946000   0.052136536   -0.80860504     0.040360746   -0.69008995    -0.043574815  
   1947000   0.050803489   -0.80421191     0.041832266   -0.68622357    -0.0057287675 
   1948000   0.051729277   -0.8071534      0.041417852   -0.6881917     -0.054284804  
   1949000   0.052550186   -0.80740121     0.042346129   -0.68628066    -0.041813305  
   1950000   0.05290127    -0.80728717     0.04357087    -0.68441559    -0.063162111  
   1951000   0.052392393   -0.80826715     0.043064515   -0.68666475    -0.035089601  
   1952000   0.051768586   -0.80645578     0.042118883   -0.68673412    -0.081819527  
   1953000   0.051658391   -0.80828638     0.042408006   -0.68844078    -0.074383749  
   1954000   0.051505018   -0.80699648     0.043846337   -0.68594246    -0.044341067  
   1955000   0.052241896   -0.80809215     0.041750302   -0.68802956    -0.06011253   
   1956000   0.051454272   -0.80383257     0.044474868   -0.68222609    -0.0028045209 
   1957000   0.052105744   -0.80804949     0.045666694   -0.68427461    -0.030968771  
   1958000   0.052822217   -0.80743631     0.043979669   -0.68427444    -0.048654298  
   1959000   0.054800508   -0.80692632     0.04521695    -0.67956164    -0.03431008   
   1960000   0.05368979    -0.80601812     0.041563845   -0.68397155    -0.0115742    
   1961000   0.053644632   -0.80794389     0.046293101   -0.68123575    -0.038997371  
   1962000   0.054005855   -0.8039513      0.043493133   -0.67950164    -0.033762255  
   1963000   0.055368444   -0.80784651     0.043248633   -0.68159879    -0.05876512   
   1964000   0.055182108   -0.8066864      0.043273326   -0.68069332    -0.044358152  
   1965000   0.053646412   -0.80954191     0.041868316   -0.68725589    -0.085048109  
   1966000   0.052738292   -0.80807426     0.041426037   -0.68759182    -0.020288316  
   1967000   0.053616173   -0.80704452     0.043364337   -0.68330781    -0.012447396  
   1968000   0.054904336   -0.80334252     0.044464232   -0.67657492    -0.081192664  
   1969000   0.052107264   -0.80356717     0.043627341   -0.68182935    -0.056275097  
   1970000   0.051773741   -0.80746513     0.043361863   -0.68649275    -0.0232999    
   1971000   0.052781206   -0.80650757     0.042630774   -0.68475607    -0.064619506  
   1972000   0.052770914   -0.80706952     0.043630634   -0.68433358    -0.068852476  
   1973000   0.052236031   -0.80633218     0.046380893   -0.68164779    -0.038027713  
   1974000   0.053101755   -0.80639227     0.044648356   -0.68214267    -0.027409865  
   1975000   0.052592128   -0.80292438     0.044032747   -0.68005433    -0.0040436471 
   1976000   0.052432023   -0.80754796     0.042833728   -0.68611694    -0.063485152  
   1977000   0.052654797   -0.80561814     0.044037287   -0.68264961    -0.045377818  
   1978000   0.051436535   -0.80516585     0.042067882   -0.68599295    -0.023813752  
   1979000   0.053541968   -0.8087255      0.042723268   -0.6857411     -0.034347001  
   1980000   0.053928581   -0.80780504     0.042361033   -0.68460332    -0.025283011  
   1981000   0.052200112   -0.80293551     0.044808544   -0.67987731    -0.071655076  
   1982000   0.053028218   -0.80621805     0.043513863   -0.68321318    -0.029461377  
   1983000   0.052668585   -0.80820991     0.043976563   -0.68528144    -0.036876137  
   1984000   0.052293409   -0.80830788     0.045133933   -0.68478444    -0.057658033  
   1985000   0.051959562   -0.80829732     0.04217244    -0.68823582    -0.022823103  
   1986000   0.051722232   -0.80990562     0.044484046   -0.68788828    -0.018064995  
   1987000   0.051836662   -0.80554741     0.043454802   -0.68438778    -0.0041079099 
   1988000   0.05125419    -0.80765627     0.043615589   -0.687209      -0.024075812  
   1989000   0.051548472   -0.81039905     0.041420266   -0.69170596    -0.022379037  
   1990000   0.050887603   -0.80585648     0.040240083   -0.68933424    -0.046153268  
   1991000   0.052589235   -0.8042683      0.042449049   -0.68298629    -0.024770314  
   1992000   0.053679231   -0.80711515     0.043419143   -0.68322911     0.0022522321 
   1993000   0.053650855   -0.80939509     0.044394742   -0.68457599    -0.025953618  
   1994000   0.054023625   -0.80606393     0.041924985   -0.68315579    -0.034765603  
   1995000   0.052676784   -0.8082816      0.041950497   -0.6873669     -0.036590534  
   1996000   0.052719773   -0.80315776     0.041103622   -0.68302549    -0.033001313  
   1997000   0.054238158   -0.8086943      0.044990882   -0.68239867    -0.016398025  
   1998000   0.054272307   -0.80631718     0.043527048   -0.68143419    -0.024772231  
   1999000   0.054387018   -0.80772655     0.04107827    -0.68512038    -0.043316936  
   2000000   0.051771676   -0.80835391     0.042385888   -0.68836061    -0.041968249  
   2001000   0.054084789   -0.80999905     0.042808664   -0.68611554    -0.03814122   
   2002000   0.053639502   -0.80732473     0.041966227   -0.68495115    -0.015637966  
   2003000   0.052203105   -0.80448878     0.043912952   -0.68232169    -0.050114983  
   2004000   0.055480334   -0.80861463     0.043290738   -0.68215708    -0.030141753  
   2005000   0.053711908   -0.80695818     0.045236865   -0.68120543    -0.0067810463 
   2006000   0.051597631   -0.80752576     0.041843032   -0.68833622    -0.01640632   
   2007000   0.052425418   -0.80673073     0.043458795   -0.68468454    -0.059346342  
   2008000   0.05445758    -0.8070972      0.043101279   -0.68236225    -0.034797419  
   2009000   0.053526987   -0.80779314     0.041909567   -0.68564489    -0.025377179  
   2010000   0.055139215   -0.80728206     0.04296398    -0.68166262    -0.029373308  
   2011000   0.052833438   -0.80689756     0.042964566   -0.68473396    -0.03559379   
   2012000   0.052385458   -0.80752367     0.042239373   -0.6867568     -0.040273833  
   2013000   0.051912992   -0.80854853     0.041622978   -0.6891063     -0.023259357  
   2014000   0.052280841   -0.80552748     0.041446523   -0.68571029    -0.026590109  
   2015000   0.053984697   -0.8071871      0.043654624   -0.68260768    -0.041903241  
   2016000   0.053580769   -0.80684057     0.043183628   -0.68333764    -0.018006908  
   2017000   0.052943653   -0.80540345     0.043621007   -0.6824182     -0.04471213   
   2018000   0.052231454   -0.8070726      0.042957813   -0.68581815    -0.059217904  
   2019000   0.052121174   -0.81078598     0.04191301    -0.69074165    -0.045324611  
   2020000   0.05239356    -0.80698374     0.042030268   -0.68641383    -0.013849765  
   2021000   0.053751222   -0.80725728     0.042404645   -0.68427782     0.003901153  
   2022000   0.05202607    -0.81002229     0.04461878    -0.68741476    -0.017221158  
   2023000   0.052771445   -0.80703368     0.042704385   -0.6852232     -0.033129108  
   2024000   0.051736553   -0.80727539     0.044163764   -0.68555686    -0.0081894758 
   2025000   0.054217662   -0.80883208     0.044019638   -0.68353842    -0.033279061  
   2026000   0.05344849    -0.80632416     0.042059123   -0.68414402    -0.038600353  
   2027000   0.051370713   -0.80788835     0.039252782   -0.69162921    -0.042466976  
   2028000   0.053694864   -0.81111971     0.043967022   -0.68666236    -0.034064104  
   2029000   0.052086506   -0.80614758     0.043250134   -0.68481809    -0.035185823  
   2030000   0.051306092   -0.80656249     0.044105458   -0.68554755    -0.0011629077 
   2031000   0.051647112   -0.80699635     0.046631335   -0.68294433    -0.052328888  
   2032000   0.052870889   -0.80580258     0.045340895   -0.68120652    -0.045994034  
   2033000   0.053583884   -0.80622566     0.044809031   -0.68109266    -0.024501217  
   2034000   0.052086093   -0.80702115     0.045579842   -0.68336258    -0.054762208  
   2035000   0.053626535   -0.80393732     0.041817509   -0.68173191    -0.034204043  
   2036000   0.051287734   -0.80600201     0.043057903   -0.68606214    -0.0045542624 
   2037000   0.052501976   -0.80699025     0.04139147    -0.68689662    -0.027483412  
   2038000   0.052263057   -0.80672459     0.043008804   -0.68537177    -0.050358527  
   2039000   0.053020354   -0.80802403     0.04506542    -0.68347939    -0.053369794  
   2040000   0.05216449    -0.80676392     0.041679171   -0.6868885     -0.025150247  
   2041000   0.051634811   -0.80687182     0.043609126   -0.68586045    -0.058806394  
   2042000   0.05359752    -0.80712419     0.040853472   -0.68592631    -0.0088680041 
   2043000   0.053391813   -0.80951417     0.042190088   -0.68728803    -0.037876682  
   2044000   0.052998839   -0.80985642     0.043734585   -0.68667486    -0.021732606  
   2045000   0.053515779   -0.80794254     0.04307362    -0.68464704    -0.034468803  
   2046000   0.054669413   -0.80745429     0.044964679   -0.68053839    -0.055336907  
   2047000   0.054646306   -0.80890267     0.04330104    -0.68368505    -0.020409619  
   2048000   0.054044557   -0.80379943     0.045364429   -0.67742047    -0.0051913143 
   2049000   0.053196891   -0.80769023     0.042988303   -0.68495807    -0.028693948  
   2050000   0.052384598   -0.80903899     0.045728425   -0.68478436    -0.042577429  
   2051000   0.052929436   -0.80839408     0.04492184    -0.68412931    -0.04379772   
   2052000   0.051820757   -0.80950995     0.047066933   -0.68476203    -0.041826169  
   2053000   0.051962571   -0.80675596     0.043367805   -0.68549459    -0.029363241  
   2054000   0.053966242   -0.80907086     0.044642516   -0.6835312     -0.024547256  
   2055000   0.055179696   -0.80713987     0.043581857   -0.68084187     0.019901216  
   2056000   0.053544172   -0.80584936     0.042828521   -0.6827564     -0.045961461  
   2057000   0.051266797   -0.80596715     0.044597599   -0.68451896    -0.011137165  
   2058000   0.051915812   -0.80409275     0.044008604   -0.68226067    -0.012522139  
   2059000   0.053751167   -0.80767777     0.047848871   -0.67925416    -0.030451921  
   2060000   0.05035422    -0.80685925     0.046420992   -0.68495566    -0.044711303  
   2061000   0.053660497   -0.80761036     0.043305536   -0.68386601    -0.015977037  
   2062000   0.053864833   -0.80986984     0.043710342   -0.68541438    -0.0072237086 
   2063000   0.051787136   -0.80691568     0.046036004   -0.68324908    -0.04903309   
   2064000   0.056061122   -0.80600846     0.04286616    -0.67910487    -0.045577898  
   2065000   0.05536544    -0.80169544     0.040566587   -0.67813427    -0.031418556  
   2066000   0.054518931   -0.80861948     0.044707094   -0.68218675    -0.03236088   
   2067000   0.053628706   -0.80816466     0.045036303   -0.68273719    -0.048344349  
   2068000   0.054737806   -0.80832025     0.044110847   -0.68215567     0.001282948  
   2069000   0.053220922   -0.80968118     0.046405154   -0.68349615    -0.026362232  
   2070000   0.053036014   -0.8089569      0.046487765   -0.68296644    -0.048016433  
   2071000   0.05181627    -0.80772911     0.045334008   -0.68472084    -0.057876065  
   2072000   0.053242954   -0.80692008     0.042939541   -0.68416763    -0.050937064  
   2073000   0.054450282   -0.80955207     0.040643518   -0.68728583    -0.014483353  
   2074000   0.052375236   -0.80759679     0.045134143   -0.68395048    -0.013311093  
   2075000   0.053796923   -0.80788198     0.043435535   -0.68380312    -0.032328114  
   2076000   0.052395105   -0.80618618     0.045777435   -0.68186679    -0.023845287  
   2077000   0.053863448   -0.80505537     0.042914967   -0.68139736    -0.020263535  
   2078000   0.052588898   -0.80803058     0.045095873   -0.68410225    -0.0020554737 
   2079000   0.052058239   -0.80854251     0.044723429   -0.68578211    -0.046284948  
   2080000   0.054029274   -0.80543636     0.044631038   -0.6798137     -0.027181123  
   2081000   0.054021307   -0.80844776     0.044155787   -0.68331229    -0.035374835  
   2082000   0.052772105   -0.80590586     0.042880991   -0.68391778    -0.050417713  
   2083000   0.052502124   -0.80778662     0.04251793    -0.68656631    -0.019751818  
   2084000   0.051201045   -0.80626694     0.044482549   -0.68503237    -0.031935293  
   2085000   0.05183148    -0.80925305     0.043383063   -0.68817292    -0.055535744  
   2086000   0.05336936    -0.80757595     0.042626597   -0.68494696    -0.054746546  
   2087000   0.05481491    -0.80924893     0.04358191    -0.6834977     -0.004053886  
   2088000   0.054519321   -0.80545557     0.044424654   -0.6793047     -0.057173659  
   2089000   0.053154055   -0.8104076      0.045402388   -0.68532557    -0.035179163  
   2090000   0.05200158    -0.80967348     0.044985498   -0.68673594    -0.05866235   
   2091000   0.053629452   -0.80955159     0.041634037   -0.68752527    -0.035378237  
   2092000   0.053082308   -0.80951357     0.043305687   -0.68663579    -0.031545128  
   2093000   0.052047125   -0.80650992     0.043794835   -0.68469476    -0.047194874  
   2094000   0.053619248   -0.80956186     0.044581187   -0.68460369    -0.038865072  
   2095000   0.052653606   -0.80692715     0.044212605   -0.68378509    -0.053670659  
   2096000   0.053114685   -0.80638824     0.04245809    -0.68430952    -0.035446238  
   2097000   0.052408868   -0.80895688     0.042499606   -0.68789469    -0.033245799  
   2098000   0.052983703   -0.80740873     0.041860374   -0.68612407    -0.028966415  
   2099000   0.053974241   -0.80851783     0.042977145   -0.68463155    -0.049889233  
   2100000   0.054616412   -0.80669979     0.043873274   -0.68095475    -0.096068231  
   2101000   0.052903912   -0.80664227     0.046263881   -0.68107372    -0.02452567   
   2102000   0.054145756   -0.80853126     0.045303078   -0.68206194    -0.05176492   
   2103000   0.055061631   -0.80919354     0.047487039   -0.67916734    -0.026757927  
   2104000   0.053390863   -0.80925885     0.044295347   -0.68492888    -0.050320787  
   2105000   0.052547657   -0.81016597     0.045107004   -0.68628833    -0.032735963  
   2106000   0.051968812   -0.80877137     0.043928896   -0.68693955    -0.052161618  
   2107000   0.053738349   -0.8085035      0.044528798   -0.68341919    -0.024962303  
   2108000   0.053815193   -0.80983044     0.042162927   -0.6869968     -0.082753063  
   2109000   0.052857796   -0.80906802     0.044630594   -0.68520188    -0.05671121   
   2110000   0.051728676   -0.80732653     0.043424358   -0.68635922    -0.042728499  
   2111000   0.053787446   -0.80831656     0.043548595   -0.68413885    -0.065942481  
   2112000   0.051880616   -0.80752729     0.042392447   -0.68736412    -0.060476339  
   2113000   0.053439771   -0.81232086     0.043346128   -0.6888668     -0.041010194  
   2114000   0.054276424   -0.81304734     0.045501139   -0.68618409    -0.047177317  
   2115000   0.05502335    -0.80951206     0.042904749   -0.68412553    -0.057744925  
   2116000   0.052472105   -0.80821625     0.042724264   -0.68683461    -0.040206685  
   2117000   0.052490893   -0.8038073      0.042383617   -0.68273814    -0.020333481  
   2118000   0.052959789   -0.80790501     0.044691565   -0.68382502    -0.024299309  
   2119000   0.055147048   -0.80585487     0.04522607    -0.67796159    -0.04202985   
   2120000   0.053511053   -0.80753287     0.044085494   -0.68323259    -0.027056797  
   2121000   0.053598004   -0.80648994     0.046130206   -0.68001459    -0.056847997  
   2122000   0.055325727   -0.80844106     0.044813783   -0.68069223    -0.022356359  
   2123000   0.053944596   -0.80870709     0.0455681     -0.6822743     -0.014061893  
   2124000   0.052094637   -0.80905361     0.044447638   -0.68651443    -0.076035036  
   2125000   0.051797931   -0.80761358     0.045977185   -0.68398962    -0.019427867  
   2126000   0.053984962   -0.80922457     0.043206709   -0.68509267    -0.034366923  
   2127000   0.053381156   -0.81010046     0.044461564   -0.68561882    -0.030273966  
   2128000   0.053725058   -0.80346684     0.042816168   -0.68011508    -0.054233884  
   2129000   0.052946126   -0.80801566     0.04310451    -0.6855432     -0.034995312  
   2130000   0.054539065   -0.80590839     0.043337537   -0.68081504    -0.039791044  
   2131000   0.053285221   -0.81104755     0.042793681   -0.6883776     -0.022881001  
   2132000   0.050909275   -0.80866883     0.045950279   -0.6864039     -0.027561195  
   2133000   0.052917594   -0.80892406     0.045796073   -0.68380281    -0.020188662  
   2134000   0.053867664   -0.80638839     0.043700527   -0.6819385     -0.062018101  
   2135000   0.053055312   -0.80804028     0.043556489   -0.68495217    -0.022614888  
   2136000   0.053178808   -0.80719974     0.042302629   -0.68518036    -0.05207323   
   2137000   0.054482417   -0.81006435     0.043487502   -0.68490595    -0.029875754  
   2138000   0.052417002   -0.80950844     0.044160267   -0.68677339    -0.044116381  
   2139000   0.052735009   -0.80830639     0.04296658    -0.68628833    -0.053525703  
   2140000   0.052323813   -0.80790353     0.042417404   -0.68705104     0.002441365  
   2141000   0.053173691   -0.8074166      0.041449775   -0.68625774    -0.014935595  
   2142000   0.052013303   -0.80920907     0.042304096   -0.68893536    -0.048580023  
   2143000   0.051401195   -0.8070111      0.042684692   -0.68727436    -0.02497499   
   2144000   0.052066575   -0.80838756     0.044274093   -0.68606399    -0.041197278  
   2145000   0.052974842   -0.80868931     0.046262654   -0.68301566    -0.057261573  
   2146000   0.053970797   -0.80727848     0.047381926   -0.67899259    -0.065674098  
   2147000   0.050775228   -0.80782781     0.047777255   -0.68393685    -0.057498164  
   2148000   0.052143924   -0.80750212     0.047100654   -0.68223604    -0.048622489  
   2149000   0.053759052   -0.80707713     0.045013964   -0.68147662    -0.059829547  
   2150000   0.05358948    -0.80695495     0.046725967   -0.67989662    -0.014293583  
   2151000   0.054815204   -0.80783933     0.044860813   -0.68080876    -0.033972087  
   2152000   0.05221038    -0.80806862     0.04221774    -0.68758583    -0.049468689  
   2153000   0.052154209   -0.80559299     0.04549775    -0.6819144     -0.035663334  
   2154000   0.054361797   -0.80862962     0.043741911   -0.68339762    -0.0091942789 
   2155000   0.051107108   -0.8063108      0.045088772   -0.68461083    -0.045222226  
   2156000   0.052523003   -0.80810858     0.044262141   -0.68511276     0.0038050961 
   2157000   0.051925415   -0.80803915     0.044048069   -0.68615321    -0.04905061   
   2158000   0.051064448   -0.80940041     0.042477783   -0.69037537    -0.068874757  
   2159000   0.052555351   -0.80823523     0.042780655   -0.68667241    -0.0079435666 
   2160000   0.053787366   -0.80745802     0.044533746   -0.68229527    -0.039628371  
   2161000   0.053687058   -0.80577052     0.043864884   -0.68142701    -0.054827578  
   2162000   0.052734496   -0.80967817     0.045982377   -0.68464508    -0.020312205  
   2163000   0.053615971   -0.80684805     0.046095997   -0.68037998    -0.048391093  
   2164000   0.056818903   -0.8072496      0.045832992   -0.67624324    -0.04172672   
   2165000   0.054531612   -0.80806359     0.044707606   -0.68161134    -0.042969893  
   2166000   0.054812857   -0.80995277     0.045275992   -0.68251054    -0.036215191  
   2167000   0.053681965   -0.80616495     0.045425428   -0.68026853    -0.036670107  
   2168000   0.053275006   -0.80727452     0.044424295   -0.68298927    -0.082650837  
   2169000   0.053479269   -0.81001694     0.045935013   -0.68391478    -0.038300819  
   2170000   0.053038993   -0.8075692      0.044496648   -0.6835654     -0.0098191134 
   2171000   0.052026168   -0.80756717     0.045677763   -0.68390051     0.0049823269 
   2172000   0.053623813   -0.80875715     0.043889399   -0.68448392    -0.062035271  
   2173000   0.052491681   -0.80845707     0.044231744   -0.6855386      0.0074995806 
   2174000   0.051851703   -0.80794403     0.045637841   -0.68457882    -0.047667406  
   2175000   0.051629136   -0.80930337     0.046060801   -0.68584883    -0.012839053  
   2176000   0.052445674   -0.80716578     0.043821402   -0.68472662    -0.018536033  
   2177000   0.052783774   -0.80912152     0.044483353   -0.68551359    -0.031812565  
   2178000   0.051586993   -0.80915662     0.0436045     -0.68822155    -0.012325588  
   2179000   0.050788576   -0.80962421     0.04552453    -0.68796597    -0.037358939  
   2180000   0.053363837   -0.80854534     0.044772363   -0.68377886    -0.044513259  
   2181000   0.054135167   -0.81119296     0.04476534    -0.68527726    -0.029839906  
   2182000   0.054801137   -0.8089431      0.04396682    -0.6828276     -0.02406317   
   2183000   0.052786552   -0.80828225     0.04295471    -0.6861988     -0.043248296  
   2184000   0.050550156   -0.80778921     0.046009012   -0.68600388    -0.01649618   
   2185000   0.053257154   -0.80907537     0.042509131   -0.68673204    -0.016117004  
   2186000   0.054946217   -0.81052207     0.045434674   -0.68272125    -0.028417161  
   2187000   0.053218698   -0.80659081     0.044976168   -0.6818381     -0.057054112  
   2188000   0.054512411   -0.81044763     0.041597      -0.68713477    -0.063286796  
   2189000   0.055107946   -0.81367578     0.044002005   -0.68706519    -0.020512775  
   2190000   0.054510572   -0.8084327      0.045222912   -0.68149668    -0.04343393   
   2191000   0.052786287   -0.81045418     0.044996579   -0.68632925    -0.02714447   
   2192000   0.055498953   -0.81026894     0.043630711   -0.68344351    -0.053866764  
   2193000   0.054926903   -0.81039135     0.043528365   -0.68452579    -0.0097999003 
   2194000   0.052844948   -0.80668857     0.043189952   -0.68428234    -0.031898011  
   2195000   0.053333844   -0.80609408     0.044444232   -0.6817007     -0.032387492  
   2196000   0.055486347   -0.80836719     0.044970745   -0.68022062    -0.032985133  
   2197000   0.052806745   -0.80742692     0.04409391    -0.68417399    -0.010727575  
   2198000   0.054440332   -0.81026573     0.04368377    -0.68497415    -0.037682234  
   2199000   0.053046202   -0.80692336     0.044700264   -0.68270513    -0.0061843836 
   2200000   0.05279212    -0.80509431     0.0449459     -0.68101132     0.0071724836 
   2201000   0.051738457   -0.80991576     0.043706995   -0.68865114    -0.054121673  
   2202000   0.053398217   -0.80729803     0.045770781   -0.6814816     -0.04659362   
   2203000   0.053627592   -0.80814765     0.043747425   -0.68401074    -0.04368661   
   2204000   0.055267597   -0.80489654     0.045044572   -0.67700406    -0.0078141236 
   2205000   0.053594104   -0.8094256      0.045449759   -0.68363655    -0.017540822  
   2206000   0.052908302   -0.8065712      0.044910751   -0.68234919    -0.028477215  
   2207000   0.051820259   -0.80780646     0.043013686   -0.68711253    -0.039113879  
   2208000   0.052626359   -0.80929673     0.043080227   -0.68732789    -0.027509157  
   2209000   0.053225834   -0.80907409     0.045940701   -0.68334615    -0.029422167  
   2210000   0.05367851    -0.80763932     0.043091648   -0.68408185    -0.039992028  
   2211000   0.055310589   -0.80589368     0.044789704   -0.67819162    -0.048837449  
   2212000   0.053704721   -0.80878921     0.045149133   -0.68313497    -0.030996109  
   2213000   0.053073537   -0.80897193     0.045089912   -0.68432308    -0.047791558  
   2214000   0.052256423   -0.81029106     0.045522605   -0.68643439     0.010547157  
   2215000   0.052827079   -0.81084098     0.044692777   -0.68695871    -0.01842473   
   2216000   0.053901382   -0.81036459     0.046239836   -0.68332484     0.026693783  
   2217000   0.053796849   -0.81009269     0.043388489   -0.68606099    -0.056002117  
   2218000   0.051122606   -0.8111717      0.044725407   -0.68981186    -0.024340852  
   2219000   0.054041559   -0.80817094     0.045214657   -0.68194624    -0.050256448  
   2220000   0.053513977   -0.8107762      0.045609014   -0.68494801    -0.053905042  
   2221000   0.054294234   -0.8084371      0.045872222   -0.68117607    -0.013637814  
   2222000   0.05172403    -0.80940355     0.044915035   -0.68695252    -0.034259463  
   2223000   0.053986945   -0.80957838     0.044375421   -0.68427479    -0.03109742   
   2224000   0.054840451   -0.80979646     0.044657075   -0.68293178    -0.055235821  
   2225000   0.05385934    -0.80948569     0.04352878    -0.68522002    -0.016208663  
   2226000   0.05267323    -0.80958536     0.042146312   -0.68848017    -0.050980237  
   2227000   0.052132116   -0.80967439     0.04070822    -0.69081844    -0.026020737  
   2228000   0.053167674   -0.80845969     0.043548521   -0.68521112    -0.041472077  
   2229000   0.053513069   -0.80994822     0.04422653    -0.68550387     0.00078027798
   2230000   0.054377408   -0.80735221     0.042360383   -0.68347834    -0.0082293012 
   2231000   0.053178958   -0.8092428      0.043451919   -0.68607391    -0.02255813   
   2232000   0.057020049   -0.80970578     0.045241413   -0.67898948    -0.03687151   
   2233000   0.055205896   -0.80819202     0.046299228   -0.67913737     0.00010323553
   2234000   0.053560159   -0.80801249     0.044992532   -0.68273155    -0.027663983  
   2235000   0.053486102   -0.8092918      0.044846188   -0.68426822    -0.01704214   
   2236000   0.053214468   -0.80921203     0.044323669   -0.68511816    -0.019759675  
   2237000   0.051771711   -0.80850035     0.043706614   -0.68718627    -0.032123359  
   2238000   0.052922645   -0.80904656     0.043009133   -0.68670468    -0.062145731  
   2239000   0.052925319   -0.80822315     0.04372942    -0.68515697    -0.037254727  
   2240000   0.053097047   -0.81132186     0.042488681   -0.68923899    -0.028047669  
   2241000   0.053476646   -0.80875162     0.042986802   -0.6856016     -0.042906163  
   2242000   0.053109136   -0.80871817     0.044654676   -0.68445118    -0.049990281  
   2243000   0.053152715   -0.80924678     0.042280343   -0.6872888     -0.026042179  
   2244000   0.054592902   -0.80992901     0.042989511   -0.68510297    -0.099023038  
   2245000   0.05251009    -0.80927984     0.042076279   -0.68848924    -0.054761422  
   2246000   0.053120323   -0.80754357     0.041519664   -0.68639483    -0.045518031  
   2247000   0.051665552   -0.80275227     0.042169594   -0.68313435    -0.055816399  
   2248000   0.051266076   -0.80779676     0.044062407   -0.68688485    -0.017092368  
   2249000   0.054723497   -0.8077817      0.042734016   -0.68301539    -0.054098372  
   2250000   0.051832876   -0.80759195     0.042626707   -0.68726609    -0.027688552  
   2251000   0.051836095   -0.80936446     0.0433309     -0.68832958    -0.046883863  
   2252000   0.053904654   -0.81044715     0.043781609   -0.68586073    -0.011535532  
   2253000   0.052154396   -0.80905637     0.047140318   -0.68373493    -0.079101964  
   2254000   0.052942259   -0.80455736     0.045981049   -0.67921416    -0.022666765  
   2255000   0.051471154   -0.80693341     0.046807477   -0.68296902    -0.0098156136 
   2256000   0.054227431   -0.80546335     0.044223635   -0.67995105    -0.011631119  
   2257000   0.054116513   -0.80712065     0.044953031   -0.68104522    -0.046221489  
   2258000   0.053936428   -0.80786267     0.043301751   -0.68370847    -0.038182351  
   2259000   0.053637246   -0.80898748     0.047213205   -0.68137031    -0.016565074  
   2260000   0.054797666   -0.80686352     0.045017334   -0.67970272    -0.029610884  
   2261000   0.052803375   -0.80823816     0.045538081   -0.68354611    -0.00016815154
   2262000   0.053377707   -0.80788296     0.044765498   -0.68310256    -0.087390978  
   2263000   0.05173887    -0.8046287      0.043984865   -0.6830856     -0.017552522  
   2264000   0.052231496   -0.80750561     0.04343177    -0.68577715    -0.0084855838 
   2265000   0.05159512    -0.80578832     0.044947667   -0.68349791    -0.033987634  
   2266000   0.05365199    -0.80730203     0.044878911   -0.68199706    -0.028852759  
   2267000   0.054213411   -0.80712576     0.04464044    -0.68121766    -0.025846525  
   2268000   0.053025739   -0.80628764     0.045643258   -0.68115709    -0.093502128  
   2269000   0.052727644   -0.80592663     0.043143091   -0.6837431     -0.018348431  
   2270000   0.053585521   -0.80394104     0.044685398   -0.67892922    -0.042717334  
   2271000   0.052068637   -0.80701481     0.044598547   -0.6843637     -0.085132873  
   2272000   0.054972921   -0.80685656     0.043802049   -0.68064833    -0.0066497783 
   2273000   0.053804686   -0.8094623      0.044608964   -0.68419837    -0.020072681  
   2274000   0.051993154   -0.80780621     0.045063275   -0.68480352    -0.045094895  
   2275000   0.05486471    -0.8055797      0.043882732   -0.679453      -0.016951668  
   2276000   0.053369454   -0.80440686     0.043257783   -0.68114655    -0.038748095  
   2277000   0.054436777   -0.81095934     0.04459393    -0.68476293    -0.031167489  
   2278000   0.053289263   -0.80909362     0.045174309   -0.68403699     0.00035417007
   2279000   0.053171485   -0.80702416     0.044246503   -0.68307189    -0.030347376  
   2280000   0.052671225   -0.81009054     0.048649222   -0.68248545    -0.023082504  
   2281000   0.055068822   -0.80735655     0.04533043    -0.67947617    -0.015724252  
   2282000   0.054079921   -0.80796091     0.041077142   -0.68581622    -0.041272973  
   2283000   0.053421612   -0.80817571     0.041976984   -0.686118      -0.049071031  
   2284000   0.054356278   -0.80786577     0.043891267   -0.68249269    -0.053907671  
   2285000   0.055450146   -0.80888562     0.044086147   -0.68167791    -0.06143311   
   2286000   0.054515117   -0.80535427     0.045577738   -0.67805662    -0.033984919  
   2287000   0.053520159   -0.80962798     0.045484109   -0.68391543    -0.011966088  
   2288000   0.051792649   -0.80905387     0.044850775   -0.68656424    -0.009832464  
   2289000   0.054054347   -0.81016254     0.043842567   -0.68529076    -0.05802358   
   2290000   0.053528269   -0.80542385     0.044755215   -0.68042803    -0.040577192  
   2291000   0.052841015   -0.80763157     0.042791596   -0.68562959    -0.039805758  
   2292000   0.052534435   -0.80889309     0.042662223   -0.68748006    -0.0508313    
   2293000   0.053450821   -0.80797799     0.044133836   -0.68371964    -0.053927069  
   2294000   0.053369829   -0.80946352     0.045940599   -0.68351982    -0.040256647  
   2295000   0.053804547   -0.80866755     0.046418958   -0.68159384    -0.040521853  
   2296000   0.052408704   -0.80681004     0.044537641   -0.68371006    -0.022094014  
   2297000   0.051100265   -0.80768639     0.043888226   -0.68719722    -0.059072757  
   2298000   0.054925058   -0.80652903     0.044532074   -0.67966252    -0.055347072  
   2299000   0.055449986   -0.80660655     0.043768707   -0.67971653    -0.048551289  
   2300000   0.055073064   -0.80820282     0.044278949   -0.68136757    -0.024355434  
   2301000   0.052843692   -0.80972542     0.041792815   -0.6887182     -0.037599232  
   2302000   0.054749457   -0.80995279     0.045236248   -0.68264534    -0.037131349  
   2303000   0.054810893   -0.80669136     0.04605327    -0.67847479    -0.020343413  
   2304000   0.053056409   -0.80816695     0.044089641   -0.68454404    -0.051599944  
   2305000   0.052692845   -0.80883876     0.045003187   -0.6848473     -0.037847024  
   2306000   0.051423091   -0.80960261     0.043207303   -0.68931043    -0.047278094  
   2307000   0.053109135   -0.80852878     0.041422203   -0.68749427    -0.054876663  
   2308000   0.052561206   -0.80901986     0.042660956   -0.68756796    -0.038372235  
   2309000   0.053501094   -0.80876624     0.042522699   -0.68604367    -0.077345767  
   2310000   0.053309843   -0.80841327     0.04528614    -0.68321395    -0.035649559  
   2311000   0.052849411   -0.81013242     0.044397549   -0.6865119     -0.054508929  
   2312000   0.054071093   -0.81074116     0.044577537   -0.68510931    -0.020702834  
   2313000   0.054197781   -0.81116453     0.04418939    -0.68573092    -0.072376941  
   2314000   0.05341359    -0.80996169     0.045754024   -0.68413897    -0.040193157  
   2315000   0.051897332   -0.81121869     0.044089002   -0.68933392    -0.0048922979 
   2316000   0.051667651   -0.81128929     0.04394285    -0.68989496    -0.043743477  
   2317000   0.053260511   -0.81138996     0.045502017   -0.68604872     0.0069230364 
   2318000   0.053425891   -0.8108648      0.045364877   -0.68541279    -0.039651574  
   2319000   0.053180808   -0.80808701     0.046443841   -0.68192342    -0.097135452  
   2320000   0.053223738   -0.8110871      0.047507603   -0.6837954     -0.021546387  
   2321000   0.051988373   -0.81151299     0.045739893   -0.68784084    -0.011287379  
   2322000   0.052637841   -0.80963526     0.045830906   -0.68489854    -0.046638818  
   2323000   0.051534085   -0.80750425     0.045252342   -0.68500065    -0.039330101  
   2324000   0.05567658    -0.80926675     0.04672151    -0.67908425    -0.052101212  
   2325000   0.0554245     -0.80905912     0.046976259   -0.67899974    -0.037203313  
   2326000   0.053720315   -0.80874824     0.046423045   -0.6817967     -0.042735315  
   2327000   0.053581297   -0.81129127     0.045717067   -0.68525411    -0.054107846  
   2328000   0.053998089   -0.80939797     0.04599773    -0.68245536    -0.034956824  
   2329000   0.053744961   -0.80984612     0.04625065    -0.68303004     0.0033834254 
   2330000   0.054541279   -0.81086891     0.044097725   -0.68501204    -0.039959825  
   2331000   0.054288382   -0.80895004     0.047232929   -0.68033707    -0.074408814  
   2332000   0.054228178   -0.80794952     0.043386967   -0.68327277    -0.037232484  
   2333000   0.054590674   -0.81252521     0.04295405    -0.68773798    -0.058814619  
   2334000   0.05230705    -0.8108367      0.043420175   -0.68900657    -0.045255211  
   2335000   0.051445183   -0.8092216      0.0440365     -0.68806711    -0.0068408034 
   2336000   0.053742782   -0.80801164     0.044340217   -0.68310926    -0.021868497  
   2337000   0.053262735   -0.81133121     0.042805643   -0.68868301    -0.037801619  
   2338000   0.053611986   -0.811713       0.044086026   -0.68726088    -0.0084309919 
   2339000   0.051550837   -0.80954661     0.043635464   -0.68863478    -0.034062474  
   2340000   0.054263003   -0.80969947     0.044867093   -0.68349039    -0.02294707   
   2341000   0.052837247   -0.80769537     0.045009016   -0.68348162    -0.032270203  
   2342000   0.055942185   -0.81101156     0.043521111   -0.6836313     -0.0053858899 
   2343000   0.05238616    -0.80999388     0.044797227   -0.68666811    -0.031587822  
   2344000   0.053933986   -0.80951965     0.046410063   -0.6822608     -0.058523634  
   2345000   0.052942073   -0.80878038     0.044990134   -0.68442837    -0.051641233  
   2346000   0.053976675   -0.80848713     0.043844609   -0.68372974    -0.038846818  
   2347000   0.05471574    -0.80979135     0.045058093   -0.6827126     -0.01733463   
   2348000   0.052151942   -0.81081433     0.046400328   -0.68623656    -0.044740802  
   2349000   0.053442345   -0.81013409     0.045350785   -0.68467151    -0.019986554  
   2350000   0.053356347   -0.8094258      0.046411294   -0.68303162    -0.047811837  
   2351000   0.053174515   -0.81277323     0.044428139   -0.68863478    -0.035129331  
   2352000   0.054252432   -0.80686521     0.044716213   -0.68082285     0.0084796697 
   2353000   0.053048631   -0.80935791     0.045014692   -0.68482161    -0.050424437  
   2354000   0.052579992   -0.809305       0.043197701   -0.6872882      0.0029439691 
   2355000   0.052603848   -0.80677099     0.047516231   -0.6803999     -0.046399007  
   2356000   0.052072308   -0.80972164     0.043818821   -0.68784475    -0.095905313  
   2357000   0.053086101   -0.80953124     0.043499331   -0.68645413    -0.015926077  
   2358000   0.053117561   -0.80911286     0.045110629   -0.68437729    -0.028517745  
   2359000   0.052526697   -0.81052348     0.047436353   -0.68434791    -0.048205459  
   2360000   0.053977692   -0.8097566      0.045773351   -0.68306895    -0.016501897  
   2361000   0.053767844   -0.80981749     0.044692784   -0.68452497    -0.026488298  
   2362000   0.05356118    -0.80962134     0.043524444   -0.68580696    -0.069282358  
   2363000   0.052176663   -0.81117282     0.047674657   -0.68528366    -0.031084109  
   2364000   0.055203974   -0.80882001     0.043375084   -0.68269238    -0.035994542  
   2365000   0.052955838   -0.80976599     0.045605292   -0.68477819    -0.016205029  
   2366000   0.054239136   -0.81022308     0.044488851   -0.68442802    -0.04331279   
   2367000   0.054972764   -0.80872163     0.043898068   -0.68241761    -0.0079498013 
   2368000   0.054206115   -0.80677854     0.046217519   -0.67930431    -0.0044672918 
   2369000   0.053504029   -0.80937455     0.044805394   -0.6843649     -0.035443167  
   2370000   0.05312117    -0.80805304     0.044542886   -0.6838798     -0.027083941  
   2371000   0.053708793   -0.80632742     0.045956824   -0.67985939    -0.0064582573 
   2372000   0.054125007   -0.80794844     0.044420672   -0.68239263    -0.0051698908 
   2373000   0.053206142   -0.81069595     0.045406839   -0.68553138    -0.012738517  
   2374000   0.054431364   -0.80846606     0.044716497   -0.68215519    -0.029063732  
   2375000   0.053081598   -0.80794697     0.042512054   -0.68586389    -0.021945407  
   2376000   0.051948441   -0.80961527     0.047514847   -0.68422803    -0.030288962  
   2377000   0.05239165    -0.80881689     0.044747222   -0.6855329     -0.029166647  
   2378000   0.053463007   -0.80694463     0.044513251   -0.68228861    -0.020904506  
   2379000   0.05356986    -0.80590651     0.045286191   -0.68031738    -0.030989193  
   2380000   0.052861363   -0.80793431     0.044450073   -0.68424335    -0.044872267  
   2381000   0.053178265   -0.8086132      0.047521836   -0.68137543    -0.032095506  
   2382000   0.052735408   -0.80678793     0.044351346   -0.6833845     -0.056530827  
   2383000   0.053398469   -0.80627241     0.044596556   -0.68162983    -0.039669802  
   2384000   0.053747734   -0.8091214      0.044656685   -0.68389512    -0.050479796  
   2385000   0.052362129   -0.80967157     0.045123622   -0.68605543    -0.01688365   
   2386000   0.053829041   -0.80977586     0.045062294   -0.6840221     -0.043130288  
   2387000   0.052424425   -0.80778187     0.04662906    -0.6825669     -0.034023931  
   2388000   0.053152285   -0.80716311     0.045950217   -0.6815359     -0.013505634  
   2389000   0.052963848   -0.80557488     0.045159693   -0.68102067    -0.038484649  
   2390000   0.052580778   -0.80796031     0.044675582   -0.68446445    -0.0063645459 
   2391000   0.052469533   -0.80802014     0.044366702   -0.68499991    -0.019427223  
   2392000   0.053777318   -0.8075656      0.048027089   -0.67892458    -0.020131835  
   2393000   0.052357632   -0.80782782     0.044879001   -0.68446304    -0.042248915  
   2394000   0.053283923   -0.81098804     0.045537919   -0.6855758      0.0096888655 
   2395000   0.053348417   -0.80991834     0.045627722   -0.68431962    -0.056264831  
   2396000   0.055018238   -0.80978014     0.045161475   -0.68214455    -0.02373461   
   2397000   0.054809368   -0.80844868     0.045147529   -0.68114014    -0.031924649  
   2398000   0.053119293   -0.80919288     0.044393154   -0.68517219    -0.0053977002 
   2399000   0.052567067   -0.80789557     0.04557482    -0.68352102    -0.00010141349
   2400000   0.053467114   -0.80889599     0.046859398   -0.68188766     0.0060925026 
   2401000   0.053582529   -0.8079634      0.045711464   -0.68192999     0.0080448146 
   2402000   0.054061661   -0.80728805     0.044112248   -0.68213562     0.010498511  
   2403000   0.055291943   -0.80950047     0.043839505   -0.68277656    -0.0020643867 
   2404000   0.052747998   -0.80965866     0.045725843   -0.68486187    -0.046081623  
   2405000   0.053616031   -0.80975893     0.044589838   -0.68479693    -0.023780921  
   2406000   0.051784172   -0.80634988     0.047911461   -0.68081227    -0.052297042  
   2407000   0.055698851   -0.8089114      0.048728327   -0.6766887     -0.050055442  
   2408000   0.051457997   -0.80913245     0.04786968    -0.68412558    -0.051660135  
   2409000   0.053235386   -0.812611       0.04501557    -0.68779387    -0.0015232962 
   2410000   0.053670225   -0.80943867     0.046157209   -0.68282807    -0.0324306    
   2411000   0.055407181   -0.80765623     0.046047316   -0.67855176    -0.01707954   
   2412000   0.054447198   -0.81162202     0.046667806   -0.68333611    -0.022512725  
   2413000   0.052992662   -0.81103224     0.04837015    -0.68322438    -0.062696192  
   2414000   0.053090718   -0.80807343     0.047105264   -0.68138347    -0.022858163  
   2415000   0.052915987   -0.81170799     0.045644777   -0.68674044    -0.044194165  
   2416000   0.055340246   -0.81048178     0.044963021   -0.68256195    -0.027836402  
   2417000   0.053513692   -0.8114252      0.04538112    -0.68582533    -0.052961505  
   2418000   0.054930387   -0.81013893     0.045171498   -0.68262501     0.004930839  
   2419000   0.055470484   -0.8099514      0.045618826   -0.68118053    -0.035925894  
   2420000   0.054287526   -0.81023301     0.04711592    -0.68173833    -0.04341731   
   2421000   0.054409213   -0.81014819     0.045327945   -0.68325908    -0.042380627  
   2422000   0.053328579   -0.80990631     0.044967277   -0.68499777    -0.039573106  
   2423000   0.054013325   -0.80966179     0.044244359   -0.68444971    -0.013714322  
   2424000   0.052136947   -0.80993938     0.046125081   -0.68565934     0.00092731586
   2425000   0.05429746    -0.81098532     0.044124738   -0.68546693    -0.019793209  
   2426000   0.054668268   -0.80988157     0.047465192   -0.68046688    -0.043859796  
   2427000   0.052646136   -0.80699151     0.04612591    -0.68194734    -0.045830482  
   2428000   0.05500896    -0.81134237     0.047545662   -0.6813365     -0.022752783  
   2429000   0.054123205   -0.81148955     0.045821235   -0.68453588    -0.031273216  
   2430000   0.052569867   -0.81051793     0.043471948   -0.68824205    -0.034400784  
   2431000   0.052807151   -0.80745208     0.045593287   -0.68269917    -0.015753454  
   2432000   0.05185408    -0.81044813     0.044107783   -0.68860941    -0.052329615  
   2433000   0.054564067   -0.80687149     0.043482495   -0.6815957     -0.02056379   
   2434000   0.052360005   -0.8117027      0.047324406   -0.68588896    -0.021459462  
   2435000   0.052368878   -0.81340725     0.046475397   -0.68842921    -0.0054542726 
   2436000   0.052925862   -0.81189385     0.043293281   -0.689263      -0.044469258  
   2437000   0.052101372   -0.81204178     0.045003804   -0.68893633    -0.027982224  
   2438000   0.051050312   -0.81183753     0.045661032   -0.68965043    -0.010748493  
   2439000   0.052284682   -0.81250303     0.044779384   -0.68934723    -0.024954343  
   2440000   0.051919502   -0.81158573     0.046149674   -0.68760705    -0.034312652  
   2441000   0.054424431   -0.80875371     0.04565861    -0.68151113    -0.0042181479 
   2442000   0.053409836   -0.8105683      0.047860611   -0.68264463    -0.015463787  
   2443000   0.053109247   -0.81090367     0.04606434    -0.68522686    -0.015980928  
   2444000   0.053568813   -0.81043911     0.047113347   -0.68302438    -0.028581464  
   2445000   0.053704486   -0.80950942     0.047385403   -0.68161926    -0.024567848  
   2446000   0.053327062   -0.81358535     0.047215079   -0.68643129    -0.058932258  
   2447000   0.051815107   -0.81079333     0.04424424    -0.68887657    -0.032913224  
   2448000   0.052479563   -0.81158652     0.042535014   -0.69038295    -0.0073485865 
   2449000   0.052372723   -0.8094342      0.043926309   -0.68699949    -0.024143597  
   2450000   0.053686851   -0.81031973     0.045492592   -0.68434882     0.0027632668 
   2451000   0.053559786   -0.80856705     0.043391999   -0.6848872     -0.019189441  
   2452000   0.054762677   -0.80862416     0.04044016    -0.68609298    -0.031964428  
   2453000   0.052475454   -0.80757502     0.045600532   -0.68331209     0.002495457  
   2454000   0.055497683   -0.81019129     0.042065793   -0.68493267    -0.038802528  
   2455000   0.054262542   -0.80830127     0.043256408   -0.68370356    -0.038915334  
   2456000   0.05226834    -0.809094       0.045604846   -0.68513722    -0.026265731  
   2457000   0.052519995   -0.80905458     0.045322111   -0.6850033     -0.039956859  
   2458000   0.051869713   -0.80988432     0.043489621   -0.68864033    -0.017603366  
   2459000   0.05492932    -0.80857745     0.044002051   -0.68223458    -0.0076012988 
   2460000   0.052351035   -0.80732102     0.043003552   -0.68584157    -0.033765208  
   2461000   0.051940469   -0.81090277     0.046500012   -0.68654232    -0.022118758  
   2462000   0.053279758   -0.81141796     0.044595171   -0.68695472    -0.055765332  
   2463000   0.053657206   -0.8107086      0.044283319   -0.6859914     -0.02308284   
   2464000   0.053323266   -0.81050181     0.041858237   -0.68871028    -0.026735097  
   2465000   0.053361291   -0.8108224      0.045253023   -0.68557908    -0.033029065  
   2466000   0.053811136   -0.81079226     0.045789261   -0.68433837    -0.028763967  
   2467000   0.05216276    -0.81090711     0.045267236   -0.68744621    -0.0032428147 
   2468000   0.053096265   -0.80935166     0.046262502   -0.68349615    -0.011123239  
   2469000   0.053237945   -0.80990201     0.043952891   -0.68614373    -0.030237692  
   2470000   0.052824668   -0.80992526     0.045803339   -0.68493604    -0.0018236699 
   2471000   0.055017812   -0.81102385     0.047380988   -0.68116939    -0.034773642  
   2472000   0.054088976   -0.80821669     0.044167436   -0.68296814    -0.012957773  
   2473000   0.054909516   -0.80954775     0.043071863   -0.68416475    -0.047367473  
   2474000   0.052484395   -0.80861187     0.044158019   -0.68577805    -0.049914168  
   2475000   0.052619204   -0.80840161     0.043890338   -0.68563339    -0.012916513  
   2476000   0.056162181   -0.80892781     0.04655627    -0.67818262    -0.023801898  
   2477000   0.0549906     -0.80791334     0.045753763   -0.67972689    -0.025662014  
   2478000   0.05379114    -0.80995704     0.046320069   -0.68300232    -0.050941693  
   2479000   0.054502762   -0.81029074     0.045751711   -0.68283763    -0.023519082  
   2480000   0.053877378   -0.81039854     0.045365901   -0.68426872    -0.033992807  
   2481000   0.055462546   -0.81035513     0.045623767   -0.68159121    -0.04330083   
   2482000   0.052513918   -0.80832209     0.044959777   -0.68464226    -0.023956337  
   2483000   0.052225278   -0.8101619      0.04401577    -0.68785876    -0.043528076  
   2484000   0.054697114   -0.81210438     0.044141717   -0.68596993    -0.012755541  
   2485000   0.052066297   -0.81074961     0.045808321   -0.68689223    -0.020954837  
   2486000   0.051640735   -0.80889486     0.044722261   -0.68676147    -0.014136129  
   2487000   0.052957338   -0.81036672     0.045483735   -0.68549823     0.0044330295 
   2488000   0.056155933   -0.81002503     0.043555162   -0.68229031    -0.0078998837 
   2489000   0.055274229   -0.81031815     0.04409614    -0.68336416    -0.036780689  
   2490000   0.052757428   -0.81165365     0.044217133   -0.68835143    -0.038937375  
   2491000   0.050675025   -0.80928672     0.046231871   -0.68709135    -0.022538631  
   2492000   0.053790915   -0.80814494     0.044852752   -0.68265787    -0.028674646  
   2493000   0.051685097   -0.81320862     0.044329223   -0.69140177    -0.049796279  
   2494000   0.052172554   -0.80893615     0.0444362     -0.68629161    -0.026000218  
   2495000   0.052806866   -0.80879163     0.049108426   -0.68052401    -0.027432771  
   2496000   0.053969369   -0.80970026     0.046599124   -0.68219931    -0.0028150924 
   2497000   0.051157066   -0.81242271     0.046352932   -0.68938369    -0.01073888   
   2498000   0.05324518    -0.80894795     0.045014398   -0.68411731    -0.023444157  
   2499000   0.052652262   -0.80504792     0.044164557   -0.68195592    -0.040930722  
   2500000   0.053422644   -0.80897696     0.044662941   -0.68423175    -0.0050789015 
   2501000   0.053198786   -0.80687666     0.044923489   -0.68220647    -0.021429344  
   2502000   0.053175076   -0.81024178     0.04472013    -0.68581049    -0.019581094  
   2503000   0.052469563   -0.80847353     0.046522695   -0.68329727    -0.049454007  
   2504000   0.054768908   -0.80882119     0.045801598   -0.68091924    -0.032664817  
   2505000   0.052853178   -0.80492688     0.044826486   -0.68087178    -0.0036355739 
   2506000   0.051828359   -0.80848583     0.04571904    -0.6850744     -0.0081617978 
   2507000   0.054130774   -0.80729067     0.042751113   -0.68339578    -0.035852149  
   2508000   0.052929857   -0.81006545     0.046261734   -0.68446015    -0.045987165  
   2509000   0.051232538   -0.80909115     0.043961679   -0.68833024    -0.045133043  
   2510000   0.051305905   -0.80854743     0.044617697   -0.68702052    -0.040821046  
   2511000   0.05246708    -0.81117673     0.045628382   -0.6868985     -0.025697247  
   2512000   0.05408388    -0.81079018     0.045685859   -0.68403084    -0.019798244  
   2513000   0.054109269   -0.80998719     0.044691006   -0.68418465    -0.035695873  
   2514000   0.056362062   -0.80943641     0.045383355   -0.6795645     -0.052499252  
   2515000   0.05469203    -0.80935496     0.046587961   -0.68078189    -0.04023925   
   2516000   0.05365434    -0.80830094     0.045113621   -0.68275774    -0.0026483331 
   2517000   0.05142361    -0.81065663     0.047249643   -0.68632134    -0.02616414   
   2518000   0.05344416    -0.80974982     0.044552767   -0.68508253    -0.060223214  
   2519000   0.053073154   -0.80975789     0.045599438   -0.68460008     0.015403444  
   2520000   0.053170424   -0.81002028     0.045987435   -0.68432867    -0.056532477  
   2521000   0.050981688   -0.80992374     0.042421518   -0.69107903    -0.022970424  
   2522000   0.052699349   -0.81083493     0.043069443   -0.68876747    -0.030226254  
   2523000   0.052663869   -0.80904963     0.04402962    -0.68607517    -0.036034394  
   2524000   0.051368716   -0.81121169     0.045147146   -0.68906118    -0.009281158  
   2525000   0.054064033   -0.80951212     0.044864711   -0.68360368    -0.043693866  
   2526000   0.052427573   -0.80824692     0.04493529    -0.68472101    -0.050948042  
   2527000   0.052467712   -0.80864605     0.047728452   -0.6822668     -0.016440371  
   2528000   0.052570634   -0.81017056     0.046483293   -0.68488219    -0.038260888  
   2529000   0.053891071   -0.81007566     0.04344628    -0.68584493    -0.044282543  
   2530000   0.05211       -0.80886737     0.046188129   -0.68456467    -0.049419874  
   2531000   0.054350587   -0.80877012     0.046948682   -0.68034816    -0.044946767  
   2532000   0.051412177   -0.81006752     0.045692146   -0.68730686    -0.043829272  
   2533000   0.052650937   -0.80870198     0.045311072   -0.68446546    -0.0016617225 
   2534000   0.053234866   -0.80898508     0.045096846   -0.68408745    -0.012552364  
   2535000   0.053639436   -0.81037202     0.047050678   -0.6829141     -0.0017868886 
   2536000   0.054080284   -0.80952856     0.045547485   -0.68291298    -0.045095346  
   2537000   0.055162762   -0.81050968     0.047139197   -0.68067972    -0.022889983  
   2538000   0.053064678   -0.81087048     0.042793502   -0.68853132    -0.03942887   
   2539000   0.05374422    -0.809921       0.043586605   -0.68577008    -0.00026479135
   2540000   0.052946323   -0.80996055     0.047124185   -0.68346812    -0.020469518  
   2541000   0.054339931   -0.80804045     0.045974422   -0.68060872    -0.0073334554 
   2542000   0.053897902   -0.81016417     0.046196019   -0.68317345    -0.008009938  
   2543000   0.051868998   -0.80827659     0.045800357   -0.68472293    -0.013209798  
   2544000   0.052792667   -0.80959667     0.046651114   -0.68380765     0.019679165  
   2545000   0.054293322   -0.81009205     0.044733836   -0.68397077    -0.011261995  
   2546000   0.053931837   -0.81018842     0.044198753   -0.68514411    -0.034679374  
   2547000   0.05328804    -0.80886498     0.045384612   -0.68359988    -0.028992217  
   2548000   0.050799098   -0.80826357     0.044740532   -0.68737355    -0.01064591   
   2549000   0.053049181   -0.81010498     0.043331843   -0.6872507     -0.030525849  
   2550000   0.052852252   -0.81105831     0.043953163   -0.68787792    -0.064599283  
   2551000   0.052840836   -0.80971031     0.042387512   -0.68811268    -0.022082381  
   2552000   0.053833626   -0.80929424     0.04499978    -0.68359612     0.011027969  
   2553000   0.055768298   -0.80787433     0.042943844   -0.68133201    -0.016382534  
   2554000   0.055156793   -0.81032703     0.046702821   -0.6809424     -0.0092426959 
   2555000   0.054177288   -0.81151861     0.047890509   -0.6824146      0.0026648736 
   2556000   0.05296315    -0.80977584     0.045240527   -0.68514185    -0.044214623  
   2557000   0.054253451   -0.80816085     0.043766533   -0.68306665    -0.042881006  
   2558000   0.05145436    -0.80946027     0.046053644   -0.68627488    -0.018831773  
   2559000   0.052650858   -0.80938325     0.045514629   -0.68494329     0.0026563253 
   2560000   0.054556658   -0.80892974     0.044963497   -0.68218406    -0.011500848  
   2561000   0.052684234   -0.81062717     0.044457837   -0.68719397    -0.046807394  
   2562000   0.053948049   -0.80745079     0.042973723   -0.6836072     -0.018529003  
   2563000   0.051729833   -0.80818622     0.045675236   -0.6849663     -0.04285943   
   2564000   0.054485833   -0.80857388     0.044614466   -0.68228339    -0.0051087497 
   2565000   0.053395569   -0.81005571     0.045776236   -0.6842378     -0.035024852  
   2566000   0.052730223   -0.80945887     0.046418504   -0.68399606    -0.022256184  
   2567000   0.055424774   -0.8065801      0.046385095   -0.67711148    -0.04542022   
   2568000   0.054258792   -0.80800634     0.045018497   -0.68165216    -0.026372009  
   2569000   0.053282646   -0.80752764     0.043034628   -0.68462061    -0.022524011  
   2570000   0.054182642   -0.80711188     0.045538885   -0.68035147    -0.021397164  
   2571000   0.054669631   -0.80717794     0.045959849   -0.67926655    -0.053534045  
   2572000   0.054959521   -0.81125847     0.046642908   -0.68222946    -0.00034158704
   2573000   0.055859053   -0.81046154     0.046994351   -0.67973266    -0.017947076  
   2574000   0.054939553   -0.81060389     0.045886324   -0.6823614     -0.035509198  
   2575000   0.053860682   -0.80999662     0.045505667   -0.68375205    -0.026655929  
   2576000   0.052864046   -0.80921914     0.045048965   -0.68492527    -0.034930009  
   2577000   0.054275882   -0.80885804     0.044430544   -0.68306619    -0.01126519   
   2578000   0.053836727   -0.81010427     0.04423907    -0.68516221    -0.027411521  
   2579000   0.052402506   -0.80875429     0.043190047   -0.6870112      0.0013762085 
   2580000   0.054143322   -0.81020869     0.042590836   -0.68645527    -0.038139884  
   2581000   0.052699004   -0.81063454     0.043269207   -0.68836783    -0.034644214  
   2582000   0.053904704   -0.81095645     0.046632345   -0.68351921    -0.0073566377 
   2583000   0.054588904   -0.8116212      0.044155582   -0.68563509    -0.045905092  
   2584000   0.051862383   -0.81135157     0.046698475   -0.68690971    -0.029485397  
   2585000   0.049437602   -0.80961495     0.043442186   -0.6920642     -0.039169767  
   2586000   0.052754168   -0.81004411     0.044296523   -0.68666739     0.0045635361 
   2587000   0.052525661   -0.80971336     0.0469773     -0.6839984     -0.045958713  
   2588000   0.054249138   -0.81081214     0.044987783   -0.68450315    -0.020177036  
   2589000   0.055024843   -0.80804803     0.043361669   -0.68220235    -0.0040658617 
   2590000   0.053899058   -0.80914227     0.044999155   -0.68334669    -0.047210093  
   2591000   0.055849039   -0.80962004     0.042615872   -0.68328465    -0.031067376  
   2592000   0.053577158   -0.80873236     0.044988137   -0.68343033    -0.015366516  
   2593000   0.053267519   -0.80956106     0.04483554    -0.68487579    -0.046926263  
   2594000   0.054084808   -0.80896549     0.046363778   -0.68152684    -0.049950645  
   2595000   0.055780344   -0.80928562     0.043279571   -0.68238951    -0.0074378673 
   2596000   0.055705252   -0.8071581      0.04392553    -0.6797286     -0.065503411  
   2597000   0.054321487   -0.80759317     0.046694032   -0.67946947    -0.023960424  
   2598000   0.055297187   -0.81130081     0.044423617   -0.68398492    -0.032223816  
   2599000   0.053351977   -0.81199606     0.047077911   -0.68494181    -0.060427309  
   2600000   0.0536181     -0.81051285     0.046171296   -0.68396629    -0.062673013  
   2601000   0.053341878   -0.81024733     0.044525877   -0.68576026    -0.012252612  
   2602000   0.052989769   -0.80977673     0.043286413   -0.68705694    -0.021407781  
   2603000   0.054505272   -0.80952384     0.045342707   -0.68247598    -0.032937163  
   2604000   0.053530674   -0.80899449     0.043268048   -0.68548224    -0.053863109  
   2605000   0.052979116   -0.80805021     0.043803287   -0.68482952    -0.010477193  
   2606000   0.053449872   -0.80770864     0.045775822   -0.68180974    -0.022153138  
   2607000   0.052829973   -0.8071631      0.043081543   -0.68488772    -0.019466977  
   2608000   0.053351371   -0.81034004     0.04313599    -0.68722863     0.010010602  
   2609000   0.052517038   -0.81247639     0.045187193   -0.68856447    -0.010289141  
   2610000   0.052657869   -0.80841638     0.048291776   -0.68118876     0.0022270426 
   2611000   0.053933728   -0.80850048     0.04691893    -0.68073315    -0.028159442  
   2612000   0.053221241   -0.80925382     0.045345538   -0.68412792    -0.026302648  
   2613000   0.053280426   -0.80964494     0.04518595    -0.68458992    -0.018951758  
   2614000   0.053763973   -0.80789994     0.045251323   -0.68205469    -0.023012991  
   2615000   0.053784432   -0.80695477     0.045605655   -0.68072452    -0.021892057  
   2616000   0.053838316   -0.81078533     0.046596672   -0.68348329    -0.043792631  
   2617000   0.053521221   -0.80701595     0.046977045   -0.67980887     0.013142099  
   2618000   0.051382917   -0.80909782     0.045679694   -0.68639348    -0.018324072  
   2619000   0.052233782   -0.8103849      0.045434321   -0.68665045    -0.046077884  
   2620000   0.054102992   -0.81053132     0.047280472   -0.68214872    -0.037404065  
   2621000   0.054096417   -0.80532874     0.047420202   -0.67681626    -0.039133069  
   2622000   0.053344314   -0.8097142      0.045706061   -0.6840433     -0.0052525615 
   2623000   0.052154478   -0.80618835     0.044690154   -0.68331695    -0.029572739  
   2624000   0.054438098   -0.80963541     0.048108025   -0.67992292     0.0042004948 
   2625000   0.054577765   -0.8101477      0.047573445   -0.68076042    -0.031986988  
   2626000   0.054258484   -0.80993029     0.050490928   -0.67810415    -0.017681824  
   2627000   0.05470646    -0.80953655     0.047384764   -0.68014504    -0.036665579  
   2628000   0.053857689   -0.81099598     0.046682514   -0.68357906    -0.019547611  
   2629000   0.052429637   -0.80842849     0.048904827   -0.68092994    -0.036418426  
   2630000   0.054381746   -0.81263938     0.046410268   -0.68470912    -0.018088589  
   2631000   0.052949753   -0.80962252     0.045834134   -0.684415      -0.0038729281 
   2632000   0.05397447    -0.81029326     0.046550913   -0.68283287    -0.0073885801 
   2633000   0.051646155   -0.80974906     0.045990182   -0.68633962    -0.021164616  
   2634000   0.053358327   -0.810337       0.045165506   -0.68518564     0.0058622471 
   2635000   0.053411863   -0.81120047     0.045576826   -0.68555754    -0.021208706  
   2636000   0.053076278   -0.81097724     0.047073069   -0.68434112    -0.033383187  
   2637000   0.054342467   -0.81022293     0.046307937   -0.68245389    -0.011260995  
   2638000   0.052034119   -0.81221396     0.047253186   -0.68695995    -0.019953711  
   2639000   0.053935101   -0.81197099     0.046094322   -0.68502621    -0.0024187805 
   2640000   0.052245588   -0.81191062     0.046574492   -0.6870183     -0.036047696  
   2641000   0.051665324   -0.80772875     0.046513017   -0.68376775    -0.0057692895 
   2642000   0.053751086   -0.80967725     0.047215736   -0.6818869     -0.029780041  
   2643000   0.05200233    -0.80739105     0.047572838   -0.68186504    -0.027998972  
   2644000   0.053903737   -0.80876571     0.045355372   -0.6826069     -0.023295328  
   2645000   0.053414428   -0.80655763     0.043742344   -0.68274533    -0.0089425128 
   2646000   0.05421673    -0.80808678     0.046913495   -0.67990066    -0.026286521  
   2647000   0.054985543   -0.80682496     0.045528014   -0.67887184    -0.033572322  
   2648000   0.053159005   -0.80765797     0.045824631   -0.68214628    -0.017198624  
   2649000   0.054597737   -0.80764657     0.047186704   -0.6786161     -0.0069905003 
   2650000   0.053117207   -0.81064638     0.044958706   -0.68606327    -0.02487565   
   2651000   0.053754278   -0.80932042     0.04430773    -0.6844333     -0.012124215  
   2652000   0.052870944   -0.80834658     0.045023833   -0.6840675     -0.039586267  
   2653000   0.051979628   -0.80844724     0.047640689   -0.68288741    -0.046669334  
   2654000   0.054536482   -0.80950095     0.047090425   -0.68065858    -0.02517762   
   2655000   0.053687597   -0.81014719     0.045667246   -0.6840005     -0.021642171  
   2656000   0.054325546   -0.80930032     0.042879607   -0.68498496    -0.035957319  
   2657000   0.053823502   -0.8076509      0.047640484   -0.67932725    -0.027093149  
   2658000   0.053841809   -0.80945109     0.045564722   -0.68317576    -0.039763345  
   2659000   0.05327659    -0.80760561     0.047254895   -0.68048739    -0.026157059  
   2660000   0.052417223   -0.80810089     0.044601438   -0.68492435    -0.036169387  
   2661000   0.053992097   -0.81003748     0.046721679   -0.68237991    -0.037689908  
   2662000   0.053698458   -0.80701403     0.046841395   -0.67967692    -0.030720643  
   2663000   0.052172729   -0.81149821     0.044921303   -0.6883683     -0.02386425   
   2664000   0.052871896   -0.80775528     0.044917406   -0.6835812      0.001819173  
   2665000   0.052048621   -0.80695194     0.044076538   -0.68485284    -0.021250525  
   2666000   0.053379001   -0.80992613     0.045175186   -0.6847341     -0.05982233   
   2667000   0.053650073   -0.8112874      0.04669574    -0.68416847    -0.035951662  
   2668000   0.054342518   -0.80845949     0.045924462   -0.68107384    -0.048915899  
   2669000   0.055068857   -0.80710894     0.048746536   -0.67581241    -0.036321552  
   2670000   0.053491159   -0.81125781     0.04746364    -0.68360919    -0.025198353  
   2671000   0.053318855   -0.81062679     0.0463309     -0.6843692      0.0055455898 
   2672000   0.054601265   -0.81000698     0.046684661   -0.68147326    -0.0044653315 
   2673000   0.055009467   -0.80932701     0.047398395   -0.67946765    -0.045104232  
   2674000   0.055697574   -0.8097436      0.044713287   -0.68153786    -0.023399254  
   2675000   0.055405756   -0.80975419     0.045456764   -0.68124241    -0.014450064  
   2676000   0.052702994   -0.80838213     0.043889742   -0.6854889     -0.031374165  
   2677000   0.053905061   -0.80881512     0.044331242   -0.68367845    -0.017755321  
   2678000   0.053775151   -0.81175318     0.045413047   -0.68572945    -0.035047872  
   2679000   0.05380705    -0.80942383     0.045250359   -0.68351497    -0.016538881  
   2680000   0.051361226   -0.81415764     0.046827196   -0.69033831    -0.039249017  
   2681000   0.04854202    -0.81083404     0.045148392   -0.69291959    -0.0012917958 
   2682000   0.051783349   -0.81269227     0.047188306   -0.68787905    -0.045515476  
   2683000   0.053418773   -0.80962082     0.046173584   -0.68337078    -0.058147989  
   2684000   0.051500014   -0.80940453     0.047078032   -0.68512631    -0.013238481  
   2685000   0.053243262   -0.81052913     0.044879741   -0.68583602    -0.054102608  
   2686000   0.053190692   -0.81220984     0.045950224   -0.68652506    -0.017418527  
   2687000   0.053707469   -0.81090444     0.045038503   -0.68535671    -0.026103897  
   2688000   0.051514733   -0.810478       0.044670691   -0.68858506    -0.040101712  
   2689000   0.052953978   -0.81016299     0.045688573   -0.68509469    -0.052921529  
   2690000   0.05245468    -0.81333516     0.046707016   -0.68799689     0.0086783426 
   2691000   0.052716883   -0.81173668     0.045885826   -0.68682654    -0.027913389  
   2692000   0.053311123   -0.80998512     0.045065661   -0.68500437    -0.045823931  
   2693000   0.052617454   -0.81064303     0.046343787   -0.68542399    -0.014833502  
   2694000   0.053187962   -0.80951625     0.042541007   -0.68724477    -0.037441133  
   2695000   0.053595974   -0.81219516     0.043950448   -0.68790262    -0.014419808  
   2696000   0.051367665   -0.81050724     0.045833599   -0.68767186    -0.042833116  
   2697000   0.054722834   -0.80870559     0.04596069    -0.68071361    -0.072161869  
   2698000   0.054585664   -0.81063496     0.046135724   -0.68267357    -0.053361607  
   2699000   0.052555874   -0.81237314     0.046504815   -0.68708537    -0.080756025  
   2700000   0.052299405   -0.81023283     0.04616667    -0.68566767    -0.011808304  
   2701000   0.053967024   -0.81127875     0.047468952   -0.68291149    -0.025075907  
   2702000   0.052121485   -0.81203377     0.046970019   -0.68693197    -0.022322163  
   2703000   0.054454982   -0.8108605      0.046676634   -0.68255409    -0.010482685  
   2704000   0.053593134   -0.81114464     0.044396507   -0.68641029    -0.050272834  
   2705000   0.057219356   -0.81080363     0.045875353   -0.67915461    -0.018102853  
   2706000   0.052353386   -0.81122875     0.047183846   -0.68556549    -0.043583112  
   2707000   0.054473203   -0.81026109     0.046022398   -0.68258161    -0.016793951  
   2708000   0.053062204   -0.80852158     0.044097001   -0.68488262    -0.02002197   
   2709000   0.054286886   -0.81022819     0.046247978   -0.68260241    -0.012209513  
   2710000   0.054646663   -0.81106063     0.045406981   -0.68373654    -0.018914724  
   2711000   0.053398308   -0.80971788     0.043415206   -0.68625689    -0.03025762   
   2712000   0.052541023   -0.81063144     0.04672858    -0.68514217    -0.044428768  
   2713000   0.052867009   -0.81035273     0.044810098   -0.68629328    -0.05878588   
   2714000   0.052439754   -0.81036615     0.045670347   -0.68608692    -0.018798951  
   2715000   0.052704716   -0.8135263      0.045129194   -0.68939104    -0.031888842  
   2716000   0.051725926   -0.81207975     0.048111468   -0.68642945    -0.039459155  
   2717000   0.053839436   -0.81081081     0.045644489   -0.68445927    -0.038229573  
   2718000   0.054143303   -0.81003326     0.045432764   -0.68343794    -0.014791323  
   2719000   0.054026036   -0.81364281     0.046564881   -0.68609116    -0.0025667688 
   2720000   0.053294573   -0.80932946     0.045680694   -0.68375848    -0.04138001   
   2721000   0.053331227   -0.81038775     0.045011245   -0.68543127    -0.046301862  
   2722000   0.052645003   -0.80764699     0.043097212   -0.68563322    -0.028559342  
   2723000   0.053511      -0.8117625      0.044647684   -0.6869001     -0.02777026   
   2724000   0.054610929   -0.80903655     0.044576135   -0.68259688    -0.018783376  
   2725000   0.054562616   -0.81027904     0.04668565    -0.68180227    -0.024031252  
   2726000   0.054225515   -0.81025498     0.046355995   -0.68261319    -0.028207095  
   2727000   0.053265401   -0.80686788     0.046100482   -0.68092085    -0.032313889  
   2728000   0.054573787   -0.81109662     0.045213348   -0.6840754     -0.030344174  
   2729000   0.053961807   -0.80867947     0.046777156   -0.68101183    -0.053985423  
   2730000   0.053888707   -0.81074642     0.044096255   -0.68586926    -0.024123059  
   2731000   0.053422904   -0.80859184     0.046060469   -0.68244871    -0.03417376   
   2732000   0.053649226   -0.80849493     0.042792867   -0.68528014    -0.045798355  
   2733000   0.054963198   -0.80886851     0.045667099   -0.68080981    -0.025037139  
   2734000   0.055267129   -0.81125179     0.045110577   -0.68329401    -0.044657108  
   2735000   0.053772445   -0.81008673     0.046270283   -0.68320982    -0.041236524  
   2736000   0.054184853   -0.81071621     0.045326549   -0.68416481    -0.039658088  
   2737000   0.053651847   -0.81117952     0.047073105   -0.68368057    -0.041614036  
   2738000   0.0528244     -0.81054048     0.047410991   -0.68394401    -0.07732862   
   2739000   0.053112019   -0.80766345     0.046761111   -0.68128571    -0.022864282  
   2740000   0.053897741   -0.80935418     0.047009284   -0.68155045    -0.020314073  
   2741000   0.05490581    -0.80945773     0.044374931   -0.68277722    -0.038212767  
   2742000   0.052494111   -0.81201842     0.046448494   -0.68687956    -0.0018044038 
   2743000   0.053622707   -0.81072774     0.04612879    -0.68421678    -0.038266929  
   2744000   0.052357561   -0.81169562     0.044746644   -0.6884633     -0.035268892  
   2745000   0.05368428    -0.81191088     0.043784459   -0.68765195    -0.026402421  
   2746000   0.053074753   -0.80834611     0.042915221   -0.68587012    -0.011533519  
   2747000   0.053643646   -0.80748074     0.046165252   -0.68090194    -0.026542915  
   2748000   0.052242136   -0.80681329     0.045489531   -0.68301111     0.0064429745 
   2749000   0.054106127   -0.81392396     0.048905265   -0.68391186    -0.028867692  
   2750000   0.054446233   -0.81005852     0.045000924   -0.68344093    -0.031435134  
   2751000   0.053849834   -0.80968345     0.04385702    -0.68510379     0.02080179   
   2752000   0.054549186   -0.8100735      0.047137596   -0.68116491    -0.040786108  
   2753000   0.052542272   -0.808777       0.045606838   -0.6844076     -0.013929579  
   2754000   0.051859284   -0.81175011     0.045358536   -0.68865283    -0.027240654  
   2755000   0.052555594   -0.80898536     0.04462046    -0.68558237    -0.031463378  
   2756000   0.052264894   -0.81187831     0.045293436   -0.68823811     0.013201065  
   2757000   0.05352724    -0.80961768     0.046043886   -0.68333474    -0.0069846358 
   2758000   0.053636732   -0.80795404     0.045098432   -0.68245242    -0.042130468  
   2759000   0.055374417   -0.81142678     0.045296678   -0.68312207    -0.027204391  
   2760000   0.053727717   -0.80968266     0.044797485   -0.68434559    -0.0031342216 
   2761000   0.05332075    -0.80925716     0.043395391   -0.68593224    -0.01538819   
   2762000   0.053978425   -0.80919341     0.043547212   -0.6847308     -0.025542741  
   2763000   0.055396218   -0.80732729     0.045175423   -0.67911115    -0.016578722  
   2764000   0.05410036    -0.80735096     0.046453559   -0.67979922    -0.02165071   
   2765000   0.054799739   -0.80795587     0.046551262   -0.67925803    -0.04861576   
   2766000   0.055834811   -0.80950082     0.047669545   -0.6781331     -0.016325453  
   2767000   0.052377348   -0.81014195     0.048258028   -0.68336859    -0.0074842254 
   2768000   0.054765824   -0.80634089     0.045660379   -0.67858478    -0.047467029  
   2769000   0.052667403   -0.81059823     0.047493453   -0.68415464    -0.044875748  
   2770000   0.05130573    -0.8080291      0.043422509   -0.68769765    -0.020571953  
   2771000   0.053010605   -0.81126755     0.045219453   -0.68658349    -0.02323691   
   2772000   0.053020872   -0.81090953     0.046618054   -0.68481148    -0.029504645  
   2773000   0.051177213   -0.81015904     0.046088628   -0.68735412    -0.046139369  
   2774000   0.049805492   -0.80894247     0.043604682   -0.69067774    -0.046516044  
   2775000   0.053194551   -0.809714       0.047041895   -0.68293176    -0.030268276  
   2776000   0.054461022   -0.81129862     0.046829734   -0.68283006    -0.0075918132 
   2777000   0.053385976   -0.81148459     0.046826788   -0.68463051    -0.034336438  
   2778000   0.05469162    -0.80824265     0.046333625   -0.67992452    -0.025480971  
   2779000   0.053407562   -0.80874753     0.046589701   -0.68209817     0.00014045407
   2780000   0.056035844   -0.81056818     0.044430947   -0.6821377     -0.019677215  
   2781000   0.055107275   -0.80842483     0.047114297   -0.67870295    -0.003263687  
   2782000   0.054469925   -0.80898464     0.046346852   -0.68098561    -0.039877957  
   2783000   0.05150539    -0.80670034     0.048153796   -0.6813383     -0.0034855925 
   2784000   0.053041773   -0.80547338     0.046383854   -0.6795782     -0.010703522  
   2785000   0.053243867   -0.81100002     0.046369074   -0.68481667    -0.047953416  
   2786000   0.053749374   -0.81015943     0.044950329   -0.68463706    -0.0282945    
   2787000   0.053590279   -0.80766944     0.045796675   -0.68153921     0.014624647  
   2788000   0.053959268   -0.81027394     0.048236523   -0.68115073    -0.042700621  
   2789000   0.053143902   -0.80911604     0.047190659   -0.68226096    -0.030882535  
   2790000   0.05357937    -0.81244738     0.04622672    -0.68590346    -0.036249357  
   2791000   0.054287296   -0.80751676     0.048089383   -0.67804897    -0.0031486329 
   2792000   0.054022611   -0.80807138     0.044660058   -0.68242969    -0.031070221  
   2793000   0.053177121   -0.80693041     0.043231149   -0.68398504    -0.013416249  
   2794000   0.05357855    -0.80842122     0.044575834   -0.68352942    -0.062004642  
   2795000   0.054990841   -0.80783861     0.046174041   -0.67923152    -0.013824504  
   2796000   0.055001957   -0.80646379     0.046322408   -0.67769167    -0.026595503  
   2797000   0.054179282   -0.80838093     0.044020277   -0.68314416    -0.011838133  
   2798000   0.052578473   -0.80860266     0.045170777   -0.68461506    -0.012378353  
   2799000   0.054350163   -0.80583331     0.046295548   -0.67806511    -0.021211929  
   2800000   0.051637608   -0.80759401     0.047018034   -0.68316954    -0.0022497897 
   2801000   0.052276893   -0.8076811      0.043083271   -0.68623308    -0.016680512  
   2802000   0.055577004   -0.81028736     0.043077611   -0.68389803    -0.035877928  
   2803000   0.053444245   -0.80872405     0.045111718   -0.68349769    -0.025468568  
   2804000   0.051745137   -0.80807592     0.044729788   -0.6857785     -0.034231548  
   2805000   0.052465569   -0.80640175     0.04511709    -0.68263708    -0.034732504  
   2806000   0.054486468   -0.80778316     0.045015142   -0.68109105    -0.028387413  
   2807000   0.053355318   -0.80850249     0.042893352   -0.6856278     -0.019368453  
   2808000   0.053065036   -0.80506419     0.045515743   -0.68000225    -0.01661865   
   2809000   0.051960336   -0.80670018     0.046983503   -0.68182646     0.019290828  
   2810000   0.054724833   -0.8094119      0.044200347   -0.68317726    -0.025721013  
   2811000   0.054652915   -0.80976924     0.047347564   -0.68049519    -0.012035151  
   2812000   0.053300413   -0.80705782     0.046237239   -0.68092154    -0.0062440836 
   2813000   0.054619774   -0.80653188     0.046168384   -0.6784867     -0.033112977  
   2814000   0.053511139   -0.80966325     0.043928264   -0.68552007    -0.046647     
   2815000   0.053978796   -0.80720551     0.045549085   -0.68074047    -0.049423351  
   2816000   0.053130937   -0.80876541     0.045600719   -0.6835197     -0.044048466  
   2817000   0.054985892   -0.80707478     0.045137221   -0.67951193    -0.027065378  
   2818000   0.053157313   -0.80604553     0.045309207   -0.68105179    -0.010068574  
   2819000   0.056602842   -0.80748477     0.04374462    -0.67889067    -0.0023623051 
   2820000   0.055021515   -0.80861472     0.044459887   -0.68167581    -0.034312888  
   2821000   0.054560816   -0.80760764     0.048583932   -0.67723528    -0.040525682  
   2822000   0.054247933   -0.80774015     0.045426539   -0.68099421    -0.049169379  
   2823000   0.052191579   -0.80994623     0.045306285   -0.68640308    -0.015317133  
   2824000   0.05350172    -0.80859376     0.045648701   -0.68274425    -0.010867155  
   2825000   0.054596253   -0.80883701     0.043566813   -0.68342865    -0.038642552  
   2826000   0.053521616   -0.80942942     0.047923275   -0.68127551    -0.012699657  
   2827000   0.053088256   -0.81036859     0.043441314   -0.68734626    -0.0025274813 
   2828000   0.053491386   -0.81031879     0.046400432   -0.68373304    -0.032936253  
   2829000   0.052290846   -0.81019759     0.047163983   -0.68464794    -0.034734025  
   2830000   0.052928435   -0.80666188     0.046749296   -0.68057115    -0.045886668  
   2831000   0.054985918   -0.80572899     0.045623593   -0.67767973    -0.041927538  
   2832000   0.051863525   -0.80516949     0.04702692    -0.68039748    -0.0084783228 
   2833000   0.055002461   -0.80838334     0.045986436   -0.67994644    -0.033718599  
   2834000   0.05391229    -0.80798804     0.047090444   -0.68008133    -0.021769194  
   2835000   0.052929342   -0.80639428     0.045786687   -0.6812648      0.0059611735 
   2836000   0.053910797   -0.80910475     0.044465153   -0.68382558    -0.020165733  
   2837000   0.053453102   -0.80776442     0.046192198   -0.6814443     -0.0050555321 
   2838000   0.052623331   -0.80997689     0.045282649   -0.68581017    -0.021374777  
   2839000   0.054293504   -0.80862571     0.046475334   -0.68076266    -0.029839215  
   2840000   0.053942495   -0.80810634     0.045929245   -0.68131556    -0.027957676  
   2841000   0.055481162   -0.80949246     0.043524812   -0.6827996     -0.033121634  
   2842000   0.052147744   -0.80819352     0.046496219   -0.68352615    -0.015435641  
   2843000   0.053206848   -0.80797721     0.046998916   -0.68121951    -0.040305163  
   2844000   0.052196683   -0.80811287     0.046587052   -0.68328131     0.00066095239
   2845000   0.053115702   -0.80882035     0.046021251   -0.68317694    -0.008120537  
   2846000   0.053635234   -0.80855148     0.045418255   -0.68273228    -0.041503171  
   2847000   0.052296186   -0.80966603     0.047794748   -0.68347761    -0.019037725  
   2848000   0.052581377   -0.81007749     0.043944282   -0.68731203    -0.045267759  
   2849000   0.053494781   -0.80831776     0.046157642   -0.68196972    -0.046111875  
   2850000   0.052897149   -0.80725513     0.047827491   -0.68013311    -0.0094722853 
   2851000   0.054788336   -0.8060732      0.045651326   -0.67829239    -0.018722659  
   2852000   0.053268411   -0.80550461     0.046128423   -0.67952512     0.00077820543
   2853000   0.053766008   -0.80875502     0.043296755   -0.68486128    -0.037024986  
   2854000   0.053458037   -0.80922928     0.045811545   -0.68328241     0.0077914104 
   2855000   0.052006      -0.8092153      0.045450723   -0.6858059     -0.030044139  
   2856000   0.054746918   -0.80746843     0.045339313   -0.68006172     0.014383237  
   2857000   0.05443978    -0.80816782     0.045409565   -0.68115127    -0.019236288  
   2858000   0.053406084   -0.80673826     0.045263414   -0.6814174     -0.025303103  
   2859000   0.052976687   -0.81108655     0.047965949   -0.68370684    -0.017123767  
   2860000   0.054426506   -0.80796498     0.047467201   -0.67891069    -0.027932714  
   2861000   0.05597907    -0.80736913     0.046007784   -0.67744691    -0.0028399132 
   2862000   0.055647915   -0.80665133     0.044419423   -0.67881389    -0.028380072  
   2863000   0.054759686   -0.8077536      0.044392014   -0.68127505    -0.029849023  
   2864000   0.054481571   -0.80664494     0.045363472   -0.67961183    -0.023374107  
   2865000   0.054456739   -0.80930745     0.04696982    -0.68070522     0.0038749974 
   2866000   0.053552525   -0.80880733     0.04478031    -0.68375006    -0.0042520055 
   2867000   0.055386198   -0.80854746     0.04759928    -0.67792248    -0.027308478  
   2868000   0.053074927   -0.80895925     0.048381322   -0.6810169     -0.0016708964 
   2869000   0.055204708   -0.80765596     0.044086488   -0.68081583    -0.014567941  
   2870000   0.053694414   -0.80910636     0.044023868   -0.68459283    -0.019870243  
   2871000   0.052021046   -0.80987106     0.047216762   -0.68467307    -0.017725189  
   2872000   0.052231902   -0.8097198      0.044746932   -0.68667556     0.00097789354
   2873000   0.052780076   -0.80551578     0.04487703    -0.68151972    -0.013131594  
   2874000   0.053079578   -0.81029222     0.048016133   -0.68270809    -0.033168907  
   2875000   0.05592993    -0.80918332     0.048172007   -0.67717054    -0.0063136213 
   2876000   0.053842561   -0.80883456     0.045089458   -0.68303337    -0.023858309  
   2877000   0.052990167   -0.80683969     0.047534975   -0.67987075    -0.022998931  
   2878000   0.054223505   -0.80758557     0.045908861   -0.68039392    -0.01281608   
   2879000   0.054343487   -0.80774601     0.047528791   -0.67875458    -0.025943823  
   2880000   0.055316708   -0.80871674     0.045490496   -0.68030472    -0.0086944849 
   2881000   0.052807476   -0.80935965     0.047454846   -0.6827447     -0.037902197  
   2882000   0.053094609   -0.80606466     0.046856536   -0.6796176     -0.029522886  
   2883000   0.053655552   -0.80814959     0.046188578   -0.68152961    -0.014913666  
   2884000   0.052096314   -0.80934258     0.045591651   -0.68565688     0.0015447201 
   2885000   0.05048845    -0.80827463     0.045561722   -0.6870291     -0.037783171  
   2886000   0.051035135   -0.808251       0.045716025   -0.68603167     0.0025077113 
   2887000   0.054549178   -0.80721306     0.044160118   -0.68128197    -0.0015775862 
   2888000   0.051104796   -0.80867174     0.046945579   -0.68511842    -0.026846917  
   2889000   0.051761206   -0.80967067     0.045430908   -0.68664804    -0.0095550784 
   2890000   0.055101891   -0.80756259     0.045620961   -0.67934211    -0.015198661  
   2891000   0.053183418   -0.80958317     0.043909622   -0.68594989    -0.00080741101
   2892000   0.05158624    -0.80946949     0.0447712     -0.68736885    -0.012569037  
   2893000   0.054074226   -0.81196138     0.046608216   -0.68429416    -0.031549668  
   2894000   0.054911272   -0.81122796     0.046371068   -0.68254313    -0.071140679  
   2895000   0.054661115   -0.81112014     0.046912391   -0.68226897    -0.026218281  
   2896000   0.053588608   -0.80765502     0.043851243   -0.68347273    -0.016090357  
   2897000   0.053785894   -0.811536       0.046390628   -0.68451858    -0.035858738  
   2898000   0.053528309   -0.81111694     0.048344091   -0.68253219    -0.011759818  
   2899000   0.05351977    -0.81166954     0.044562062   -0.68687962    -0.0064542772 
   2900000   0.053356831   -0.80835565     0.046379517   -0.68199252    -0.048666434  
   2901000   0.052214858   -0.81065583     0.046606526   -0.68577754    -0.029710693  
   2902000   0.053718661   -0.80983236     0.042635746   -0.6866706     -0.019205546  
   2903000   0.05299744    -0.81133909     0.045999979   -0.68589424    -0.028729408  
   2904000   0.052438769   -0.80949618     0.04781624    -0.68307253    -0.038377138  
   2905000   0.053762762   -0.81157024     0.046140138   -0.68483799    -0.055007225  
   2906000   0.05248119    -0.80760525     0.045814318   -0.68311993    -0.035255427  
   2907000   0.052173553   -0.80662168     0.045737473   -0.68267437    -0.031413196  
   2908000   0.053133553   -0.80863097     0.04415301    -0.68482905    -0.01891091   
   2909000   0.055621903   -0.81132048     0.044449788   -0.68349167    -0.033657334  
   2910000   0.05333525    -0.80918977     0.044444075   -0.68479443    -0.028912132  
   2911000   0.053840695   -0.80779376     0.044427723   -0.6826571     -0.026494986  
   2912000   0.052808036   -0.81146668     0.046248508   -0.68605723    -0.021065047  
   2913000   0.054018292   -0.80763232     0.04683383    -0.67982333    -0.034276141  
   2914000   0.052005523   -0.81075381     0.046915253   -0.6858806      0.0042946612 
   2915000   0.052889175   -0.80645986     0.045944167   -0.68123312    -0.014250715  
   2916000   0.05329318    -0.80734469     0.047513652   -0.67994284    -0.032544725  
   2917000   0.053543904   -0.80990201     0.044445614   -0.68519235    -0.054292403  
   2918000   0.052387681   -0.80889526     0.043032213   -0.68733223    -0.04531984   
   2919000   0.054290102   -0.81028759     0.045698821   -0.68320616    -0.027341765  
   2920000   0.055374631   -0.80922091     0.046370532   -0.67984202    -0.033644559  
   2921000   0.052413017   -0.8096558      0.048467254   -0.68261974    -0.056084621  
   2922000   0.053017223   -0.81139103     0.048759617   -0.68315689    -0.041595786  
   2923000   0.053333127   -0.81190483     0.045292131   -0.68666462    -0.020172306  
   2924000   0.052377915   -0.80756218     0.044059633   -0.68498637    -0.01747846   
   2925000   0.051825424   -0.80876651     0.044282273   -0.68679625    -0.013089445  
   2926000   0.050981058   -0.80954133     0.04537693    -0.68774215    -0.029579813  
   2927000   0.053271193   -0.80831591     0.042626865   -0.68583381    -0.0012351421 
   2928000   0.052948136   -0.80825014     0.045678563   -0.68320061    -0.039288432  
   2929000   0.053105545   -0.81058633     0.048155551   -0.68282386    -0.068640793  
   2930000   0.05315579    -0.81034275     0.047158904   -0.6835016     -0.030323979  
   2931000   0.05280237    -0.81043491     0.046070755   -0.6852117     -0.023675928  
   2932000   0.054417607   -0.80981337     0.045517845   -0.68272178    -0.0035362102 
   2933000   0.052315658   -0.81102026     0.045868577   -0.68672883    -0.045665207  
   2934000   0.052082496   -0.81066488     0.044303778   -0.68828776    -0.01414049   
   2935000   0.051320933   -0.81051253     0.044502032   -0.68907877    -0.03926207   
   2936000   0.05357055    -0.81085522     0.044529443   -0.68602179    -0.048210998  
   2937000   0.053505808   -0.80768575     0.045569582   -0.68190924    -0.019069457  
   2938000   0.050924269   -0.80854263     0.044748698   -0.68745681    -0.032032204  
   2939000   0.053923212   -0.80927024     0.043860999   -0.6845766     -0.034394072  
   2940000   0.052715004   -0.81214977     0.046325232   -0.68680305    -0.065914915  
   2941000   0.053624282   -0.80989156     0.045014718   -0.68449231    -0.034281918  
   2942000   0.051488488   -0.80881841     0.04684298    -0.68479253    -0.057697363  
   2943000   0.052474102   -0.81152423     0.047113107   -0.68575075    -0.028306201  
   2944000   0.052892934   -0.81154827     0.046491296   -0.68576876    -0.055702744  
   2945000   0.054058275   -0.81046818     0.047160702   -0.68227238    -0.032424701  
   2946000   0.053921264   -0.81127187     0.048821332   -0.68162082    -0.016741428  
   2947000   0.055799298   -0.80815839     0.047855578   -0.67665786    -0.0045273191 
   2948000   0.055098047   -0.81025062     0.046699548   -0.68095732    -0.019670844  
   2949000   0.053172445   -0.80928595     0.045222493   -0.68435625    -0.0059325877 
   2950000   0.052649559   -0.81096679     0.04608848    -0.68595493    -0.036473158  
   2951000   0.053691074   -0.81179687     0.044171654   -0.68714056    -0.017652005  
   2952000   0.05309469    -0.8117549      0.04476101    -0.68740324    -0.025254676  
   2953000   0.052087575   -0.80858494     0.045414811   -0.68508918    -0.015212737  
   2954000   0.052003666   -0.80934617     0.044225193   -0.68716581    -0.0039635988 
   2955000   0.050942658   -0.81081773     0.047113622   -0.68733943    -0.0043352806 
   2956000   0.052056085   -0.8133668      0.047603079   -0.68772997    -0.025131367  
   2957000   0.052527721   -0.80878383     0.045924784   -0.68411829    -0.0089767514 
   2958000   0.053447795   -0.8072653      0.048137276   -0.67900805    -0.014400361  
   2959000   0.052851531   -0.80976214     0.049950253   -0.68058573    -0.0077138117 
   2960000   0.054441881   -0.81098857     0.0482316     -0.68114683    -0.042252447  
   2961000   0.055758944   -0.80980902     0.047607718   -0.67861684    -0.023244098  
   2962000   0.052215062   -0.81113405     0.046119217   -0.68674277     0.0022220163 
   2963000   0.050483033   -0.81031992     0.04775784    -0.68688639    -0.06002534   
   2964000   0.05175065    -0.81174795     0.046885052   -0.68728701    -0.03699865   
   2965000   0.053747494   -0.80962797     0.043413278   -0.68564547    -0.015786892  
   2966000   0.051174733   -0.80697189     0.047477902   -0.68278141    -0.040120129  
   2967000   0.054694817   -0.8120097      0.045835651   -0.68418476    -0.013490956  
   2968000   0.054431322   -0.8104251      0.045188206   -0.68364258    -0.025451573  
   2969000   0.053913371   -0.81000519     0.045915295   -0.68327202    -0.047725944  
   2970000   0.052100337   -0.81134343     0.049270297   -0.68397305    -0.030703705  
   2971000   0.054488082   -0.8100073      0.046172815   -0.68215509    -0.038913291  
   2972000   0.054572327   -0.81021693     0.048437836   -0.67997342    -0.028819031  
   2973000   0.054669748   -0.8099508      0.046077699   -0.68192138    -0.0073505505 
   2974000   0.052738164   -0.81210245     0.046480149   -0.68656609    -0.030295141  
   2975000   0.051482882   -0.81182777     0.046376084   -0.68827719    -0.045303261  
   2976000   0.052711932   -0.80994141     0.048081281   -0.68284325    -0.028377539  
   2977000   0.053604317   -0.80780454     0.045548465   -0.68190148    -0.017096816  
   2978000   0.052653778   -0.81026439     0.048996207   -0.68233847    -0.058222953  
   2979000   0.053782003   -0.8094618      0.044999322   -0.68384153    -0.031727563  
   2980000   0.053184406   -0.81058287     0.046955305   -0.68390243    -0.062207696  
   2981000   0.053678694   -0.8109773      0.045159302   -0.6853519     -0.0097295567 
   2982000   0.052041323   -0.81160478     0.043922902   -0.68967025    -0.031561865  
   2983000   0.052210163   -0.81379933     0.046164512   -0.6893701     -0.035055441  
   2984000   0.053125685   -0.81043765     0.045808375   -0.68499215    -0.022454324  
   2985000   0.052436155   -0.81034284     0.045335317   -0.68640404     0.011943798  
   2986000   0.054831599   -0.8117547      0.045254465   -0.6843059     -0.043227022  
   2987000   0.053496351   -0.81212607     0.046229106   -0.6857042     -0.034183009  
   2988000   0.05231464    -0.81153237     0.048819728   -0.68429131    -0.0043749988 
   2989000   0.052888334   -0.81217186     0.048196593   -0.68469394    -0.02406708   
   2990000   0.053969662   -0.80908732     0.048894224   -0.67929083     0.0057824045 
   2991000   0.052533957   -0.80926665     0.046396784   -0.68411977    -0.027854353  
   2992000   0.053125202   -0.81606362     0.045287168   -0.69114006    -0.025065303  
   2993000   0.053205922   -0.81229664     0.047632156   -0.68490709    -0.033610839  
   2994000   0.053619164   -0.81148332     0.047798219   -0.68330825    -0.023612184  
   2995000   0.053303229   -0.8091902      0.047413608   -0.68187333    -0.015602319  
   2996000   0.054921105   -0.81100577     0.047087241   -0.68159002    -0.030532248  
   2997000   0.053027851   -0.80958073     0.047039646   -0.68305062    -0.0093928943 
   2998000   0.053542083   -0.80822829     0.042754407   -0.68521257    -0.022187886  
   2999000   0.052890656   -0.81040307     0.045715893   -0.68540237    -0.020376005  
   3000000   0.05156857    -0.81055029     0.047193945   -0.68605339    -0.011408597  
   3001000   0.054574477   -0.81288905     0.046750335   -0.68432982    -0.040449719  
   3002000   0.054545474   -0.8128038      0.046035806   -0.68500257    -0.022382392  
   3003000   0.053264915   -0.81299064     0.049357359   -0.68378746    -0.014624805  
   3004000   0.052958982   -0.81256222     0.045687766   -0.68748724    -0.0052602912 
   3005000   0.051289069   -0.8126015      0.045216739   -0.69050079    -0.032029472  
   3006000   0.050807318   -0.81265615     0.043873343   -0.692621      -0.027889264  
   3007000   0.052082979   -0.81124557     0.045983625   -0.68718788    -0.043179588  
   3008000   0.052310067   -0.80860307     0.04688905    -0.68329955    -0.035621177  
   3009000   0.056576909   -0.80950516     0.047063179   -0.67763137    -0.013651124  
   3010000   0.053692837   -0.80852331     0.047653024   -0.68038299    -0.034042496  
   3011000   0.054611268   -0.80869622     0.045815439   -0.68101673    -0.024240272  
   3012000   0.052469746   -0.81058378     0.046578019   -0.68535192    -0.017611735  
   3013000   0.055068156   -0.80933724     0.044757919   -0.68203038    -0.0162818    
   3014000   0.052832176   -0.80971945     0.046761516   -0.6837608     -0.018005125  
   3015000   0.055449285   -0.81115454     0.045490515   -0.68254376     0.017524201  
   3016000   0.052758009   -0.80997408     0.047132339   -0.68375578    -0.023474152  
   3017000   0.052691822   -0.81284939     0.044704569   -0.68915809     0.0013489957 
   3018000   0.05233686    -0.81267244     0.045052819   -0.68916498    -0.021735197  
   3019000   0.053142189   -0.81098269     0.046755426   -0.68456541    -0.016560079  
   3020000   0.053417866   -0.81083316     0.045719068   -0.68503899    -0.0093361633 
   3021000   0.053848614   -0.81115566     0.0462752     -0.68415965    -0.019796379  
   3022000   0.053141888   -0.81236612     0.047674315   -0.6850304     -0.026869429  
   3023000   0.055194279   -0.81218482     0.048288235   -0.68115858    -0.062083341  
   3024000   0.052810396   -0.81154891     0.049561728   -0.68282269    -0.054416205  
   3025000   0.054513162   -0.81035188     0.046995431   -0.68163946     0.0072793009 
   3026000   0.053552793   -0.80935355     0.04625646    -0.68281972     0.0055977962 
   3027000   0.054073511   -0.80803291     0.046247754   -0.68072722    -0.006128815  
   3028000   0.053667281   -0.8116148      0.046200501   -0.68496532    -0.00037698055
   3029000   0.052521797   -0.81218027     0.046616633   -0.68683177    -0.024522844  
   3030000   0.05259467    -0.81184461     0.046719518   -0.68628398    -0.0041251601 
   3031000   0.053920963   -0.81239172     0.045793293   -0.68576916    -0.056233654  
   3032000   0.053375303   -0.81200383     0.04497676    -0.68701577    -0.022764552  
   3033000   0.052719211   -0.81083452     0.045511131   -0.68629559    -0.015431717  
   3034000   0.052126114   -0.81087965     0.045549722   -0.6871912     -0.01600093   
   3035000   0.054243324   -0.81281984     0.044868214   -0.68663913    -0.034427084  
   3036000   0.055215524   -0.81163914     0.045766983   -0.68310231    -0.056670684  
   3037000   0.053994327   -0.81167826     0.048570206   -0.68216882    -0.015444125  
   3038000   0.05221746    -0.81288823     0.045756335   -0.68885624    -0.013469727  
   3039000   0.051950964   -0.81319742     0.047762324   -0.68755892    -0.036380106  
   3040000   0.051394598   -0.81195625     0.044984618   -0.68992947    -0.048629259  
   3041000   0.052934789   -0.81257203     0.045822979   -0.68739809    -0.051544114  
   3042000   0.054572243   -0.81261356     0.045094938   -0.68571307    -0.010667942  
   3043000   0.053632742   -0.81265444     0.046684888   -0.68557234    -0.015415564  
   3044000   0.050429157   -0.80805642     0.045668963   -0.68679253    -0.01523738   
   3045000   0.053050308   -0.81046639     0.044768548   -0.68617371    -0.028492841  
   3046000   0.053776533   -0.81035688     0.043630992   -0.68611313    -0.03508458   
   3047000   0.054629137   -0.81071296     0.045883907   -0.68293822    -0.0083868609 
   3048000   0.053312682   -0.81020238     0.045880107   -0.68440484    -0.024859041  
   3049000   0.054578781   -0.80943838     0.044676061   -0.68294697    -0.015268174  
   3050000   0.054379998   -0.81042228     0.045644234   -0.68326067    -0.018392076  
   3051000   0.054273849   -0.80917908     0.046922052   -0.68089877    -0.015513806  
   3052000   0.054546273   -0.81363363     0.04580641    -0.68606059    -0.021678074  
   3053000   0.051849883   -0.81322417     0.047426165   -0.68807336    -0.043673214  
   3054000   0.053178617   -0.81199095     0.046606284   -0.6856682     -0.008584149  
   3055000   0.052923768   -0.81298153     0.048572125   -0.68507497    -0.037728729  
   3056000   0.054328601   -0.81084259     0.045773842   -0.68362842    -0.0077940256 
   3057000   0.052921743   -0.81405512     0.045465254   -0.68925847    -0.058489099  
   3058000   0.051364415   -0.81418995     0.048141684   -0.68905135    -0.03516716   
   3059000   0.052002021   -0.81205925     0.044075708   -0.69003083    -0.014676859  
   3060000   0.053014107   -0.81192574     0.044230755   -0.68822513     0.010148975  
   3061000   0.053174742   -0.81186965     0.04536612    -0.68679287    -0.041465529  
   3062000   0.051295901   -0.81127783     0.046584976   -0.68779865    -0.018535599  
   3063000   0.051135536   -0.8133937      0.043722468   -0.69301741    -0.029996714  
   3064000   0.053581576   -0.81115904     0.045358449   -0.68548008     0.01018677   
   3065000   0.05422628    -0.81137592     0.043847507   -0.68624147    -0.054667868  
   3066000   0.053054944   -0.80969762     0.045083231   -0.68508331    -0.018720942  
   3067000   0.052425428   -0.81181309     0.046248503   -0.68697718    -0.016291851  
   3068000   0.051667623   -0.81222843     0.046176516   -0.68860048    -0.032757372  
   3069000   0.054372672   -0.81015168     0.046216784   -0.68242851    -0.026899031  
   3070000   0.053841285   -0.81278832     0.047459785   -0.68461872    -0.042883812  
   3071000   0.052410362   -0.81011619     0.044893313   -0.68665805    -0.025535766  
   3072000   0.055479643   -0.81272122     0.047010403   -0.68254504    -0.033064421  
   3073000   0.054723176   -0.81010406     0.045748643   -0.68232361    -0.053458739  
   3074000   0.053321905   -0.81197075     0.047214096   -0.6848254     -0.01544217   
   3075000   0.05555938    -0.81222948     0.047730488   -0.68121369    -0.030394732  
   3076000   0.053309588   -0.81054101     0.045519206   -0.68510901    -0.030330338  
   3077000   0.052982789   -0.81108927     0.04288718    -0.68877918    -0.024517109  
   3078000   0.053398885   -0.81309347     0.047043245   -0.68600358    -0.017460869  
   3079000   0.053783681   -0.81055459     0.045277895   -0.68465322    -0.023986431  
   3080000   0.054170413   -0.81149996     0.045161125   -0.68513563    -0.0056615813 
   3081000   0.052039075   -0.81273376     0.04714126    -0.68758425    -0.026123825  
   3082000   0.05145899    -0.8122274      0.046120509   -0.6889682     -0.0077304116 
   3083000   0.05360464    -0.81129522     0.044651962   -0.68628817    -0.021079944  
   3084000   0.053819611   -0.81150374     0.044287231   -0.68653918     0.00011937373
   3085000   0.053224486   -0.81213328     0.046566726   -0.68578134    -0.010382722  
   3086000   0.052993744   -0.81198478     0.044471319   -0.68807413    -0.0072913317 
   3087000   0.052136661   -0.81197319     0.045134865   -0.68868379    -0.011268252  
   3088000   0.055101432   -0.81243245     0.047515217   -0.68231841    -0.021157414  
   3089000   0.055079459   -0.80947513     0.044854342   -0.6820549     -0.015428793  
   3090000   0.053888657   -0.81079952     0.046442808   -0.68357588    -0.015855682  
   3091000   0.054735944   -0.81358488     0.047986092   -0.68354784    -0.0028537141 
   3092000   0.053736669   -0.81273693     0.044954713   -0.68722921    -0.026890368  
   3093000   0.054054741   -0.8120675      0.044216827   -0.68682087    -0.0064636211 
   3094000   0.052312471   -0.81201165     0.044263972   -0.6893296     -0.019471236  
   3095000   0.053200233   -0.80983215     0.04821555    -0.68186773    -0.0062303119 
   3096000   0.05489932    -0.81330699     0.044678249   -0.68633289    -0.01571425   
   3097000   0.053822934   -0.81184901     0.045616247   -0.68555045     0.0061700081 
   3098000   0.052895109   -0.81183112     0.04755152    -0.68498812    -0.036004199  
   3099000   0.053542421   -0.81016229     0.047899889   -0.68200059    -0.01772371   
   3100000   0.053503788   -0.81193587     0.045396073   -0.68633589    -0.015361656  
   3101000   0.054257829   -0.81277325     0.042817718   -0.6886213     -0.025226419  
   3102000   0.052901081   -0.81230542     0.044870518   -0.68813447    -0.037653249  
   3103000   0.05368089    -0.81278965     0.046541651   -0.68577861    -0.022062258  
   3104000   0.052048212   -0.81187083     0.046102997   -0.68774589    -0.017448464  
   3105000   0.052558181   -0.81004219     0.043616147   -0.68763964    -0.029017638  
   3106000   0.055210319   -0.81265732     0.045293848   -0.68460142    -0.0082195786 
   3107000   0.051567715   -0.81082364     0.045528717   -0.68799325     0.00087584494
   3108000   0.053346277   -0.81287956     0.045953468   -0.6869583     -0.026711798  
   3109000   0.05268585    -0.8096123      0.045871469   -0.68476304    -0.011737767  
   3110000   0.053790931   -0.81179367     0.045931945   -0.68522739    -0.051490633  
   3111000   0.054046872   -0.8120865      0.045550301   -0.6855182     -0.036057404  
   3112000   0.053451753   -0.81148914     0.047879528   -0.68348371    -0.029212957  
   3113000   0.054816117   -0.81040019     0.046251091   -0.68197798    -0.0099528451 
   3114000   0.052239493   -0.81067289     0.044414041   -0.68795017    -0.046159549  
   3115000   0.052870611   -0.81061971     0.044860271   -0.68650468    -0.042174794  
   3116000   0.05528059    -0.80835327     0.045879418   -0.67960646    -0.022727289  
   3117000   0.054921845   -0.81060275     0.045173144   -0.68309999    -0.021447476  
   3118000   0.052948625   -0.81284059     0.047538413   -0.68593048     0.0073758402 
   3119000   0.052938552   -0.81006385     0.045699325   -0.68500792    -0.032284365  
   3120000   0.05281055    -0.81096051     0.045047729   -0.68674806    -0.016608328  
   3121000   0.053082331   -0.81201345     0.046559067   -0.68588226    -0.020193113  
   3122000   0.054723268   -0.80725864     0.04662828    -0.67859841    -0.022431143  
   3123000   0.053671791   -0.81165817     0.045396569   -0.68580586    -0.043464664  
   3124000   0.05459259    -0.81106243     0.044023712   -0.68520267    -0.018639715  
   3125000   0.052330207   -0.81256125     0.045540742   -0.68857584    -0.02087518   
   3126000   0.053920322   -0.81321514     0.042616187   -0.68977065    -0.01365695   
   3127000   0.051990079   -0.81103399     0.046229385   -0.68686979    -0.018773602  
   3128000   0.052752419   -0.81221946     0.043863559   -0.68927832    -0.054845938  
   3129000   0.05582144    -0.80991817     0.045346657   -0.68089337    -0.0082484139 
   3130000   0.053627559   -0.81094161     0.045764584   -0.68478759    -0.043842441  
   3131000   0.053496102   -0.81268048     0.043872847   -0.68861525    -0.041650786  
   3132000   0.05449529    -0.81232163     0.044740727   -0.68589071    -0.032025456  
   3133000   0.054331903   -0.81093527     0.045340641   -0.68414935    -0.039532515  
   3134000   0.051748628   -0.81168638     0.044337674   -0.68977584    -0.059903257  
   3135000   0.052279355   -0.81436836     0.046405254   -0.68959467    -0.032581962  
   3136000   0.053042474   -0.81223494     0.046533147   -0.68618941    -0.075889171  
   3137000   0.05297123    -0.81019553     0.04535385    -0.6854361     -0.014251553  
   3138000   0.052578128   -0.80995058     0.043302281   -0.68783199    -0.029856555  
   3139000   0.055205658   -0.81122348     0.046229064   -0.68223936    -0.056743425  
   3140000   0.054520979   -0.81087826     0.04577477    -0.68337479    -0.024382788  
   3141000   0.053415977   -0.81257019     0.045526794   -0.68697113    -0.048803185  
   3142000   0.053317488   -0.8136109      0.044498848   -0.68918742    -0.00088284934
   3143000   0.055511021   -0.81163189     0.044814864   -0.68360421    -0.0049345493 
   3144000   0.05397817    -0.81186633     0.048186615   -0.68276469    -0.00098367743
   3145000   0.055163208   -0.81034567     0.047975037   -0.67967921    -0.048610402  
   3146000   0.054073252   -0.80861753     0.04594441    -0.68161557    -0.018390775  
   3147000   0.054593975   -0.80984713     0.046596504   -0.68141249    -0.047030008  
   3148000   0.055211668   -0.81170009     0.045777551   -0.68315847    -0.045860671  
   3149000   0.054582262   -0.81147229     0.044085403   -0.68556631    -0.032867555  
   3150000   0.051595884   -0.81075719     0.045743531   -0.68766976    -0.035033526  
   3151000   0.054240411   -0.80966797     0.045428185   -0.68293166    -0.017733163  
   3152000   0.054540695   -0.8106887      0.045798783   -0.68313165    -0.025867913  
   3153000   0.055227229   -0.81152503     0.047934954   -0.68080268    -0.024128245  
   3154000   0.053915863   -0.81322891     0.045673848   -0.68673345     0.0085250751 
   3155000   0.054531572   -0.81113675     0.045922836   -0.68346933    -0.028981213  
   3156000   0.054483833   -0.81321873     0.045847612   -0.6856981     -0.042738731  
   3157000   0.055328875   -0.81226446     0.045299336   -0.68402536    -0.022936153  
   3158000   0.054556959   -0.81294824     0.046551119   -0.68461448    -0.023043754  
   3159000   0.054705167   -0.8115574      0.043992925   -0.68555966    -0.03146581   
   3160000   0.051477649   -0.80850657     0.044867775   -0.68647214     0.0019648359 
   3161000   0.052657031   -0.80917681     0.043540521   -0.6867017     -0.053010527  
   3162000   0.054066879   -0.81277377     0.044067513   -0.68765826    -0.023246999  
   3163000   0.051759048   -0.81192686     0.044861573   -0.6894768     -0.027736361  
   3164000   0.054497513   -0.81278994     0.042850471   -0.68824594    -0.029650749  
   3165000   0.053352402   -0.81082946     0.044097013   -0.68675548    -0.065968552  
   3166000   0.054088789   -0.81169201     0.045791995   -0.68481917    -0.019194736  
   3167000   0.054109828   -0.81075579     0.045588442   -0.68405496    -0.024010101  
   3168000   0.054326539   -0.81191882     0.045755267   -0.68472631    -0.030896579  
   3169000   0.053105956   -0.81359385     0.046377605   -0.6876087      0.00098554488
   3170000   0.055926783   -0.80976264     0.045423808   -0.68050278    -0.01799942   
   3171000   0.053781119   -0.81229862     0.04403302    -0.68764597    -0.020376811  
   3172000   0.054699264   -0.81513539     0.045552157   -0.68758727    -0.024542657  
   3173000   0.052590984   -0.8107192      0.045436602   -0.68644702    -0.038199499  
   3174000   0.05074515    -0.81246575     0.044602855   -0.69179427    -0.008901376  
   3175000   0.054091281   -0.81099388     0.043072221   -0.68683708    -0.029845289  
   3176000   0.053403505   -0.81200418     0.045347559   -0.68660304    -0.02817567   
   3177000   0.052186809   -0.81018974     0.045934279   -0.68602575    -0.0085937358 
   3178000   0.053386043   -0.81142762     0.045660656   -0.68573956    -0.039906895  
   3179000   0.052269267   -0.80817948     0.045381893   -0.68444427    -0.011341873  
   3180000   0.054552807   -0.81112401     0.04600092    -0.68334667    -0.011482791  
   3181000   0.053293576   -0.81259989     0.046685472   -0.68602563    -0.048221496  
   3182000   0.053651013   -0.81163909     0.0453951     -0.68581939    -0.0078140416 
   3183000   0.05245982    -0.81309532     0.046097141   -0.68835922    -0.0080853284 
   3184000   0.053189994   -0.8128644      0.045234199   -0.68789668    -0.015179784  
   3185000   0.054759458   -0.81313279     0.047263833   -0.68378276     0.0077749995 
   3186000   0.053875564   -0.81135536     0.045771537   -0.68482262    -0.0088063293 
   3187000   0.051829824   -0.81044386     0.047253322   -0.68549597     0.001165458  
   3188000   0.053495869   -0.81138097     0.046295963   -0.68489297    -0.0065842316 
   3189000   0.054440543   -0.8102044      0.046551396   -0.68204488    -0.031283277  
   3190000   0.054379788   -0.80857713     0.047862931   -0.67919715     0.0048574148 
   3191000   0.053772438   -0.81231319     0.044567592   -0.68713898    -0.021242286  
   3192000   0.052718882   -0.81213433     0.046578402   -0.68652862    -0.048173507  
   3193000   0.054887214   -0.81100373     0.04921654    -0.67950949    -0.022506539  
   3194000   0.055044481   -0.8112369      0.046244616   -0.68247883    -0.050481783  
   3195000   0.054704098   -0.81287102     0.044965671   -0.68590214    -0.041927895  
   3196000   0.052297834   -0.8084077      0.045132877   -0.68487868    -0.026673515  
   3197000   0.052288806   -0.81221715     0.044468227   -0.68936631    -0.020553587  
   3198000   0.054135627   -0.8098247      0.043672637   -0.68500101     0.001701283  
   3199000   0.053901837   -0.81146824     0.047206269   -0.68346137    -0.0063298102 
   3200000   0.052791502   -0.8115338      0.04509488    -0.68730276    -0.019271969  
   3201000   0.052986209   -0.81259188     0.045120256   -0.68804358    -0.0031011472 
   3202000   0.052015488   -0.8111308      0.04490491    -0.68825299    -0.0010887623 
   3203000   0.051442485   -0.81154105     0.045273099   -0.68915401    -0.02105551   
   3204000   0.050154259   -0.80817627     0.044249542   -0.68874387    -0.0085457664 
   3205000   0.053329287   -0.81090918     0.045417406   -0.68554945    -0.0014925115 
   3206000   0.052534561   -0.81301563     0.047058449   -0.68720618    -0.012226123  
   3207000   0.053556057   -0.81244805     0.045013659   -0.68715213     0.0055339033 
   3208000   0.05345692    -0.81082702     0.048704296   -0.68198907    -0.027376084  
   3209000   0.053072916   -0.81145431     0.046583028   -0.68531326    -0.027990637  
   3210000   0.053093896   -0.80951014     0.045650226   -0.68427045    -0.01191232   
   3211000   0.053842348   -0.81188806     0.04684039    -0.68433625    -0.0070672164 
   3212000   0.052924272   -0.8124487      0.04656283    -0.68655068     0.013294686  
   3213000   0.052237283   -0.81170487     0.044388332   -0.68901117     0.019168464  
   3214000   0.054358536   -0.80988289     0.046985473   -0.68141222    -0.02607573   
   3215000   0.054084088   -0.8126793      0.045977005   -0.68562851    -0.024952767  
   3216000   0.053929527   -0.81327342     0.045686202   -0.68674512     0.006471402  
   3217000   0.052651823   -0.81175299     0.047533058   -0.68529315    -0.027788814  
   3218000   0.053157313   -0.81202138     0.047705239   -0.68463162     0.012914006  
   3219000   0.053592786   -0.81224662     0.046669355   -0.68523995     0.0047208518 
   3220000   0.05141487    -0.81112424     0.047063134   -0.68698856    -0.026693073  
   3221000   0.053302353   -0.81133438     0.04673184    -0.68470059    -0.03970026   
   3222000   0.053521348   -0.80926803     0.04563711    -0.68340069    -0.0060693789 
   3223000   0.052983169   -0.81114159     0.04519205    -0.68652606    -0.00073926498
   3224000   0.054018881   -0.8121874      0.045698452   -0.6855129     -0.03608202   
   3225000   0.054275757   -0.81204682     0.046065834   -0.68461988     0.013421498  
   3226000   0.053679101   -0.81224771     0.045574641   -0.68620636    -0.0064786464 
   3227000   0.053207475   -0.81197051     0.044577419   -0.68763336    -0.0040848581 
   3228000   0.053718983   -0.8110026      0.04529018    -0.68518593    -0.015444192  
   3229000   0.052852137   -0.81466232     0.046767601   -0.68866767    -0.029498675  
   3230000   0.05279242    -0.81182204     0.042873985   -0.68981051    -0.0048476094 
   3231000   0.052938916   -0.81117005     0.045321147   -0.68649176     0.0064032842 
   3232000   0.054291168   -0.81021291     0.046028931   -0.68279976    -0.0027330232 
   3233000   0.053281898   -0.81441848     0.045611008   -0.68893619    -0.024674077  
   3234000   0.053510934   -0.81119911     0.045014063   -0.68597043    -0.0088346638 
   3235000   0.053252942   -0.81341554     0.043575846   -0.69001182    -0.014338186  
   3236000   0.052181218   -0.81355694     0.044132985   -0.69120262    -0.0052730204 
   3237000   0.052153987   -0.80983387     0.045586538   -0.68606682    -0.01343086   
   3238000   0.053989791   -0.81035653     0.045528765   -0.68389532    -0.037283044  
   3239000   0.055574389   -0.81408424     0.048155189   -0.68262125    -0.058541542  
   3240000   0.054112568   -0.81374695     0.04659807    -0.68603239    -0.047771191  
   3241000   0.054632699   -0.81110615     0.044788376   -0.68442159    -0.013731088  
   3242000   0.054362851   -0.80792063     0.045126108   -0.68130286    -0.0050259093 
   3243000   0.05211957    -0.8135103      0.047925338   -0.68745604     0.02609203   
   3244000   0.051529408   -0.81063594     0.045213767   -0.68817793    -0.021479809  
   3245000   0.052388799   -0.81223984     0.044679924   -0.68902742    -0.015583052  
   3246000   0.054360016   -0.8118543      0.044965602   -0.68540128    -0.0040399961 
   3247000   0.052314936   -0.81072128     0.045340266   -0.68695924    -0.020084192  
   3248000   0.054189021   -0.81003423     0.041818094   -0.68698504     0.015952326  
   3249000   0.050737071   -0.81106923     0.044897221   -0.6901155     -0.014433717  
   3250000   0.053368157   -0.81274652     0.044806641   -0.68793929    -0.017954417  
   3251000   0.053277343   -0.81107713     0.046046218   -0.68516646    -0.014817275  
   3252000   0.053957543   -0.80849697     0.044915002   -0.68269787    -0.017511034  
   3253000   0.054079103   -0.81389236     0.045191588   -0.68763445    -0.0046835228 
   3254000   0.053706071   -0.80947555     0.04306687    -0.68590155     0.0050751246 
   3255000   0.052297773   -0.81137819     0.045536322   -0.68744582    -0.018398158  
   3256000   0.052004266   -0.8125233      0.045785928   -0.6887813     -0.031253266  
   3257000   0.052059101   -0.81567694     0.047419385   -0.69021928    -0.0020245245 
   3258000   0.053338111   -0.81124054     0.044653869   -0.68663112    -0.014271798  
   3259000   0.054777375   -0.8132296      0.044925868   -0.68619068    -0.015048986  
   3260000   0.054303554   -0.81523158     0.046835335   -0.68699346    -0.015550092  
   3261000   0.053202217   -0.81147259     0.044415912   -0.68730484    -0.016283248  
   3262000   0.051829573   -0.81407985     0.043377337   -0.69300832     0.003225921  
   3263000   0.052632464   -0.81294651     0.043807256   -0.69024149    -0.020545366  
   3264000   0.053640777   -0.81044532     0.044468907   -0.68556715    -0.0060971745 
   3265000   0.052285941   -0.81162089     0.045073033   -0.68816955    -0.026387494  
   3266000   0.053052403   -0.81280239     0.045504285   -0.68777084    -0.026670402  
   3267000   0.052527663   -0.81150154     0.042093689   -0.69066719    -0.03201534   
   3268000   0.053157492   -0.81338256     0.042834735   -0.69086303    -0.0087832241 
   3269000   0.052658172   -0.81277743     0.046041062   -0.68780006    -0.024191911  
   3270000   0.053457443   -0.8119263      0.043938139   -0.68785373     0.00075564062
   3271000   0.05328595    -0.81393076     0.046325924   -0.68772748    -0.0012628335 
   3272000   0.055662186   -0.81075135     0.046035276   -0.68127666    -0.024151229  
   3273000   0.056712576   -0.81173505     0.046726893   -0.67999418    -0.014673457  
   3274000   0.053221022   -0.80882532     0.045317421   -0.68372787    -0.010419865  
   3275000   0.051560882   -0.81384098     0.044861831   -0.69168773    -0.026320256  
   3276000   0.052080886   -0.81213072     0.045423695   -0.6886361     -0.011496572  
   3277000   0.051624722   -0.81132108     0.044997178   -0.68893678    -0.024874855  
   3278000   0.053420166   -0.8138109      0.046496431   -0.68723592    -0.012853502  
   3279000   0.053869916   -0.8145168      0.04519249    -0.68857157    -0.0084166345 
   3280000   0.053639161   -0.81324658     0.043639805   -0.68919994     0.0046683139 
   3281000   0.053939058   -0.81330142     0.047009204   -0.68543582    -0.0107823    
   3282000   0.053320611   -0.81589867     0.046231328   -0.68973803    -0.022544838  
   3283000   0.052730667   -0.81332234     0.045181044   -0.68909632    -0.027433789  
   3284000   0.055138866   -0.8168298      0.044782873   -0.68939199    -0.01456859   
   3285000   0.055487874   -0.81498773     0.04876451    -0.6830451     -0.027086417  
   3286000   0.054310671   -0.81528634     0.045264881   -0.68860801    -0.0044613714 
   3287000   0.053401668   -0.8145456      0.045831973   -0.68866281    -0.044038439  
   3288000   0.054455517   -0.81249865     0.044579328   -0.68628875    -0.015412909  
   3289000   0.051049115   -0.80809607     0.04665497    -0.68491683    -0.007352566  
   3290000   0.053197415   -0.81208104     0.045898624   -0.68643777     0.0015674318 
   3291000   0.05306278    -0.81180226     0.047122268   -0.68513717     0.0096494865 
   3292000   0.054123273   -0.81232535     0.045622382   -0.68557043    -0.0025577621 
   3293000   0.055141609   -0.8129601      0.046263575   -0.68403747    -0.060393143  
   3294000   0.053797125   -0.81046797     0.045660486   -0.68416386    -0.0064733317 
   3295000   0.055167353   -0.81233836     0.044654462   -0.68498625    -0.0080127423 
   3296000   0.052592028   -0.80976829     0.049362875   -0.68156827     0.010149226  
   3297000   0.055328192   -0.81246024     0.044993521   -0.68452797     0.0073862758 
   3298000   0.052480896   -0.81113476     0.047087962   -0.68537624    -0.01279353   
   3299000   0.054759462   -0.81076381     0.045101444   -0.68357617    -0.01952375   
   3300000   0.052414117   -0.81337912     0.047685407   -0.68712326     0.00050057481
   3301000   0.054475251   -0.81118913     0.043388111   -0.68614086    -0.02433057   
   3302000   0.053678432   -0.81337519     0.045466857   -0.68744263    -0.028772087  
   3303000   0.052612029   -0.81301618     0.045196702   -0.68895235    -0.0087865147 
   3304000   0.052532668   -0.8134837      0.044877166   -0.68985837     0.010370903  
   3305000   0.052729455   -0.81330456     0.047993747   -0.68626766    -0.030305352  
   3306000   0.052426265   -0.81381788     0.044270852   -0.69095837    -0.015013152  
   3307000   0.053919544   -0.81280012     0.046764902   -0.68520808    -0.013949854  
   3308000   0.052866893   -0.81535651     0.044404388   -0.69170295    -0.031245606  
   3309000   0.0515631     -0.81192813     0.045859807   -0.68877357    -0.035891303  
   3310000   0.051649742   -0.81311495     0.044059256   -0.69163107    -0.031707961  
   3311000   0.052663394   -0.81180225     0.045888608   -0.68696952    -0.042867688  
   3312000   0.054484992   -0.81321182     0.046002203   -0.68553486    -0.0018184526 
   3313000   0.051605773   -0.81126876     0.044820416   -0.68908962    -0.0047502678 
   3314000   0.054095923   -0.8137062      0.046066653   -0.68654801     0.0058698673 
   3315000   0.055486982   -0.81063326     0.046979665   -0.68047682     0.0056306244 
   3316000   0.054044856   -0.81187844     0.046223831   -0.68463963    -0.019557911  
   3317000   0.054262721   -0.81161866     0.045304954   -0.68497214    -0.037654982  
   3318000   0.054125057   -0.80850005     0.043599464   -0.68376538    -0.037189767  
   3319000   0.053666718   -0.80957569     0.043303135   -0.68582442    -0.019176282  
   3320000   0.052295552   -0.8121074      0.044350292   -0.68936439    -0.030911904  
   3321000   0.054807559   -0.81011586     0.046566157   -0.6813914     -0.0097967147 
   3322000   0.055841521   -0.81210643     0.048842658   -0.67955554    -0.014049767  
   3323000   0.054371427   -0.80809192     0.045605503   -0.68098189    -0.047943388  
   3324000   0.05381289    -0.81086271     0.046838085   -0.68335736    -0.028893793  
   3325000   0.05462674    -0.80786824     0.045373128   -0.68060787    -0.023731034  
   3326000   0.053161206   -0.80961365     0.045817042   -0.68410625     0.0040759972 
   3327000   0.052777521   -0.80930905     0.047760661   -0.68243318    -0.038701862  
   3328000   0.054434812   -0.81079497     0.045231131   -0.6839643     -0.040177683  
   3329000   0.054467036   -0.80851503     0.044483053   -0.68238413    -0.022841979  
   3330000   0.052724587   -0.81047872     0.047246462   -0.6841964     -0.044467213  
   3331000   0.052698682   -0.80917255     0.045544848   -0.68463068    -0.028667287  
   3332000   0.052806806   -0.81092016     0.044402624   -0.68735843    -0.034065661  
   3333000   0.052841262   -0.81116803     0.047318573   -0.6846387      0.0094044919 
   3334000   0.053043169   -0.81293362     0.045161009   -0.68825919    -0.039246577  
   3335000   0.051851838   -0.81002855     0.045539168   -0.6867618     -0.013000839  
   3336000   0.053428407   -0.80876871     0.045944771   -0.68273303    -0.045281412  
   3337000   0.053888477   -0.80918159     0.044703877   -0.68369715    -0.003859481  
   3338000   0.053515724   -0.81104751     0.046035267   -0.68479044    -0.005995576  
   3339000   0.05437551    -0.80838765     0.048212793   -0.67866422    -0.013355966  
   3340000   0.053837763   -0.81158569     0.044863545   -0.6860176     -0.040005583  
   3341000   0.051420121   -0.80993374     0.043556513   -0.68929681    -0.0054959705 
   3342000   0.053616736   -0.8113073      0.045190213   -0.68574387    -0.017778344  
   3343000   0.055308367   -0.81168158     0.046853681   -0.68191888    -0.015580946  
   3344000   0.053404595   -0.81273453     0.046447915   -0.6862314     -0.023841052  
   3345000   0.053630964   -0.80969393     0.045724279   -0.6835751     -0.037372285  
   3346000   0.050722246   -0.81202205     0.046954412   -0.68903336    -0.045661962  
   3347000   0.053610802   -0.81262489     0.047088608   -0.68517196    -0.01179243   
   3348000   0.054411609   -0.81152104     0.046849618   -0.68310667    -0.013305572  
   3349000   0.053260968   -0.81198532     0.046433207   -0.68571221    -0.021803311  
   3350000   0.053614923   -0.81299654     0.046741351   -0.68588469    -0.041036035  
   3351000   0.054194974   -0.80924542     0.047268063   -0.68073735    -0.027276318  
   3352000   0.053913209   -0.81308574     0.04637358    -0.68589452    -0.03074486   
   3353000   0.052959626   -0.81256172     0.045767167   -0.68740637    -0.0081394846 
   3354000   0.054274788   -0.80932544     0.045566989   -0.6823988     -0.008986422  
   3355000   0.053437004   -0.80910541     0.048554458   -0.68044716    -0.012607306  
   3356000   0.054176607   -0.81203784     0.047366083   -0.68345927    -0.013744548  
   3357000   0.053174738   -0.80896671     0.046710549   -0.68254551    -0.035022396  
   3358000   0.055794913   -0.80959754     0.045303556   -0.68065561     0.0080723101 
   3359000   0.05273989    -0.81023167     0.046962405   -0.68421047     0.021977378  
   3360000   0.052184084   -0.80965446     0.044993965   -0.68643487    -0.0064371468 
   3361000   0.052464861   -0.81203541     0.045316963   -0.68807193    -0.036533751  
   3362000   0.054902248   -0.80978265     0.04467347    -0.68280894    -0.040380496  
   3363000   0.05451481    -0.80843498     0.044693345   -0.68202218     0.0016652917 
   3364000   0.0526593     -0.8084656      0.04611846    -0.68340915     0.020355546  
   3365000   0.054066929   -0.8110879      0.046860759   -0.68317907     0.0045536205 
   3366000   0.054660687   -0.81051453     0.044459128   -0.68411727     0.0049789885 
   3367000   0.052207071   -0.80969289     0.044738085   -0.68669472    -0.021452447  
   3368000   0.052972154   -0.81006658     0.044705415   -0.6859542     -0.0031875563 
   3369000   0.052759375   -0.81015512     0.049258665   -0.68180845    -0.029876095  
   3370000   0.052488137   -0.80937153     0.046008969   -0.68468115    -0.0074912345 
   3371000   0.054533404   -0.80914343     0.049264892   -0.6781312     -0.028349247  
   3372000   0.05466317    -0.81004525     0.047080717   -0.68102268    -0.014099895  
   3373000   0.052558416   -0.81259841     0.048302969   -0.68550868    -0.0027174671 
   3374000   0.054426902   -0.81158303     0.045572867   -0.68442248    -0.023462632  
   3375000   0.052823013   -0.81010686     0.047736698   -0.68318676    -0.023967836  
   3376000   0.054014803   -0.80870245     0.046956616   -0.6807759     -0.0047602451 
   3377000   0.053204874   -0.81087098     0.048728542   -0.68238662     0.0057708755 
   3378000   0.054032486   -0.80964841     0.045257777   -0.68339419    -0.0051377825 
   3379000   0.051859792   -0.81016658     0.045069899   -0.68735718    -0.031759783  
   3380000   0.052492202   -0.8111506      0.043823365   -0.68863973    -0.018287191  
   3381000   0.053888863   -0.81132456     0.043659751   -0.68688366     0.026883745  
   3382000   0.054406396   -0.80970436     0.045560474   -0.68258695    -0.064859655  
   3383000   0.052957323   -0.8095644      0.044883064   -0.6852966     -0.023278289  
   3384000   0.052783601   -0.81255533     0.046555687   -0.68687532    -0.045841682  
   3385000   0.055710002   -0.81127577     0.045213335   -0.68255134     0.0028099147 
   3386000   0.051092654   -0.81235269     0.046634977   -0.68912818    -0.022725214  
   3387000   0.053732908   -0.81320995     0.045752796   -0.68690979    -0.015276776  
   3388000   0.053773375   -0.8106684      0.044412674   -0.6856477      0.0049303933 
   3389000   0.053246612   -0.81271416     0.046613388   -0.68628238    -0.022319077  
   3390000   0.052033939   -0.80983976     0.045429424   -0.68640979    -0.059346815  
   3391000   0.052762434   -0.81121082     0.045086737   -0.68703149    -0.011517375  
   3392000   0.053815249   -0.80886902     0.044755378   -0.68344284    -0.023993404  
   3393000   0.052797775   -0.81121559     0.046665114   -0.6854049     -0.049144843  
   3394000   0.054175131   -0.80856761     0.04489411    -0.68246323    -0.026928326  
   3395000   0.054844882   -0.80716789     0.044094894   -0.68085875    -0.018672414  
   3396000   0.05339629    -0.80796663     0.045828666   -0.6820952     -0.026134401  
   3397000   0.052164303   -0.809055       0.04384456    -0.68701447    -0.045156792  
   3398000   0.050736712   -0.811811       0.043589508   -0.69216552    -0.03193296   
   3399000   0.052027799   -0.80994286     0.045111028   -0.68684048    -0.0092074079 
   3400000   0.052770535   -0.80980753     0.044516028   -0.68618676     0.0027421824 
   3401000   0.053190432   -0.80675386     0.044190396   -0.68282929    -0.0026653618 
   3402000   0.053951187   -0.80960122     0.044721853   -0.6840048     -0.0060829538 
   3403000   0.053485746   -0.81326714     0.045565193   -0.68752509    -0.029752517  
   3404000   0.051961772   -0.80933113     0.04521491    -0.68622385    -0.0051752075 
   3405000   0.052741778   -0.80958394     0.046403834   -0.68411848    -0.0091384794 
   3406000   0.055028767   -0.81454816     0.046506435   -0.68555183    -0.030231245  
   3407000   0.053726878   -0.80958073     0.047155488   -0.68188692    -0.040942611  
   3408000   0.053783882   -0.81085372     0.046189879   -0.68404007    -0.025230166  
   3409000   0.054221662   -0.81016791     0.043745123   -0.68514277    -0.0032250227 
   3410000   0.055470499   -0.81109514     0.045023906   -0.68291917    -0.029664573  
   3411000   0.052406847   -0.81210709     0.047260765   -0.68628677    -0.0056816924 
   3412000   0.055404859   -0.8085169      0.045816281   -0.67964695    -0.014404798  
   3413000   0.053178388   -0.81273179     0.046790661   -0.68622501    -0.037880549  
   3414000   0.052688737   -0.81125022     0.047363719   -0.68490438    -0.026334678  
   3415000   0.054375486   -0.81221798     0.045402254   -0.68530512    -0.033175131  
   3416000   0.053000537   -0.81167726     0.04699825    -0.6852295     -0.030376472  
   3417000   0.052988933   -0.81168463     0.046407192   -0.68584532    -0.032642607  
   3418000   0.053714274   -0.81007328     0.043189814   -0.68636403    -0.00015108715
   3419000   0.052728559   -0.81144756     0.049260604   -0.68314515     0.010536103  
   3420000   0.054743698   -0.80653017     0.046144621   -0.67832298    -0.021221364  
   3421000   0.055050314   -0.81051589     0.047103836   -0.68088986    -0.033135524  
   3422000   0.053547457   -0.80917852     0.046378824   -0.68253033     0.0019415575 
   3423000   0.053111863   -0.81142775     0.04660455    -0.68520681    -0.011926315  
   3424000   0.05411932    -0.80710718     0.04543579    -0.68054479    -0.026403343  
   3425000   0.053088101   -0.80861481     0.043768523   -0.68526551    -0.031229689  
   3426000   0.056129008   -0.81234982     0.046685319   -0.6815253     -0.026027068  
   3427000   0.055606274   -0.80916804     0.045519724   -0.68029272    -0.0069961318 
   3428000   0.053706548   -0.81140979     0.048070091   -0.68283185     0.010326469  
   3429000   0.053317972   -0.80879065     0.045197035   -0.68366826    -0.0081476445 
   3430000   0.054734858   -0.81143879     0.04877369    -0.68061578    -0.031620683  
   3431000   0.053947397   -0.80795857     0.047394444   -0.67969524    -0.020960249  
   3432000   0.056786509   -0.80879933     0.048240925   -0.6754336     -0.026053617  
   3433000   0.053807596   -0.80567494     0.047046789   -0.67796883    -0.020031498  
   3434000   0.054071962   -0.8075597      0.047273391   -0.67923069    -0.024613491  
   3435000   0.053121619   -0.80769968     0.045693058   -0.6823756      0.00046101556
   3436000   0.054640608   -0.80985903     0.046362782   -0.68158822    -0.017743123  
   3437000   0.055019162   -0.80994604     0.045253096   -0.68221745    -0.034946004  
   3438000   0.053794291   -0.8094015      0.044434839   -0.68432728    -0.0052540829 
   3439000   0.05254319    -0.81295932     0.0461737     -0.68802169    -0.0032490159 
   3440000   0.052776838   -0.81271708     0.044489529   -0.68911337    -0.011505172  
   3441000   0.052166853   -0.80892765     0.046670433   -0.68405742    -0.01487902   
   3442000   0.056222592   -0.81038868     0.047054034   -0.67905517    -0.0098985759 
   3443000   0.0540772     -0.8103586      0.048750003   -0.68054513    -0.0058333376 
   3444000   0.054682582   -0.81134922     0.045901612   -0.68347665    -0.016837124  
   3445000   0.056696218   -0.81161841     0.046667954   -0.67996099    -0.023521345  
   3446000   0.054497365   -0.80548742     0.045573873   -0.67822024     0.019608994  
   3447000   0.052906598   -0.80851215     0.047821933   -0.68138152    -0.053385942  
   3448000   0.054115668   -0.81139929     0.047759651   -0.6825185     -0.038385394  
   3449000   0.052679677   -0.81062503     0.045860965   -0.68579553    -0.023572229  
   3450000   0.053141655   -0.81075575     0.043497136   -0.68759756     0.0064869402 
   3451000   0.052775395   -0.81026516     0.045832338   -0.6853208      0.00097153628
   3452000   0.053048029   -0.80803218     0.044746561   -0.68376491     0.0058469058 
   3453000   0.053581672   -0.80993164     0.045892481   -0.68371851    -0.003196141  
   3454000   0.053905411   -0.81147891     0.043552583   -0.68712038    -0.020258366  
   3455000   0.053592555   -0.80996015     0.045341137   -0.68428204    -0.022348677  
   3456000   0.054664507   -0.81067832     0.0439764     -0.68475806    -0.012099999  
   3457000   0.055371825   -0.80936457     0.045552059   -0.68080836     0.017155086  
   3458000   0.053381685   -0.81062968     0.046811754   -0.68379706    -0.048281823  
   3459000   0.052634065   -0.80894426     0.044771583   -0.68527252    -0.056119067  
   3460000   0.05448867    -0.81152849     0.047215723   -0.68263249     0.002865083  
   3461000   0.052985008   -0.81009216     0.043778858   -0.68688706    -0.048673563  
   3462000   0.053397073   -0.81250314     0.046482541   -0.68597666    -0.04686233   
   3463000   0.052207653   -0.80959608     0.046359528   -0.6849756     -0.014687761  
   3464000   0.056445949   -0.81171171     0.044955768   -0.68214164    -0.022445983  
   3465000   0.053610929   -0.80880037     0.046679757   -0.6817561     -0.014312324  
   3466000   0.054463875   -0.80850124     0.043547252   -0.68331088    -0.027119202  
   3467000   0.054454161   -0.81234643     0.043105385   -0.6876125     -0.013067287  
   3468000   0.051543076   -0.81027125     0.045383957   -0.68762256    -2.6590994e-05
   3469000   0.054385356   -0.81087951     0.04632267    -0.68303144    -0.0090746787 
   3470000   0.052270931   -0.80840198     0.044748186   -0.68529798    -0.030716791  
   3471000   0.05326364    -0.81079659     0.046392367   -0.6845603     -0.034195256  
   3472000   0.055057502   -0.81077701     0.044607249   -0.68363679    -0.013832007  
   3473000   0.054791157   -0.81051199     0.045177077   -0.68320121    -0.0037952842 
   3474000   0.05336094    -0.81289368     0.045092758   -0.68781115    -0.034100154  
   3475000   0.052585804   -0.81198863     0.045797131   -0.68736368    -0.033425749  
   3476000   0.055594334   -0.81097639     0.04500578    -0.68263291    -0.047168908  
   3477000   0.050909029   -0.81098343     0.045362087   -0.68930707    -0.064546081  
   3478000   0.051672035   -0.81188978     0.045010612   -0.68942112    -0.00012842978
   3479000   0.054862797   -0.81281894     0.045484858   -0.68509298    -0.023628109  
   3480000   0.053875933   -0.81228313     0.047474626   -0.68404674     0.0036442203 
   3481000   0.053905468   -0.81265683     0.046331132   -0.68551967    -0.016006005  
   3482000   0.053934959   -0.81319736     0.044619739   -0.68772737    -0.0047475443 
   3483000   0.05396036    -0.81525469     0.043698549   -0.69066782    -0.0040723489 
   3484000   0.052528822   -0.81297426     0.04403113    -0.69020073    -0.0019585418 
   3485000   0.051609235   -0.81417067     0.047479296   -0.68932747    -0.021685479  
   3486000   0.053830014   -0.81266344     0.048914905   -0.68305561    -0.0087479667 
   3487000   0.054383324   -0.8135438      0.048004553   -0.6840169     -0.025072448  
   3488000   0.05390309    -0.81108942     0.045499341   -0.68478761    -0.040741778  
   3489000   0.0544265     -0.81310186     0.044548927   -0.68696585    -0.016429064  
   3490000   0.054362774   -0.81190683     0.046266067   -0.68414921    -0.03207898   
   3491000   0.05423231    -0.81295508     0.043590112   -0.68806898    -0.0095357595 
   3492000   0.05151722    -0.81294126     0.046248447   -0.68946684    -0.054250401  
   3493000   0.051506049   -0.8114669      0.04418341    -0.69007426    -0.042584858  
   3494000   0.051480582   -0.81256754     0.046634199   -0.68876229    -0.020175729  
   3495000   0.054058653   -0.81151802     0.045637011   -0.68484535    -0.023085057  
   3496000   0.053666858   -0.81195968     0.045809802   -0.68570152    -0.012431746  
   3497000   0.053879106   -0.81373401     0.046232032   -0.68673547    -0.024726539  
   3498000   0.055891582   -0.80983141     0.045050628   -0.6809975     -0.014054601  
   3499000   0.05390048    -0.81120024     0.047057167   -0.68334451    -0.073187713  
   3500000   0.053435784   -0.81199938     0.045797454   -0.68609996    -0.0099648451 
   3501000   0.054669423   -0.81258406     0.046353984   -0.68427885    -0.024712712  
   3502000   0.053632658   -0.80732937     0.046076081   -0.6808562      0.011562147  
   3503000   0.053595617   -0.80830922     0.045344487   -0.68262318    -0.0036877124 
   3504000   0.053623971   -0.80986793     0.043280519   -0.68620335    -0.033022635  
   3505000   0.051650012   -0.80827526     0.045646056   -0.68520416     0.010193077  
   3506000   0.053670089   -0.81011173     0.047642539   -0.68201599    -0.0073443578 
   3507000   0.053538954   -0.81150721     0.048585184   -0.68266541    -0.032512805  
   3508000   0.056990094   -0.81157642     0.045067805   -0.68107863    -0.013443018  
   3509000   0.053807625   -0.81225101     0.044496525   -0.68709512    -0.013328885  
   3510000   0.05282875    -0.81285189     0.045863575   -0.68779631    -0.014518252  
   3511000   0.051436492   -0.81375703     0.046360489   -0.69029158    -0.014721871  
   3512000   0.052863802   -0.81361261     0.045042668   -0.6893254     -0.02030012   
   3513000   0.054309853   -0.81222061     0.047131648   -0.68367674    -0.022459287  
   3514000   0.052628325   -0.81080719     0.045571311   -0.68634433    -0.020714735  
   3515000   0.055702232   -0.81273417     0.044990489   -0.68424424    -0.03606033   
   3516000   0.053344862   -0.81315623     0.044471676   -0.68871888    -0.011730238  
   3517000   0.052729836   -0.81249717     0.044566325   -0.68888712     0.0020995093 
   3518000   0.051792619   -0.81244388     0.044301389   -0.69050368     0.0049632019 
   3519000   0.053701296   -0.81298501     0.046408851   -0.68607619    -0.011596998  
   3520000   0.054511548   -0.80933286     0.047292609   -0.68032568     0.0023569724 
   3521000   0.053938084   -0.81152551     0.045799068   -0.68487152    -0.020539095  
   3522000   0.054872171   -0.81070102     0.045179069   -0.6832668     -0.0091459586 
   3523000   0.051443686   -0.81171663     0.048758646   -0.68584224    -0.023780575  
   3524000   0.051593774   -0.8097052      0.047507853   -0.68485662    -0.020958102  
   3525000   0.053053155   -0.81151658     0.045222249   -0.68676594    -0.0295168    
   3526000   0.054869739   -0.81077133     0.045404003   -0.68311582    -0.0089169886 
   3527000   0.05222896    -0.81212077     0.046123576   -0.6877043     -0.017380192  
   3528000   0.052458787   -0.81268561     0.04461447    -0.68943373    -0.014483922  
   3529000   0.052544601   -0.81303282     0.047575215   -0.68669155    -0.033940039  
   3530000   0.053059335   -0.80998967     0.043651985   -0.68680003    -0.013117471  
   3531000   0.054114635   -0.81038972     0.045295944   -0.68397419    -0.041157686  
   3532000   0.053040241   -0.80951053     0.049407544   -0.68059395    -0.033189294  
   3533000   0.053446983   -0.81153846     0.046570157   -0.68484955    -0.029165172  
   3534000   0.054087166   -0.81279303     0.047875364   -0.68383926    -0.031517839  
   3535000   0.054276214   -0.81151577     0.044506695   -0.68564728    -0.027355986  
   3536000   0.051682178   -0.81071508     0.045110386   -0.68813144    -0.02806401   
   3537000   0.052859907   -0.81029356     0.046351043   -0.68470381    -0.036939611  
   3538000   0.054659394   -0.81327574     0.046821722   -0.68451783    -0.054640073  
   3539000   0.053293588   -0.80896101     0.046760809   -0.6823114     -0.0027433206 
   3540000   0.052873761   -0.81051788     0.044712337   -0.68654607    -0.015329917  
   3541000   0.052963041   -0.81142812     0.046962704   -0.68507211    -0.016351622  
   3542000   0.054724772   -0.81055797     0.046100919   -0.68242285    -0.03168193   
   3543000   0.052383251   -0.80905917     0.04505484    -0.68548015    -0.010985643  
   3544000   0.053723613   -0.80956585     0.045830087   -0.68320233    -0.00039489303
   3545000   0.0540652     -0.81086936     0.047475609   -0.68234827    -0.028738318  
   3546000   0.054252406   -0.80947798     0.044599939   -0.68355194    -0.021703996  
   3547000   0.052509475   -0.81067113     0.046631731   -0.685326      -0.040191208  
   3548000   0.052828252   -0.81017301     0.046142951   -0.6848388     -0.0048045161 
   3549000   0.052959858   -0.81119346     0.046770053   -0.68503487    -0.035661566  
   3550000   0.053516138   -0.80994398     0.043469752   -0.68625181    -0.013441927  
   3551000   0.052695921   -0.81095204     0.043677549   -0.68828161    -0.0084532047 
   3552000   0.053065041   -0.81051325     0.046344243   -0.6846228     -0.020189699  
   3553000   0.053752431   -0.81045396     0.044887431   -0.68498991     0.005874032  
   3554000   0.053739289   -0.80788563     0.046007988   -0.68132071    -0.016246403  
   3555000   0.052121152   -0.81004419     0.046553564   -0.68535934     0.0027598931 
   3556000   0.053980462   -0.80949918     0.046581757   -0.68199897    -0.026734086  
   3557000   0.052531003   -0.81124306     0.044263343   -0.68823405     0.018090033  
   3558000   0.05223854    -0.80807914     0.044520998   -0.68525089    -0.0069320584 
   3559000   0.054285393   -0.80770224     0.045488416   -0.68083827    -0.0084244447 
   3560000   0.053829699   -0.81134256     0.049672982   -0.68097713    -0.004565551  
   3561000   0.054963722   -0.81190452     0.046118241   -0.68339389    -0.020668719  
   3562000   0.055827046   -0.81005344     0.048995886   -0.67737101    -0.0022487241 
   3563000   0.055870228   -0.80969917     0.046177421   -0.67977048     0.010084431  
   3564000   0.050910187   -0.80949652     0.048485779   -0.68469473    -0.039600459  
   3565000   0.052893653   -0.81023642     0.045030725   -0.68591641    -0.021568827  
   3566000   0.054750158   -0.81009006     0.050232834   -0.67778498    -0.028672719  
   3567000   0.054897453   -0.81113663     0.047334937   -0.68150864    -0.011070714  
   3568000   0.054524474   -0.81159044     0.047847975   -0.68200852    -0.022770118  
   3569000   0.05196554    -0.80879398     0.047184376   -0.68371158     0.00012654465
   3570000   0.053299018   -0.81056723     0.045766283   -0.684904      -0.011667145  
   3571000   0.05272566    -0.80924529     0.045602217   -0.68460561    -0.015641801  
   3572000   0.054115506   -0.80858293     0.045591225   -0.68187082    -0.016387085  
   3573000   0.053891941   -0.81034768     0.047431127   -0.6821308     -0.035035848  
   3574000   0.055171721   -0.81027656     0.046806661   -0.6807657     -0.0048215675 
   3575000   0.054463617   -0.80923652     0.047510938   -0.68008287    -0.0028878405 
   3576000   0.053483731   -0.81023266     0.046180161   -0.68387866    -0.022563609  
   3577000   0.052797126   -0.80780717     0.043853658   -0.68480892    -0.018577361  
   3578000   0.053819205   -0.81180178     0.047469498   -0.68365556    -0.0045506779 
   3579000   0.053162315   -0.81043495     0.047077771   -0.68366516    -0.022638651  
   3580000   0.052804259   -0.80787218     0.046643327   -0.68207357    -0.01811281   
   3581000   0.053198223   -0.81218133     0.048937232   -0.68349824    -0.032255834  
   3582000   0.053581894   -0.81034861     0.047050752   -0.68297687    -0.01391205   
   3583000   0.054214766   -0.8079996      0.048527098   -0.67820282    -0.026770398  
   3584000   0.053154549   -0.80961042     0.047987304   -0.68194273    -0.025693619  
   3585000   0.052866112   -0.8097524      0.045042648   -0.68546174    -0.051290645  
   3586000   0.053644552   -0.81146758     0.047027703   -0.68402497    -0.0030423884 
   3587000   0.053823872   -0.80871872     0.046788143   -0.68124686    -0.0073679433 
   3588000   0.053043445   -0.80794386     0.049150955   -0.67927907    -0.025491953  
   3589000   0.054498116   -0.81170492     0.046182008   -0.68382848     0.002728933  
   3590000   0.054491077   -0.81071099     0.047439171   -0.68158794    -0.02485288   
   3591000   0.05296052    -0.81358277     0.046360857   -0.68783239    -0.034662513  
   3592000   0.053622422   -0.81242392     0.044633536   -0.68740864    -0.01074968   
   3593000   0.052735349   -0.81061318     0.045444157   -0.68611703    -0.043829896  
   3594000   0.053826457   -0.80957437     0.044938067   -0.68394871    -0.042770155  
   3595000   0.05451511    -0.8098525      0.047150276   -0.68098232     0.014422924  
   3596000   0.054624475   -0.8100879      0.043334435   -0.68486962    -0.0089362122 
   3597000   0.053339164   -0.8108468      0.048675178   -0.68221449     0.0026533457 
   3598000   0.055606832   -0.80753208     0.047445006   -0.67673064    -0.029925483  
   3599000   0.055174917   -0.81089303     0.045835412   -0.68234864    -0.02224971   
   3600000   0.054539202   -0.81150413     0.048063267   -0.68168484    -0.0098081346 
   3601000   0.052792929   -0.8089807      0.049281852   -0.68056054    -0.017811878  
   3602000   0.052910787   -0.80978391     0.044194196   -0.68627474    -0.0027574385 
   3603000   0.053415689   -0.81278494     0.045179773   -0.68753333    -0.023283232  
   3604000   0.053218792   -0.81093225     0.047794465   -0.6833611     -0.043439052  
   3605000   0.052370731   -0.80729517     0.045369609   -0.68342015    -0.024283454  
   3606000   0.053176845   -0.81129355     0.044454542   -0.68712521    -0.015095133  
   3607000   0.051491785   -0.81030802     0.048182542   -0.68493763    -0.015016594  
   3608000   0.052703441   -0.81317522     0.047007447   -0.68716361    -0.025692154  
   3609000   0.052208993   -0.81080988     0.046813718   -0.6857332     -0.0087670111 
   3610000   0.051504234   -0.81213107     0.046288263   -0.6886363     -0.015500566  
   3611000   0.052674588   -0.80653532     0.04590557    -0.68166884    -0.02880507   
   3612000   0.051625947   -0.81340441     0.044192309   -0.69182314    -0.020036598  
   3613000   0.050199743   -0.80755837     0.045574367   -0.68673297    -0.0054238774 
   3614000   0.05324392    -0.81186699     0.046630248   -0.68542239    -0.040385209  
   3615000   0.052480945   -0.80975299     0.044994202   -0.68608816    -0.034161484  
   3616000   0.052714423   -0.80605419     0.043643113   -0.68339046    -0.0024504253 
   3617000   0.05410785    -0.80851883     0.044622507   -0.68278691    -0.035080797  
   3618000   0.053852665   -0.81134649     0.044839302   -0.6857803     -0.027489697  
   3619000   0.054797728   -0.81184285     0.045856263   -0.68384302    -0.050080396  
   3620000   0.053114308   -0.81018579     0.046012788   -0.68455295    -0.0055432779 
   3621000   0.053249667   -0.81092795     0.04594192    -0.68516306    -0.035459129  
   3622000   0.053281686   -0.8080375      0.044605653   -0.68356088    -0.030499556  
   3623000   0.0528448     -0.81166141     0.047117711   -0.68532764    -0.031458513  
   3624000   0.052722695   -0.80871871     0.045339187   -0.6843465     -0.053374688  
   3625000   0.05231562    -0.8122921      0.043817928   -0.69005137    -0.019930702  
   3626000   0.054656533   -0.8116779      0.04531882    -0.68442718    -0.028145508  
   3627000   0.053956458   -0.80995373     0.049473526   -0.67959773    -0.042558619  
   3628000   0.053754896   -0.80936632     0.047572311   -0.68121369    -0.018835725  
   3629000   0.054555993   -0.80754448     0.04707057    -0.67869272     0.0033829849 
   3630000   0.055346571   -0.80544198     0.050262591   -0.67221309    -0.038502526  
   3631000   0.05435757    -0.80509326     0.04650762    -0.67710189    -0.0085698083 
   3632000   0.053451432   -0.80798497     0.046401199   -0.68145835    -0.011450821  
   3633000   0.051292472   -0.80662722     0.045177724   -0.68456042    -0.031078064  
   3634000   0.053842832   -0.80651588     0.04559637    -0.68020736    -0.011535992  
   3635000   0.054942257   -0.80720606     0.046845773   -0.67800007    -0.02859031   
   3636000   0.054031099   -0.80610779     0.044769015   -0.68034441    -0.046773856  
   3637000   0.052767459   -0.80639289     0.046616041   -0.68067672    -0.033188885  
   3638000   0.05496557    -0.80494605     0.04634671    -0.67620418    -0.035566779  
   3639000   0.054149319   -0.80629645     0.046029906   -0.67909497    -0.04010986   
   3640000   0.053615241   -0.80695682     0.045126737   -0.6814591     -0.028105657  
   3641000   0.054571901   -0.80380043     0.046933697   -0.67506169    -0.046401957  
   3642000   0.05211271    -0.80351881     0.047312585   -0.67808759    -0.048806134  
   3643000   0.054287575   -0.80441204     0.047202926   -0.67583029    -0.013270326  
   3644000   0.054313326   -0.80691722     0.045844547   -0.67965524    -0.025244469  
   3645000   0.053833415   -0.80598106     0.045298092   -0.67998495    -0.023989771  
   3646000   0.054642798   -0.80555839     0.048089649   -0.67555742    -0.035379238  
   3647000   0.054634864   -0.8035068      0.044265997   -0.67734138    -0.038793686  
   3648000   0.053146955   -0.80377796     0.047113016   -0.67699594    -0.02676415   
   3649000   0.053377447   -0.80558473     0.046688127   -0.67888209    -0.028653214  
   3650000   0.053155829   -0.80676382     0.045240474   -0.68184104    -0.011194204  
   3651000   0.052391855   -0.80759678     0.047605291   -0.68145441    -0.043432176  
   3652000   0.053338803   -0.80751973     0.050256197   -0.67730694    -0.032100305  
   3653000   0.054183513   -0.80591572     0.047751323   -0.67694157     0.0016928074 
   3654000   0.054071132   -0.80533696     0.045606748   -0.67867584    -0.050469837  
   3655000   0.053042421   -0.80655899     0.048552557   -0.67849413    -0.036292144  
   3656000   0.05494544    -0.80432214     0.047038202   -0.67491895    -0.015210726  
   3657000   0.052875546   -0.80275603     0.048841125   -0.67465276    -0.006260041  
   3658000   0.054522713   -0.80605819     0.046744699   -0.67758219     0.0049233073 
   3659000   0.053042528   -0.80533989     0.04528814    -0.68053929    -0.014906982  
   3660000   0.054166707   -0.80544317     0.04502079    -0.67922474    -0.0054722203 
   3661000   0.054846421   -0.80453968     0.048022329   -0.6743008     -0.027631208  
   3662000   0.054251499   -0.80697938     0.048408306   -0.67724633    -0.027879907  
   3663000   0.054401778   -0.8069092      0.047735827   -0.67762335    -0.001810206  
   3664000   0.056191942   -0.80699481     0.04891735    -0.67384393    -0.027585147  
   3665000   0.053861182   -0.80508615     0.049627627   -0.67471888    -0.027758218  
   3666000   0.055058466   -0.80294958     0.047426217   -0.67298894    -0.021366472  
   3667000   0.051960556   -0.80521702     0.04883658    -0.67848989    -0.01242024   
   3668000   0.053073966   -0.80610781     0.043246694   -0.68330152    -0.017112501  
   3669000   0.052314977   -0.80715865     0.047595672   -0.68114114    -0.029757697  
   3670000   0.053618055   -0.80708087     0.045889343   -0.68081634    -0.0034286291 
   3671000   0.054052094   -0.80591465     0.044990259   -0.67989855    -0.012815177  
   3672000   0.054186631   -0.80554368     0.048208143   -0.67610803    -0.029548235  
   3673000   0.054287481   -0.80825305     0.046463247   -0.68041112    -0.019190848  
   3674000   0.053698495   -0.80514891     0.047397474   -0.67725566     0.004874308  
   3675000   0.053272915   -0.80669124     0.04509603    -0.68173739    -0.0062426929 
   3676000   0.052497892   -0.80756993     0.046041683   -0.68283222    -0.0093215973 
   3677000   0.055290973   -0.80773338     0.044071139   -0.68077929    -0.044750176  
   3678000   0.055172892   -0.80635116     0.046345226   -0.67729999    -0.022887919  
   3679000   0.055002441   -0.80411908     0.048348272   -0.67332037    -0.045246561  
   3680000   0.053727407   -0.80650908     0.046869101   -0.67910086    -0.020526703  
   3681000   0.05324206    -0.80562266     0.045733333   -0.68007776    -0.019983529  
   3682000   0.05204674    -0.80691529     0.044830911   -0.68406463    -0.034912248  
   3683000   0.051791158   -0.80527641     0.047202672   -0.68043712    -0.019136366  
   3684000   0.054718635   -0.80534186     0.045939251   -0.67737761    -0.012473504  
   3685000   0.056118201   -0.80628063     0.046372024   -0.67578561    -0.028778122  
   3686000   0.054444846   -0.80688123     0.047281491   -0.67798516    -0.0093553022 
   3687000   0.053520697   -0.80634986     0.045939124   -0.68018148    -0.003247555  
   3688000   0.053113733   -0.80608278     0.045524509   -0.68093907    -0.013762251  
   3689000   0.054974394   -0.80640377     0.045619305   -0.67837608    -0.009544519  
   3690000   0.055290497   -0.80508239     0.047752309   -0.67444784    -0.0080600662 
   3691000   0.052492276   -0.80731493     0.04581804    -0.68280928    -0.014078779  
   3692000   0.051089396   -0.80617118     0.04657971    -0.68300682    -0.0088870222 
   3693000   0.05373965    -0.80578297     0.044799598   -0.68042591    -0.040789283  
   3694000   0.051514567   -0.80520137     0.047789213   -0.68019016    -0.021843366  
   3695000   0.052527225   -0.80472507     0.048914234   -0.67707083     0.0064647887 
   3696000   0.055136255   -0.8076845      0.045867058   -0.67916642    -0.010439908  
   3697000   0.054484558   -0.80681714     0.04768947    -0.67745356    -0.0071513201 
   3698000   0.054158412   -0.80555917     0.047822712   -0.67655125    -0.048321326  
   3699000   0.053679625   -0.80535819     0.046501919   -0.67838878    -0.048341343  
   3700000   0.052955571   -0.80382237     0.045713143   -0.67872711    -0.036299346  
   3701000   0.053814763   -0.80438006     0.044691611   -0.67901838    -0.020500147  
   3702000   0.053556      -0.80363654     0.046289566   -0.6770648     -0.017679926  
   3703000   0.05490312    -0.80539205     0.046054623   -0.67703588    -0.012863709  
   3704000   0.052520907   -0.80314638     0.045825629   -0.67859021    -0.027493334  
   3705000   0.052643592   -0.80093738     0.045930174   -0.67609276    -0.011342403  
   3706000   0.053639597   -0.80447827     0.047843262   -0.67622752     0.01294072   
   3707000   0.051393677   -0.80524258     0.047210586   -0.68099122    -0.027634961  
   3708000   0.05429537    -0.80500158     0.045521868   -0.6780892     -0.033155111  
   3709000   0.052101724   -0.80424765     0.04772011    -0.67842537    -0.013783666  
   3710000   0.052974714   -0.80285593     0.046914679   -0.67653045    -0.011539109  
   3711000   0.055212938   -0.80631571     0.045904242   -0.67764549    -0.042216983  
   3712000   0.053462969   -0.80566417     0.048197263   -0.6773242     -0.037806079  
   3713000   0.054971877   -0.80652231     0.047102619   -0.67701507    -0.030422881  
   3714000   0.053386144   -0.80583917     0.048689418   -0.6771222     -0.0053384279 
   3715000   0.054960133   -0.80573412     0.046007909   -0.6773392     -0.038176262  
   3716000   0.053806155   -0.80599367     0.048629855   -0.67670665    -0.032128494  
   3717000   0.05410347    -0.80286942     0.048204938   -0.67356164    -0.030877746  
   3718000   0.053252487   -0.80495499     0.04736373    -0.67776407    -0.01259753   
   3719000   0.054684108   -0.80608051     0.04585923    -0.67824804    -0.009400341  
   3720000   0.05314668    -0.80583345     0.04517947    -0.6809854     -0.022961926  
   3721000   0.053493745   -0.80540012     0.045163972   -0.6800473     -0.042837084  
   3722000   0.0523956     -0.80552961     0.045393639   -0.68159328    -0.03431164   
   3723000   0.054272619   -0.80577964     0.047606005   -0.67681723    -0.047631259  
   3724000   0.053370606   -0.8042328      0.046563091   -0.67766545    -0.024864238  
   3725000   0.054019916   -0.80518598     0.047440638   -0.67676775    -0.056439673  
   3726000   0.052364937   -0.80585419     0.049042407   -0.67831506    -0.0039782683 
   3727000   0.054246967   -0.8057677      0.047220356   -0.67722939    -0.033210392  
   3728000   0.054249606   -0.80375483     0.045008026   -0.6774249     -0.060111295  
   3729000   0.054936633   -0.80197565     0.046927981   -0.67269588    -0.056390236  
   3730000   0.053620815   -0.80102        0.048323108   -0.67231756    -0.024323875  
   3731000   0.054080745   -0.8011261      0.046983053   -0.67307426    -0.022948091  
   3732000   0.054897629   -0.8013699      0.047208084   -0.6718685     -0.034274854  
   3733000   0.054735531   -0.80143228     0.048296338   -0.67108562    -0.02132309   
   3734000   0.053134878   -0.80170945     0.046956629   -0.67510192    -0.024997923  
   3735000   0.050755501   -0.80132387     0.047392861   -0.67784688     0.0093934203 
   3736000   0.054208859   -0.80132865     0.046169371   -0.67389845    -0.0049318656 
   3737000   0.053280912   -0.79973579     0.047543902   -0.67232208    -0.0028142993 
   3738000   0.054018248   -0.80176986     0.046509349   -0.67428541    -0.027295483  
   3739000   0.054026554   -0.80186464     0.048150529   -0.67272656    -0.027499008  
   3740000   0.053347992   -0.79839839     0.046778464   -0.67164956    -0.02197258   
   3741000   0.051770779   -0.80061552     0.047842381   -0.67516707    -0.001899015  
   3742000   0.052822578   -0.80192871     0.046404256   -0.6763417     -0.050814823  
   3743000   0.052031334   -0.80078534     0.046104685   -0.67668401    -0.017490574  
   3744000   0.053686046   -0.80296466     0.050019853   -0.67246769    -0.016735512  
   3745000   0.055174093   -0.80346659     0.047487519   -0.67327132    -0.039535598  
   3746000   0.054226406   -0.80145194     0.047133209   -0.6730316      0.015401243  
   3747000   0.054263871   -0.79970499     0.047400223   -0.67096147    -0.032290233  
   3748000   0.052970264   -0.80123384     0.047435622   -0.67439409    -0.01482156   
   3749000   0.051791408   -0.80200927     0.048443684   -0.6759286     -0.038231764  
   3750000   0.053518007   -0.80043532     0.048757099   -0.671453      -0.0043433045 
   3751000   0.054955044   -0.80175441     0.047366175   -0.67200886     0.0013029623 
   3752000   0.054348228   -0.80199432     0.04645434    -0.67407024    -0.02503698   
   3753000   0.054458881   -0.80050351     0.049136293   -0.66973159    -0.025345022  
   3754000   0.053264973   -0.79982438     0.046421292   -0.67355718    -0.019178123  
   3755000   0.055075557   -0.80119106     0.04768238    -0.67094865    -0.023055963  
   3756000   0.05464663    -0.80293885     0.048019324   -0.67300246    -0.00010684858
   3757000   0.05499648    -0.80461246     0.048564191   -0.67360677    -0.039045239  
   3758000   0.054522796   -0.80409587     0.046625734   -0.67573871     0.019178501  
   3759000   0.05637333    -0.80171778     0.047937123   -0.66927521    -0.017244825  
   3760000   0.05463344    -0.80437546     0.046159512   -0.67631866    -0.035133737  
   3761000   0.053597056   -0.80280964     0.046998303   -0.67546762    -0.03211028   
   3762000   0.054007549   -0.80313818     0.047567912   -0.67461121    -0.013552137  
   3763000   0.053826061   -0.80295099     0.047775709   -0.67448828    -0.043380295  
   3764000   0.053708833   -0.80098624     0.047391139   -0.67308383    -0.033845953  
   3765000   0.05306205    -0.80111058     0.049896452   -0.6716724     -0.044514613  
   3766000   0.054516775   -0.80076294     0.04810148    -0.67093905     0.0035880184 
   3767000   0.053257085   -0.80248681     0.048030952   -0.67462177    -0.036830422  
   3768000   0.055652797   -0.80285553     0.047937961   -0.67149224    -0.00064546567
   3769000   0.054946641   -0.80315818     0.048124624   -0.67266677    -0.030474441  
   3770000   0.054866327   -0.80177956     0.044914769   -0.6746184     -0.0047846473 
   3771000   0.052291192   -0.7989304      0.047109472   -0.67343474    -0.01643318   
   3772000   0.052874886   -0.80142467     0.048029695   -0.67413382    -0.035588642  
   3773000   0.054237737   -0.8018652      0.049180527   -0.67138056    -0.023970562  
   3774000   0.053611782   -0.80249891     0.045770771   -0.67636235    -0.0086633932 
   3775000   0.052883814   -0.80292406     0.051094934   -0.67255458    -0.037440893  
   3776000   0.053533166   -0.80126572     0.046932041   -0.67408574    -0.027687243  
   3777000   0.054858398   -0.80026889     0.046831993   -0.67120239     0.00244659   
   3778000   0.052309245   -0.801933       0.050044341   -0.67347541    -0.012121773  
   3779000   0.054470747   -0.80149577     0.048928645   -0.67091372    -0.034100872  
   3780000   0.053310934   -0.80220925     0.048735026   -0.67355942    -0.020778965  
   3781000   0.053136272   -0.80523424     0.047312737   -0.67826851    -0.014973666  
   3782000   0.052857734   -0.80346102     0.048889366   -0.67533621    -0.0087830144 
   3783000   0.052044568   -0.80319933     0.046991002   -0.67819184    -0.02933545   
   3784000   0.053537321   -0.80255276     0.046149027   -0.67614956    -0.033431789  
   3785000   0.055858205   -0.80447635     0.049462088   -0.67128101    -0.013969879  
   3786000   0.053691695   -0.80271253     0.049632504   -0.67259444    -0.0033994251 
   3787000   0.055902468   -0.80186407     0.049566204   -0.66849826    -0.041904238  
   3788000   0.055228993   -0.80299401     0.048939986   -0.67126398    -0.02464951   
   3789000   0.05483874    -0.80484329     0.048022892   -0.67461536    -0.052050715  
   3790000   0.054517583   -0.80459033     0.049538438   -0.67332828     0.010390742  
   3791000   0.054196105   -0.80554861     0.04917573    -0.67513117    -0.033573083  
   3792000   0.051876599   -0.80411746     0.045838462   -0.68051431    -0.01358496   
   3793000   0.053620643   -0.80347759     0.046160326   -0.67693819     0.008906436  
   3794000   0.052958455   -0.80360892     0.047407551   -0.67681494    -0.05030167   
   3795000   0.055010554   -0.80616525     0.047352276   -0.67635038    -0.0077992823 
   3796000   0.054535235   -0.80241464     0.046514843   -0.67414972    -0.011585346  
   3797000   0.05394293    -0.80399369     0.046564858   -0.67656664    -0.004682019  
   3798000   0.053926235   -0.80233972     0.047808957   -0.67369359    -0.035206016  
   3799000   0.055511487   -0.80500186     0.045885984   -0.67590237    -0.0058016717 
   3800000   0.051842251   -0.80407919     0.046920419   -0.67944557    -0.035000773  
   3801000   0.052858429   -0.80346868     0.047712919   -0.67651927    -0.046391497  
   3802000   0.053150683   -0.80534615     0.047388687   -0.67828287    -0.022178966  
   3803000   0.054874771   -0.80380205     0.046972318   -0.67457068    -0.0038512243 
   3804000   0.053558939   -0.80560366     0.048835391   -0.67648169    -0.02808701   
   3805000   0.054485199   -0.80468297     0.046852238   -0.67615566     0.007489595  
   3806000   0.052477527   -0.80530231     0.047475946   -0.67916086    -0.027012735  
   3807000   0.053560277   -0.8040466      0.048389041   -0.67536897    -0.0091073026 
   3808000   0.055123875   -0.8056234      0.048581719   -0.67440921    -0.01779355   
   3809000   0.055085399   -0.80335764     0.046844806   -0.67393805    -0.024439239  
   3810000   0.05559654    -0.80729383     0.047707458   -0.67624537    -0.035765824  
   3811000   0.052383476   -0.80478137     0.048153893   -0.67810296    -0.044503693  
   3812000   0.055065439   -0.80464915     0.045310907   -0.67679338     0.00066615808
   3813000   0.055588702   -0.80236729     0.047500624   -0.67153741    -0.037983425  
   3814000   0.056112329   -0.80501566     0.045230672   -0.6756708     -0.012886193  
   3815000   0.052628477   -0.80583065     0.05053867    -0.6764002     -0.036251501  
   3816000   0.055109926   -0.80584111     0.04705411    -0.67617544    -0.028104565  
   3817000   0.053038595   -0.80274127     0.046112165   -0.67712253    -0.021582177  
   3818000   0.054169983   -0.80426614     0.045264788   -0.6777988     -0.021666552  
   3819000   0.052487972   -0.80600556     0.049520719   -0.67780368    -0.054715784  
   3820000   0.05427376    -0.80735614     0.048898935   -0.67709909    -0.0080908099 
   3821000   0.052912085   -0.80601323     0.049190095   -0.67750621    -0.02327125   
   3822000   0.052501031   -0.80522704     0.049728265   -0.67679804    -0.019141717  
   3823000   0.053256643   -0.80394189     0.046045086   -0.67806337    -0.033631593  
   3824000   0.055423163   -0.80175381     0.04939772    -0.66927498    -0.028411655  
   3825000   0.054244318   -0.80404573     0.04887348    -0.67385827    -0.0056297394 
   3826000   0.052670668   -0.80462288     0.049902534   -0.67576531    -0.027460298  
   3827000   0.053943481   -0.80400359     0.045043869   -0.6780967     -0.031555371  
   3828000   0.052939963   -0.80568152     0.048216153   -0.67810665    -0.035312378  
   3829000   0.053681217   -0.80420588     0.047020676   -0.67671533     0.013366674  
   3830000   0.053078795   -0.80393083     0.046455694   -0.67790831    -0.015866944  
   3831000   0.054585287   -0.8030587      0.046269347   -0.67496425    -0.048139562  
   3832000   0.051526451   -0.80323529     0.045521176   -0.6804743     -0.014978264  
   3833000   0.053038424   -0.80464006     0.045384881   -0.67974888     0.0043148825 
   3834000   0.052540725   -0.80524126     0.048939475   -0.67754154     0.012128434  
   3835000   0.054171538   -0.80579799     0.048258488   -0.67633462     0.00056989727
   3836000   0.051047118   -0.80453233     0.049935207   -0.67807585    -0.020743526  
   3837000   0.052952291   -0.80273735     0.048805459   -0.6745547     -0.037772145  
   3838000   0.054495011   -0.80536515     0.048089856   -0.67558551    -0.035333625  
   3839000   0.053260373   -0.80246817     0.047738053   -0.6748911      0.011344734  
   3840000   0.053138702   -0.8038691      0.047915586   -0.67629689    -0.019584472  
   3841000   0.053506919   -0.80480774     0.04554356    -0.67905558    -0.021880426  
   3842000   0.053271483   -0.8055192      0.045794059   -0.67986947    -0.00026267942
   3843000   0.053682525   -0.80470834     0.04701572    -0.67722078    -0.035695378  
   3844000   0.054280327   -0.80459649     0.047036945   -0.67619159     0.010595342  
   3845000   0.052574289   -0.80402714     0.048399118   -0.67681747    -0.017416442  
   3846000   0.054685257   -0.80294167     0.048362577   -0.67260413    -0.019816623  
   3847000   0.053587411   -0.80248318     0.048443103   -0.67371082    -0.013211439  
   3848000   0.054464882   -0.80545084     0.046844789   -0.67696144    -0.010970332  
   3849000   0.05510756    -0.80402349     0.046022365   -0.67539312    -0.017536758  
   3850000   0.056757627   -0.80527057     0.045541669   -0.67464739    -0.01805153   
   3851000   0.055846617   -0.80494119     0.045120969   -0.67610434    -0.0045208952 
   3852000   0.054270028   -0.80557578     0.047058909   -0.67716435    -0.0011774783 
   3853000   0.053471283   -0.80350115     0.047420714   -0.67592526    -0.025369162  
   3854000   0.054919798   -0.80359082     0.04833327    -0.672931      -0.024500891  
   3855000   0.053560238   -0.8046374      0.049083949   -0.67526492    -0.030661737  
   3856000   0.05232814    -0.80261676     0.046995773   -0.67717942    -0.032164028  
   3857000   0.053850941   -0.80408044     0.047813196   -0.67554294    -0.036041382  
   3858000   0.055232601   -0.80564553     0.044440991   -0.67840908    -0.040460163  
   3859000   0.053948792   -0.80399314     0.046651923   -0.67647024    -0.034444863  
   3860000   0.053513516   -0.80285367     0.049293726   -0.67334145    -0.021498046  
   3861000   0.055144317   -0.80401001     0.046297878   -0.67504902     0.001977959  
   3862000   0.053176397   -0.80394253     0.048078987   -0.67615041     0.0076385863 
   3863000   0.054202268   -0.80529149     0.048144342   -0.6758962     -0.00080193265
   3864000   0.055663653   -0.8059862      0.048767621   -0.67377697    -0.030955309  
   3865000   0.053564877   -0.80251059     0.046928578   -0.67528654    -0.026592761  
   3866000   0.054802981   -0.8033029      0.04630832    -0.67484314    -0.027757929  
   3867000   0.052107302   -0.80585627     0.04902071    -0.67872503    -0.030718247  
   3868000   0.053560971   -0.80551248     0.046243729   -0.67897913    -0.0010569755 
   3869000   0.054255576   -0.80088469     0.047409723   -0.6721441     -0.024033708  
   3870000   0.053283017   -0.80275295     0.046613639   -0.67626635    -0.012371025  
   3871000   0.053361965   -0.80481881     0.045496539   -0.67933096    -0.021697989  
   3872000   0.054933506   -0.80796894     0.048571073   -0.67705077    -0.019176349  
   3873000   0.054054794   -0.80570317     0.047446969   -0.67722632    -0.051030444  
   3874000   0.051731075   -0.80492344     0.045327143   -0.68204974     0.017852913  
   3875000   0.053253999   -0.80427568     0.046890184   -0.67755603    -0.055886919  
   3876000   0.053298234   -0.80677155     0.045608579   -0.6812672      0.0048794811 
   3877000   0.051691759   -0.80413494     0.048479487   -0.67816783    -0.011108428  
   3878000   0.051874947   -0.80823385     0.047690531   -0.6827811     -0.046065785  
   3879000   0.055632358   -0.80866738     0.048015437   -0.67725724    -0.039577007  
   3880000   0.053405568   -0.80372002     0.045915471   -0.67774788    -0.063319334  
   3881000   0.052700296   -0.80565789     0.046514259   -0.68014418    -0.022986575  
   3882000   0.052876614   -0.80332233     0.045944364   -0.67811421    -0.029119913  
   3883000   0.054794048   -0.80635902     0.048097929   -0.67612304    -0.032457692  
   3884000   0.051973513   -0.80763475     0.047260051   -0.68246473    -0.046260539  
   3885000   0.053881868   -0.80600827     0.047400939   -0.67783667    -0.01978119   
   3886000   0.054630553   -0.80678766     0.048308796   -0.67658591    -0.024776524  
   3887000   0.054216131   -0.80667536     0.046896789   -0.67850684    -0.037588685  
   3888000   0.055402966   -0.80441278     0.047111223   -0.67425072    -0.028718463  
   3889000   0.054130525   -0.80447099     0.046984924   -0.67634266    -0.0044800048 
   3890000   0.053986299   -0.80272155     0.046475228   -0.67531912    -0.01477787   
   3891000   0.05391134    -0.80296359     0.045877685   -0.67627107    -0.024180793  
   3892000   0.052150143   -0.8048006      0.04772591    -0.67889995    -0.0081188505 
   3893000   0.054533958   -0.80327957     0.04671479    -0.67481661    -0.0074981573 
   3894000   0.053354898   -0.80384632     0.050274139   -0.67359146    -0.016690839  
   3895000   0.053916141   -0.80651913     0.046022311   -0.67967478    -0.047921324  
   3896000   0.052795828   -0.80265558     0.047413457   -0.67609947    -0.0010561897 
   3897000   0.054620551   -0.80550569     0.04624092    -0.6773868      0.0036468985 
   3898000   0.053193901   -0.8011477      0.047287477   -0.67412085    -0.016171401  
   3899000   0.055841852   -0.80193079     0.047075254   -0.6711468     -0.021348561  
   3900000   0.053398647   -0.80358747     0.047301834   -0.67623934    -0.017335067  
   3901000   0.055229627   -0.80608503     0.048370785   -0.67492326     0.0006625399 
   3902000   0.053821726   -0.80674198     0.05041888    -0.67564259    -0.026472671  
   3903000   0.054118766   -0.80769027     0.047791448   -0.67877305     0.0014271819 
   3904000   0.055549188   -0.80389725     0.048339012   -0.67228821    -0.045720145  
   3905000   0.053577664   -0.80409394     0.047457349   -0.67632194     0.0015189374 
   3906000   0.053335934   -0.80512345     0.046973074   -0.67819809    -0.024005914  
   3907000   0.052798682   -0.80824939     0.045793342   -0.68330912    -0.036411723  
   3908000   0.053615289   -0.8033555      0.04865877    -0.67432569    -0.017612853  
   3909000   0.0545242     -0.80299838     0.046598378   -0.67466647    -0.01888958   
   3910000   0.054457435   -0.80390839     0.048637837   -0.6736371     -0.028046635  
   3911000   0.054572325   -0.80569691     0.045963663   -0.67792757    -0.016904563  
   3912000   0.05364013    -0.80315349     0.045864194   -0.67688102     0.0010820697 
   3913000   0.051110698   -0.80505406     0.045604875   -0.6828326     -0.0057595043 
   3914000   0.054821133   -0.80730887     0.046359487   -0.67877074    -0.011927206  
   3915000   0.052805123   -0.80475679     0.046593923   -0.67900629    -0.013926342  
   3916000   0.055599065   -0.80307765     0.046433692   -0.67329917    -0.032922056  
   3917000   0.054929762   -0.80460386     0.046956787   -0.67530559    -0.034176654  
   3918000   0.053008442   -0.80583268     0.048547978   -0.67782334    -0.023352539  
   3919000   0.053636217   -0.80360901     0.048911714   -0.67429488    -0.021886028  
   3920000   0.054143276   -0.803926       0.046034725   -0.67672876    -0.035465333  
   3921000   0.053602777   -0.80602607     0.04595453    -0.67971925    -0.020776936  
   3922000   0.051210126   -0.80531007     0.049915732   -0.6786287     -0.023998432  
   3923000   0.052122775   -0.80586208     0.046938641   -0.68078972    -0.010804671  
   3924000   0.053348443   -0.805429       0.045185682   -0.68027228    -0.053092025  
   3925000   0.053624968   -0.80552327     0.045020391   -0.68011732     0.020429057  
   3926000   0.05247936    -0.80671577     0.048387001   -0.67966051    -0.0023902977 
   3927000   0.054879204   -0.80522141     0.046669543   -0.67628617     0.011956019  
   3928000   0.055367496   -0.80454027     0.045371969   -0.67617064    -0.0069986887 
   3929000   0.054115971   -0.80584613     0.046845261   -0.67787929    -0.016177322  
   3930000   0.054572522   -0.80597688     0.045982875   -0.67818804    -0.050334605  
   3931000   0.053518635   -0.80530295     0.04737443    -0.67770236    -0.0092015361 
   3932000   0.056258647   -0.80328958     0.044377337   -0.67457872    -0.015909732  
   3933000   0.053363316   -0.80324986     0.048173086   -0.67508344    -0.023553002  
   3934000   0.053114906   -0.80384279     0.045757631   -0.6784642     -0.041782559  
   3935000   0.053563749   -0.80709704     0.043417212   -0.68338604    -0.036463246  
   3936000   0.053175539   -0.8041925      0.046753449   -0.6777272     -0.032943077  
   3937000   0.053708148   -0.8043839      0.045268708   -0.67860495    -0.027377948  
   3938000   0.052138327   -0.80365148     0.045482507   -0.68001194    -0.025958477  
   3939000   0.052204763   -0.80631946     0.044867171   -0.68319566    -0.022864227  
   3940000   0.050702837   -0.80345854     0.044588884   -0.68286446     0.030010426  
   3941000   0.054899221   -0.8045227      0.046772318   -0.67545467    -0.043320929  
   3942000   0.055029504   -0.80605188     0.047213875   -0.676347      -0.017627689  
   3943000   0.053205928   -0.80487898     0.048162894   -0.67695868    -0.027803609  
   3944000   0.053213288   -0.80150213     0.04502885    -0.67670485    -0.022330144  
   3945000   0.05181633    -0.80447621     0.046239446   -0.68056241    -0.0094033053 
   3946000   0.055259489   -0.80432944     0.04688114    -0.67461254    -0.0072710129 
   3947000   0.056086916   -0.80449625     0.046746574   -0.67367358    -0.0098229204 
   3948000   0.053895393   -0.80379312     0.046763166   -0.67623902    -0.013364472  
   3949000   0.053838141   -0.8052099      0.04709547    -0.67740932     0.020130224  
   3950000   0.055376578   -0.80627863     0.04831655    -0.67495081    -0.034348729  
   3951000   0.055504254   -0.80478558     0.048884191   -0.67269872    -0.027769442  
   3952000   0.053772885   -0.80436236     0.048140769   -0.6756143     -0.0067882743 
   3953000   0.053551711   -0.80584335     0.045798386   -0.67976922    -0.011489719  
   3954000   0.054530702   -0.80445208     0.048453304   -0.6742555     -0.011247655  
   3955000   0.055715705   -0.8036134      0.046075894   -0.67401787     0.016111861  
   3956000   0.05237494    -0.80400085     0.0478379     -0.67765123    -0.016724347  
   3957000   0.053497778   -0.80580783     0.0471057     -0.67850724    -0.026619193  
   3958000   0.05409011    -0.80678659     0.044893683   -0.68081008    -0.046012623  
   3959000   0.054227526   -0.80391869     0.045280354   -0.67734952    -0.040556092  
   3960000   0.052597613   -0.80324487     0.048270188   -0.67612916    -0.0084345772 
   3961000   0.05244094    -0.80373046     0.047865166   -0.67725464    -0.021176322  
   3962000   0.052277034   -0.8053202      0.045016752   -0.68193849    -0.012609043  
   3963000   0.054263435   -0.80460207     0.046334479   -0.67692495    -0.010567212  
   3964000   0.052796938   -0.80485741     0.048051499   -0.6776616      0.018549263  
   3965000   0.054283817   -0.80247598     0.049152482   -0.6719503     -0.025380872  
   3966000   0.052687162   -0.80381553     0.04716541    -0.67767037    -0.019011106  
   3967000   0.05256571    -0.80286596     0.049267356   -0.6748009     -0.029379934  
   3968000   0.052805517   -0.80626685     0.049927576   -0.6771821     -0.0310058    
   3969000   0.053323342   -0.80443905     0.047101748   -0.67740389    -0.01599762   
   3970000   0.053457443   -0.80518865     0.046483402   -0.67857082    -0.026154843  
   3971000   0.053877855   -0.80463447     0.046913756   -0.67695607    -0.047850118  
   3972000   0.054397878   -0.80319372     0.044655629   -0.67699392    -0.032595964  
   3973000   0.054915575   -0.80456857     0.046898797   -0.67534956    -0.036254673  
   3974000   0.054788803   -0.80247246     0.046124708   -0.67421757    -0.014437375  
   3975000   0.054356363   -0.80459209     0.044700341   -0.6784098     -0.0058608926 
   3976000   0.05503571    -0.80417715     0.044651031   -0.67702581    -0.014439539  
   3977000   0.054167599   -0.80530602     0.047129663   -0.67697737    -0.030591649  
   3978000   0.052765792   -0.80452377     0.047536241   -0.67788991    -0.015368754  
   3979000   0.053213889   -0.80345322     0.046888888   -0.67679499    -0.016537144  
   3980000   0.055157483   -0.80447888     0.044539621   -0.67725642    -0.013212204  
   3981000   0.05313415    -0.80610123     0.046556448   -0.67989498    -0.0087235863 
   3982000   0.054089193   -0.8047702      0.045656068   -0.67803269    -0.02800471   
   3983000   0.055274089   -0.80507247     0.044284211   -0.67793062     0.0074431064 
   3984000   0.05620226    -0.80415617     0.04755044    -0.67235673     0.0064349657 
   3985000   0.056498754   -0.80478116     0.049103138   -0.67098457    -0.020149384  
   3986000   0.055655923   -0.80527597     0.046137598   -0.67570835    -0.025400818  
   3987000   0.055165307   -0.80377425     0.048082339   -0.67299733    -0.018262759  
   3988000   0.053825442   -0.80713372     0.047456983   -0.67899066    -0.0042944819 
   3989000   0.053464632   -0.80526496     0.046522706   -0.67859705    -0.034854633  
   3990000   0.054476153   -0.80381767     0.046787129   -0.67536903     0.0075223132 
   3991000   0.055302315   -0.80420378     0.04903958    -0.67226424    -0.027070942  
   3992000   0.053182121   -0.80169476     0.047669033   -0.67430401    -0.02217852   
   3993000   0.054389447   -0.80493845     0.045954831   -0.67745208     0.0074868892 
   3994000   0.050740757   -0.80483019     0.048719098   -0.68004906    -0.015509051  
   3995000   0.054093282   -0.80627427     0.049056441   -0.67613026    -0.017586947  
   3996000   0.053501298   -0.80694917     0.045692099   -0.6810569      0.0054348135 
   3997000   0.053535762   -0.80656902     0.047162466   -0.67915472    -0.0091662766 
   3998000   0.05339648    -0.80507022     0.047046515   -0.67798066    -0.022121771  
   3999000   0.052960112   -0.8053629      0.048676319   -0.67729766    -0.022861777  
   4000000   0.054035992   -0.80309891     0.046847742   -0.67524947    -0.013161674  
Loop time of 1225.69 on 8 procs for 3500000 steps with 1550 atoms

Performance: 246718.753 tau/day, 2855.541 timesteps/s, 4.426 Matom-step/s
94.2% CPU use with 8 MPI tasks x 1 OpenMP threads

MPI task timing breakdown:
Section |  min time  |  avg time  |  max time  |%varavg| %total
---------------------------------------------------------------
Pair    | 72.658     | 200.84     | 312.89     | 608.2 | 16.39
Bond    | 20.087     | 37.224     | 51.103     | 182.4 |  3.04
Neigh   | 0.83972    | 0.84049    | 0.84128    |   0.0 |  0.07
Comm    | 129.24     | 250.06     | 389.89     | 585.2 | 20.40
Output  | 9.2408     | 9.392      | 9.5052     |   2.8 |  0.77
Modify  | 711.98     | 716.5      | 721.45     |  14.9 | 58.46
Other   |            | 10.84      |            |       |  0.88

Nlocal:         193.75 ave         391 max          35 min
Histogram: 2 1 0 1 1 0 0 2 0 1
Nghost:          584.5 ave         671 max         523 min
Histogram: 2 1 1 1 0 1 0 0 1 1
Neighs:              0 ave           0 max           0 min
Histogram: 8 0 0 0 0 0 0 0 0 0
FullNghs:      7475.75 ave       18764 max         791 min
Histogram: 3 0 1 1 0 0 2 0 0 1

Total # of neighbors = 59806
Ave neighs/atom = 38.584516
Ave special neighs/atom = 2.1612903
Neighbor list builds = 1450
Dangerous builds = 0

# Write data for deformation

write_restart ${Dir}/${file6_name}
write_restart /home/franvt/GitRepos/molDynLammps/polymericGels/gel-bonds-1/data/0.050.30.05500-2026-01-27-162300/${file6_name}
write_restart /home/franvt/GitRepos/molDynLammps/polymericGels/gel-bonds-1/data/0.050.30.05500-2026-01-27-162300/data.hydrogel
System init for write_restart ...
WARNING: Using a manybody potential with bonds/angles/dihedrals and special_bond exclusions (src/pair.cpp:250)
Hybrid pair style last /omp style table/omp
Last active /omp style is angle_style harmonic/omp
Total wall time: 0:22:41
