LAMMPS (22 Jul 2025)
OMP_NUM_THREADS environment is not set. Defaulting to 1 thread.
  using 1 OpenMP thread(s) per MPI task
package omp 0
using multi-threaded neighbor list subroutines
# Input Script of lammps for assembly simulation of polimeric network.
# Main code is based on: https://github.com/PipeB62/Hydrogel-Simulation
# Patchy particles are with bond style.

# Felipe Benavides modified by Fco. Vazquez

# Initialization
units lj
dimension 3
boundary p p p

# Styles of atoms and that stuff
atom_style full
bond_style harmonic
angle_style harmonic
pair_style hybrid/overlay zero 0.0 lj/cut/omp 1.12 table/omp linear 5000000 threebody/table

newton on

# Create simulaiton box
region simulation_box block -$L $L -$L $L -$L $L
region simulation_box block -9.796741 $L -$L $L -$L $L
region simulation_box block -9.796741 9.796741 -$L $L -$L $L
region simulation_box block -9.796741 9.796741 -9.796741 $L -$L $L
region simulation_box block -9.796741 9.796741 -9.796741 9.796741 -$L $L
region simulation_box block -9.796741 9.796741 -9.796741 9.796741 -9.796741 $L
region simulation_box block -9.796741 9.796741 -9.796741 9.796741 -9.796741 9.796741
# N-atom-types region-ID keyword value Is necesesary the extra/special/per/atom (# of special neighbors per atom)
create_box 4 simulation_box     bond/types 1     angle/types 2     extra/bond/per/atom 10     extra/angle/per/atom 6     extra/special/per/atom 10
Created orthogonal box = (-9.796741 -9.796741 -9.796741) to (9.796741 9.796741 9.796741)
  2 by 2 by 2 MPI processor grid

# Atom types
mass 1 1.0      # CL
mass 2 1.0      # MO
mass 3 1.0      # PA
mass 4 1.0      # PB

# Coefficients
include potential.in
# Script with the pair-wise interaction and bonds between particles

bond_coeff 1 100.0 0.45
angle_coeff 1 100.0 180
angle_coeff 2 100.0 109.4712
pair_coeff 1 3 zero 0.5
pair_coeff 1 4 zero 0.5
pair_coeff 2 3 zero 0.5
pair_coeff 2 4 zero 0.5
pair_coeff 3 3 zero 0.5
pair_coeff 1 1 lj/cut/omp 1.0 1.0 1.12
pair_coeff 2 2 lj/cut/omp 1.0 1.0 1.12
pair_coeff 1 2 lj/cut/omp 1.0 1.0 1.12
pair_coeff 3 4 table/omp sysFiles/pachTab.table POT 0.6 # sw/omp sysFiles/patchyPot.sw NULL NULL PA PB
Reading pair table potential file sysFiles/pachTab.table with DATE: 2024-07-08
WARNING: 7 of 1000000 force values in table POT are inconsistent with -dE/dr.
WARNING:  Should only be flagged at inflection points (src/pair_table.cpp:469)
pair_coeff 4 4 table/omp sysFiles/pachTab.table POT 0.6 # sw/omp sysFiles/patchyPot.sw NULL NULL PA PB
Reading pair table potential file sysFiles/pachTab.table with DATE: 2024-07-08
WARNING: 7 of 1000000 force values in table POT are inconsistent with -dE/dr.
WARNING:  Should only be flagged at inflection points (src/pair_table.cpp:469)
pair_coeff * * threebody/table swapMech.3b NULL NULL PA PB
pair_modify pair lj/cut/omp shift yes


# Molecules
include molecules.in
# Script with all molecule information and create groups for computes

# Read the molecule information
molecule CL sysFiles/molecule.patchy.CL
Read molecule template CL:
# Patchy Cross-Linker
  1 molecules
  0 fragments
  0 bodies
  5 atoms with max type 3
  4 bonds with max type 1
  6 angles with max type 2
  0 dihedrals with max type 0
  0 impropers with max type 0
molecule MO sysFiles/molecule.patchy.MO
Read molecule template MO:
# Patchy Monomer
  1 molecules
  0 fragments
  0 bodies
  3 atoms with max type 4
  2 bonds with max type 1
  1 angles with max type 1
  0 dihedrals with max type 0
  0 impropers with max type 0

# Introduce the molecules
# ID style args keyword arg
region spawn_box block -$L $L -$L $L -$L $L
region spawn_box block -9.796741 $L -$L $L -$L $L
region spawn_box block -9.796741 9.796741 -$L $L -$L $L
region spawn_box block -9.796741 9.796741 -9.796741 $L -$L $L
region spawn_box block -9.796741 9.796741 -9.796741 9.796741 -$L $L
region spawn_box block -9.796741 9.796741 -9.796741 9.796741 -9.796741 $L
region spawn_box block -9.796741 9.796741 -9.796741 9.796741 -9.796741 9.796741

# create_atoms type style args keyword values
# style_random: N seed region-ID
# keyword_mol: template-ID seed
# keyword_overlap: overlap value = only insert if at least this distance from all existing atoms
# keyword_maxtry: maxtry value = number of attempts to insert a particle before failure
create_atoms 0 random ${NCL} ${seed1} spawn_box mol CL ${seed1} overlap 1.0 maxtry 5000 #xls
create_atoms 0 random 25 ${seed1} spawn_box mol CL ${seed1} overlap 1.0 maxtry 5000 
create_atoms 0 random 25 3234 spawn_box mol CL ${seed1} overlap 1.0 maxtry 5000 
create_atoms 0 random 25 3234 spawn_box mol CL 3234 overlap 1.0 maxtry 5000 
Created 125 atoms
  using lattice units in orthogonal box = (-9.796741 -9.796741 -9.796741) to (9.796741 9.796741 9.796741)
  create_atoms CPU = 0.009 seconds
create_atoms 0 random ${NMO} ${seed2} spawn_box mol MO ${seed2} overlap 1.0 maxtry 5000 #mon
create_atoms 0 random 475 ${seed2} spawn_box mol MO ${seed2} overlap 1.0 maxtry 5000 
create_atoms 0 random 475 6321 spawn_box mol MO ${seed2} overlap 1.0 maxtry 5000 
create_atoms 0 random 475 6321 spawn_box mol MO 6321 overlap 1.0 maxtry 5000 
Created 1425 atoms
  using lattice units in orthogonal box = (-9.796741 -9.796741 -9.796741) to (9.796741 9.796741 9.796741)
  create_atoms CPU = 0.006 seconds

# Create patchy particles
group CrossLinker type 1 3
125 atoms in group CrossLinker
group Monomer type 2 4
1425 atoms in group Monomer
group Patches type 3 4
1050 atoms in group Patches
group CL type 1
25 atoms in group CL
group MO type 2
475 atoms in group MO
group PA type 3
100 atoms in group PA
group CM type 1 2
500 atoms in group CM

# Neighbor list
neighbor 1.8 bin # extra-distance style
#neigh_modify delay 0 every 1 check no
#neigh_modify exclude molecule/intra CrossLinker
#neigh_modify exclude molecule/intra Monomer

# COMPUTES

# Compute global kinetic and potential energy and temperature
compute t all temp
compute p all pressure t
compute ep all pe
compute ek all ke
variable eT equal etotal
variable eB equal ebond
variable eA equal eangle
variable eM equal emol
variable ec equal ecouple
variable eC equal econserve

# Potencial energy per pair-wise interaction
compute wcaPair all pair lj/cut/omp epair
compute patchPair all pair table/omp epair
compute swapPair all pair threebody/table epair

# Compute the pressure
compute press all pressure t ke virial
compute pressVirial all pressure t virial
compute pressVirialMod all pressure t pair bond angle

# Computes for the stress
compute cstress all stress/atom t ke pair bond angle
compute cstressVirial all stress/atom t virial
compute cstressVirialMod all stress/atom t pair bond angle
compute stress all reduce sum c_cstress[*]
compute stressVirial all reduce sum c_cstressVirial[*]
compute stressVirialMod all reduce sum c_cstressVirialMod[*]

# Displacement of the central particles
compute disp CM displace/atom
compute redDisp CM reduce ave c_disp[*] # All, because yes

# Get the number of central particles per cluster
compute clusters all aggregate/atom 0.6                             # Create the clusters
compute Nclpart CM chunk/atom c_clusters compress yes discard yes   # Get the number of clusters
compute clsize CM property/chunk Nclpart count                      # Counts the atoms in each chunk
compute idcl CM property/chunk Nclpart id                           # Get the ids of the clusters

# DUMPS and FIXES

thermo ${NsaveStress}
thermo 1000

# Save global energies and temperature
fix Energy all ave/time 1 ${Nsave} ${Nsave} c_t c_wcaPair c_patchPair c_swapPair c_ep c_ek v_eT v_ec v_eC c_p v_eB v_eA v_eM c_redDisp[*] file ${Dir}/${file1_name}
fix Energy all ave/time 1 1000 ${Nsave} c_t c_wcaPair c_patchPair c_swapPair c_ep c_ek v_eT v_ec v_eC c_p v_eB v_eA v_eM c_redDisp[*] file ${Dir}/${file1_name}
fix Energy all ave/time 1 1000 1000 c_t c_wcaPair c_patchPair c_swapPair c_ep c_ek v_eT v_ec v_eC c_p v_eB v_eA v_eM c_redDisp[*] file ${Dir}/${file1_name}
fix Energy all ave/time 1 1000 1000 c_t c_wcaPair c_patchPair c_swapPair c_ep c_ek v_eT v_ec v_eC c_p v_eB v_eA v_eM c_redDisp[*] file /home/franvt/GitRepos/molDynLammps/polymericGels/gel-bonds-1/data/0.050.30.05500-2026-01-22-165623/${file1_name}
fix Energy all ave/time 1 1000 1000 c_t c_wcaPair c_patchPair c_swapPair c_ep c_ek v_eT v_ec v_eC c_p v_eB v_eA v_eM c_redDisp[*] file /home/franvt/GitRepos/molDynLammps/polymericGels/gel-bonds-1/data/0.050.30.05500-2026-01-22-165623/system_assembly.fixf

# Save Pressure and Stress tensor
fix fixStress5 all ave/time 1 ${NsaveStress} ${NsaveStress} c_p c_press[*] c_pressVirial[*] c_pressVirialMod[*] c_stress[*] c_stressVirial[*] c_stressVirialMod[*] file ${Dir}/${file2_name}
fix fixStress5 all ave/time 1 1000 ${NsaveStress} c_p c_press[*] c_pressVirial[*] c_pressVirialMod[*] c_stress[*] c_stressVirial[*] c_stressVirialMod[*] file ${Dir}/${file2_name}
fix fixStress5 all ave/time 1 1000 1000 c_p c_press[*] c_pressVirial[*] c_pressVirialMod[*] c_stress[*] c_stressVirial[*] c_stressVirialMod[*] file ${Dir}/${file2_name}
fix fixStress5 all ave/time 1 1000 1000 c_p c_press[*] c_pressVirial[*] c_pressVirialMod[*] c_stress[*] c_stressVirial[*] c_stressVirialMod[*] file /home/franvt/GitRepos/molDynLammps/polymericGels/gel-bonds-1/data/0.050.30.05500-2026-01-22-165623/${file2_name}
fix fixStress5 all ave/time 1 1000 1000 c_p c_press[*] c_pressVirial[*] c_pressVirialMod[*] c_stress[*] c_stressVirial[*] c_stressVirialMod[*] file /home/franvt/GitRepos/molDynLammps/polymericGels/gel-bonds-1/data/0.050.30.05500-2026-01-22-165623/stress_assembly.fixf

# Save the global cluster information
fix 1 CM ave/time 1 1 ${Ndump} c_idcl c_clsize file ${Dir}/${file3_name} mode vector
fix 1 CM ave/time 1 1 1000 c_idcl c_clsize file ${Dir}/${file3_name} mode vector
fix 1 CM ave/time 1 1 1000 c_idcl c_clsize file /home/franvt/GitRepos/molDynLammps/polymericGels/gel-bonds-1/data/0.050.30.05500-2026-01-22-165623/${file3_name} mode vector
fix 1 CM ave/time 1 1 1000 c_idcl c_clsize file /home/franvt/GitRepos/molDynLammps/polymericGels/gel-bonds-1/data/0.050.30.05500-2026-01-22-165623/clust_assembly.fixf mode vector

# Save atom positions with cluster id
dump dumpID all custom ${Ndump} ${Dir}/traj/${file5_name} id mol c_clusters type x y z vx vy vz
dump dumpID all custom 1000 ${Dir}/traj/${file5_name} id mol c_clusters type x y z vx vy vz
dump dumpID all custom 1000 /home/franvt/GitRepos/molDynLammps/polymericGels/gel-bonds-1/data/0.050.30.05500-2026-01-22-165623/traj/${file5_name} id mol c_clusters type x y z vx vy vz
dump dumpID all custom 1000 /home/franvt/GitRepos/molDynLammps/polymericGels/gel-bonds-1/data/0.050.30.05500-2026-01-22-165623/traj/traj_assembly.*.dumpf id mol c_clusters type x y z vx vy vz
dump_modify dumpID pbc yes # remap atoms via periodic boundary conditions

# RUN SIMULATION

# Brownian Dynamics using Langevin Thermostat

timestep ${tstep}
timestep 0.001

fix VelVerlet all nve # Use Velocity Verlet integrator

# First elevate the temperature
fix ThermoLng all langevin 0.0 ${temp} ${damp} ${seed3} tally yes zero yes # Brownian Dynamics: langevin + nve
fix ThermoLng all langevin 0.0 0.05 ${damp} ${seed3} tally yes zero yes 
fix ThermoLng all langevin 0.0 0.05 1 ${seed3} tally yes zero yes 
fix ThermoLng all langevin 0.0 0.05 1 2010 tally yes zero yes 
run ${stepsheat}
run 500000
WARNING: Using a manybody potential with bonds/angles/dihedrals and special_bond exclusions (src/pair.cpp:250)
Hybrid pair style last /omp style table/omp
Last active /omp style is angle_style harmonic/omp
Neighbor list info ...
  update: every = 1 steps, delay = 0 steps, check = yes
  max neighbors/atom: 2000, page size: 100000
  master list distance cutoff = 2.92
  ghost atom cutoff = 2.92
  binsize = 1.46, bins = 14 14 14
  7 neighbor lists, perpetual/occasional/extra = 6 1 0
  (1) pair zero, perpetual, skip from (7)
      attributes: half, newton on, omp
      pair build: skip/omp
      stencil: none
      bin: none
  (2) pair lj/cut/omp, perpetual, skip from (7)
      attributes: half, newton on, omp
      pair build: skip/omp
      stencil: none
      bin: none
  (3) pair table/omp, perpetual, skip from (7)
      attributes: half, newton on, omp
      pair build: skip/omp
      stencil: none
      bin: none
  (4) pair threebody/table, perpetual, skip from (6)
      attributes: full, newton on, omp
      pair build: skip/omp
      stencil: none
      bin: none
  (5) compute aggregate/atom, occasional, copy from (6)
      attributes: full, newton on, omp
      pair build: copy
      stencil: none
      bin: none
  (6) neighbor class addition, perpetual
      attributes: full, newton on, omp
      pair build: full/bin/omp
      stencil: full/bin/3d
      bin: standard
  (7) neighbor class addition, perpetual, half/full from (6)
      attributes: half, newton on, omp
      pair build: halffull/newton/omp
      stencil: none
      bin: none
Per MPI rank memory allocation (min/avg/max) = 20.03 | 20.03 | 20.03 Mbytes
   Step          Temp          E_pair         E_mol          TotEng         Press     
         0   0              0.00041490155  0.15480456     0.15521947    -0.21361809   
      1000   0.038128237    0              0.00013757075  0.057293028    0.0036255212 
      2000   0.00015524756  8.543009e-08   0.020977048    0.021209855    0.068369326  
      3000   0.0053601671   0              0.0001566732   0.0081917366   0.0024773034 
      4000   0.00032043582  0              0.0030278828   0.0035082264  -0.026562159  
      5000   0.0011098552   0              0.00027894739  0.0019426561  -0.0005261401 
      6000   0.00052871377  0              0.00073390715  0.0015264661   0.0095531329 
      7000   0.00072896697  0              0.00040823029  0.0015009753  -1.2979742e-05
      8000   0.0007251149   0              0.00053299756  0.0016199682  -0.0032626071 
      9000   0.00081771509  1.3387704e-06  0.00052435467  0.0017514747   2.4759112e-06
     10000   0.00090243713  0              0.0006006103   0.0019533927   0.0011493598 
     11000   0.0010197323   0              0.00066288448  0.0021914962  -0.00042254769
     12000   0.0011051079   0              0.00072884253  0.0023854349  -0.00024522879
     13000   0.0011985165   0              0.00078137006  0.0025779849   0.00057614678
     14000   0.0013249056   0              0.00085482435  0.0028409006   0.00081224385
     15000   0.0014112991   0              0.00096232634  0.0030779093  -0.00010780047
     16000   0.0015343975   0              0.0010154688   0.0033155802  -0.00081771796
     17000   0.0016020278   4.7441589e-08  0.0010642477   0.0034657865   0.00030980887
     18000   0.0017598133   0              0.0011497192   0.003787736    0.0012942109 
     19000   0.0018430414   0              0.0012059735   0.003968752    5.7970273e-05
     20000   0.0019080305   0              0.0012946994   0.0041548986  -0.00044607826
     21000   0.001992366    5.7799363e-07  0.0013610759   0.0043482748   0.00069963965
     22000   0.0021283243  -3.6672612e-09  0.0014649008   0.0046553239   0.00056659963
     23000   0.0025735469  -0.0015218821   0.0017283014   0.004064249    0.00012610136
     24000   0.0024444094  -0.0016039619   0.0016864538   0.0037467405  -0.00025353478
     25000   0.0024681684  -0.0016016608   0.0016795706   0.0037777739  -0.00025316254
     26000   0.0025092316  -0.001589946    0.001707866    0.0038793392   0.00073864395
     27000   0.0030589285  -0.0031177114   0.002012252    0.0034799731   0.00066127919
     28000   0.002845273   -0.0031717067   0.0020052056   0.003098655   -0.00065030665
     29000   0.0028512639  -0.0032042003   0.0019482227   0.0030181589  -0.00057429635
     30000   0.0032344357  -0.0047618896   0.0020775691   0.0021642029  -0.00033739482
     31000   0.0030894149  -0.0048363168   0.0022389438   0.0020337595  -5.3009553e-05
     32000   0.0032581607  -0.0048324545   0.0021927205   0.0022443541   0.0004081845 
     33000   0.0032215756  -0.0048326584   0.0023286392   0.0023252265   0.00081874659
     34000   0.0040031854  -0.0075381178   0.0027834668   0.0012462531  -0.00038818505
     35000   0.0034571004  -0.0077706526   0.0024728762  -0.00011547145 -0.00047436738
     36000   0.0044781808  -0.010762873    0.002879389   -0.0011705465   0.00029027022
     37000   0.0046349367  -0.012733258    0.0026719396  -0.0031133985   0.0014358727 
     38000   0.003998545   -0.012685588    0.002635141   -0.004056499    0.00085337462
     39000   0.0042627611  -0.014426017    0.0027870632  -0.0052489372  -0.00031597353
     40000   0.004134619   -0.014466278    0.0026197665  -0.0056485844  -0.0001137876 
     41000   0.0039847584  -0.014424344    0.0027835834  -0.005667479    0.0012337074 
     42000   0.0041003877  -0.014461977    0.0027443035  -0.00557106     0.00093054757
     43000   0.0046610268  -0.016092878    0.0029636582  -0.0061421907  -0.00089918803
     44000   0.0050067312  -0.017410171    0.0032844405  -0.0066204791   0.00065734213
     45000   0.004455419   -0.017661738    0.0034852371  -0.0074976837   0.00065597604
     46000   0.0051730411  -0.018875657    0.0031358034  -0.0079852986   0.0012827956 
     47000   0.0048234191  -0.020213159    0.0036651187  -0.0093175793  -0.00014686758
     48000   0.0050129943  -0.020804911    0.0032635772  -0.010026693    0.0010465819 
     49000   0.0048960789  -0.02092223     0.003432082   -0.010150768    0.00069088756
     50000   0.0049235086  -0.020936616    0.0033882007  -0.010167917    0.00079825125
     51000   0.00492648    -0.020952896    0.0034339135  -0.01013403    -9.9449397e-06
     52000   0.0049640066  -0.020935875    0.0036265379  -0.0098681306   0.0005278417 
     53000   0.0051770599  -0.020929367    0.003623604   -0.0095451832   0.00036990358
     54000   0.0052657508  -0.020944248    0.0034947157  -0.0095560024   0.00086037796
     55000   0.0060853671  -0.023751249    0.0038114575  -0.01081763    -0.0011225271 
     56000   0.0062538265  -0.025626116    0.0044453757  -0.011806053   -0.00027783503
     57000   0.0059547504  -0.025535002    0.0040988231  -0.012509816    0.00078965433
     58000   0.0058286135  -0.025713989    0.0042028718  -0.012773837    0.00087809502
     59000   0.0059676236  -0.025765081    0.004081245   -0.012738176   -0.00083566962
     60000   0.0062263966  -0.028179923    0.0047460447  -0.014100309   -0.00074142725
     61000   0.0059818772  -0.028790768    0.0043156234  -0.015508118    0.0019284784 
     62000   0.0067672005  -0.030551642    0.0044656802  -0.01594171     0.00085783845
     63000   0.0061759127  -0.030546407    0.0042984406  -0.016990074    0.00022777165
     64000   0.006368309   -0.030614988    0.0043737853  -0.016694903    0.00091681367
     65000   0.006979178   -0.03180092     0.0046508149  -0.016688092   -0.0010421423 
     66000   0.006667507   -0.033497093    0.0049865955  -0.018515689   -0.00018351472
     67000   0.0070366041  -0.035029979    0.0048388929  -0.019642989    0.001288804  
     68000   0.0066585769  -0.035294355    0.0049549037  -0.020358029    0.00035402746
     69000   0.00774469    -0.03695675     0.0046795276  -0.020667683    0.00070925206
     70000   0.0075509027  -0.04064005     0.0055705939  -0.02375041    -0.0018496157 
     71000   0.0080932312  -0.043399417    0.005499981   -0.025767421    0.0017198277 
     72000   0.0073398181  -0.043454734    0.0052650805  -0.02718703     0.0016786875 
     73000   0.0082095926  -0.045840785    0.0054637154  -0.028070625    0.0004600615 
     74000   0.0077800166  -0.046450173    0.0052802499  -0.029507427   -0.00041996995
     75000   0.0074292031  -0.046591614    0.0053660244  -0.030088975   -0.00041463259
     76000   0.0080027951  -0.048257038    0.0055370475  -0.030723543    0.0020339269 
     77000   0.0076748602  -0.048277163    0.0053867585  -0.031385542    0.001708909  
     78000   0.008144959   -0.049644101    0.0054825338  -0.03195201    -0.00091277784
     79000   0.0074898826  -0.051124451    0.005852221   -0.034044654    0.00045086305
     80000   0.0082122728  -0.052183593    0.0058364175  -0.034036714   -0.00035149015
     81000   0.0085000032  -0.054556112    0.0056781302  -0.036136202    0.00015970755
     82000   0.0082185397  -0.056153057    0.0062090051  -0.037624196    0.00014269859
     83000   0.0096146426  -0.058705174    0.006278348   -0.038014166    0.00037179401
     84000   0.0092357251  -0.059354831    0.005857861   -0.03965232     0.00047488718
     85000   0.0081015621  -0.059531149    0.0058980691  -0.041488577   -9.8837603e-05
     86000   0.0088965743  -0.061422849    0.0060647872  -0.04202181    -0.00091965681
     87000   0.008721849   -0.062409196    0.0064831676  -0.042851695    0.0029836841 
     88000   0.010043441   -0.06582373     0.0067625536  -0.044005735    0.0013747767 
     89000   0.0095545455  -0.066951882    0.0061576629  -0.046471648    0.00010086466
     90000   0.010147375   -0.069095769    0.0060937386  -0.047790787    0.00022778544
     91000   0.0092176955  -0.069033274    0.0067508475  -0.048464804    0.00063674755
     92000   0.0095120861  -0.070714241    0.0067916841  -0.049663633    0.0015618703 
     93000   0.0092714691  -0.070794768    0.006522662   -0.050373875    0.0014469555 
     94000   0.0093884616  -0.070797593    0.0067830233  -0.049940963    0.0010637428 
     95000   0.010528898   -0.073839706    0.0066369646  -0.051419583    0.0018230506 
     96000   0.0097243418  -0.073761103    0.0063165777  -0.052867424   -0.0007493365 
     97000   0.010361445   -0.075603985    0.0070295896  -0.053042255    0.00013826626
     98000   0.010936829   -0.078282777    0.0072153604  -0.054672758    0.00022203233
     99000   0.010007058   -0.07857286     0.0069755328  -0.056596425   -0.00061588076
    100000   0.010245952   -0.0787175      0.0072617911  -0.056096696   -0.00060968091
    101000   0.010321905   -0.080184721    0.006843532   -0.05786832    -2.6514343e-05
    102000   0.0098863423  -0.080469564    0.0071374487  -0.05851217     0.0013675838 
    103000   0.011470406   -0.083627393    0.0076160969  -0.058816787    0.00050325661
    104000   0.011527542   -0.085612898    0.0075690398  -0.060763701    0.0024648261 
    105000   0.011119937   -0.087780608    0.0078257665  -0.063285697    0.00052593822
    106000   0.01170929    -0.09016856     0.0077799722  -0.064835983   -0.0010794652 
    107000   0.011522565   -0.09285923     0.0077139178  -0.067872615    0.0014563314 
    108000   0.013520888   -0.099770544    0.0085623327  -0.070939963    0.0011599371 
    109000   0.011529412   -0.1033862      0.0088490306  -0.077254211    9.9780679e-05
    110000   0.012026175   -0.10566135     0.0082480033  -0.079385721    0.00075832342
    111000   0.011215969   -0.10599615     0.0076627336  -0.081520322    0.00083506577
    112000   0.011155031   -0.10616894     0.0077189127  -0.081728273   -0.00026488348
    113000   0.011436224   -0.10621597     0.0077084037  -0.081364294    7.3577918e-05
    114000   0.012672019   -0.11039043     0.0085998253  -0.082794837    0.0012530127 
    115000   0.012153045   -0.11208671     0.0085175372  -0.085351362   -6.4095154e-05
    116000   0.012049636   -0.11466189     0.0086054506  -0.087993642   -0.0015391253 
    117000   0.012425034   -0.11854179     0.0086691728  -0.091247093   -7.0786927e-05
    118000   0.012139153   -0.12030217     0.0083662207  -0.093738966   -0.00069085147
    119000   0.011936462   -0.12026232     0.0085198643  -0.093849314    0.00025836464
    120000   0.012323119   -0.11981425     0.0078973277  -0.093444167    0.0024464911 
    121000   0.012050099   -0.12121923     0.0089986922  -0.094157052   -0.00011718659
    122000   0.012461268   -0.12163039     0.0084977783  -0.094452774    0.0018914347 
    123000   0.011897934   -0.12167583     0.0082166359  -0.095623805   -0.0001606318 
    124000   0.01218994    -0.12280529     0.0084792839  -0.096052896   -0.00016124853
    125000   0.013819332   -0.12748322     0.0091783133  -0.097589287    0.0010159174 
    126000   0.013516519   -0.12981604     0.0092473799  -0.10030696     0.00015167937
    127000   0.01344442    -0.13079632     0.0090613998  -0.1015813      0.0012314798 
    128000   0.013012271   -0.13094118     0.008984609   -0.10245075     0.0018587764 
    129000   0.01394513    -0.1340877      0.0097241648  -0.10345934    -0.00091713683
    130000   0.014518932   -0.13825233     0.0098758398  -0.10661214     0.00068960556
    131000   0.014400814   -0.14060094     0.0095894468  -0.10942421     0.00099427697
    132000   0.013974206   -0.14410395     0.0097836099  -0.11337256    -0.00017782238
    133000   0.014458325   -0.14594271     0.0091598544  -0.11510936     0.0017732821 
    134000   0.014486291   -0.14731949     0.009957813   -0.11564626     0.0015994459 
    135000   0.013934909   -0.14868447     0.0094951165  -0.11830048    -0.00060517323
    136000   0.013891594   -0.15044457     0.0093267551  -0.12029387     0.0011814621 
    137000   0.013860227   -0.15117436     0.0099526431  -0.12044479     0.0021790202 
    138000   0.015540862   -0.15610763     0.0097098798  -0.1231015      0.0024273892 
    139000   0.014324031   -0.1580733      0.010182044   -0.12641907    -0.00051038477
    140000   0.014618271   -0.15968291     0.010609813   -0.12715984     0.0031976779 
    141000   0.013980692   -0.16003318     0.0095294761  -0.12954619    -0.00065448846
    142000   0.01470898    -0.1623726      0.0099505477  -0.13037282     0.0012996984 
    143000   0.014240895   -0.16329545     0.0098576797  -0.13209021    -0.00036459091
    144000   0.015458822   -0.16827936     0.010657376   -0.13444871     0.0027589845 
    145000   0.015507985   -0.17218092     0.010640412   -0.13829353    -0.00065158107
    146000   0.016802948   -0.17680499     0.011269482   -0.14034734    -0.0033958661 
    147000   0.017783351   -0.18475617     0.011730089   -0.14636827     0.0017946907 
    148000   0.016187157   -0.18760906     0.011267408   -0.15207658     0.0030577156 
    149000   0.015515489   -0.19054689     0.011048593   -0.15624008     0.0010397055 
    150000   0.015902349   -0.19276726     0.010885828   -0.1580433      0.0013232619 
    151000   0.017290976   -0.19674655     0.010675543   -0.16015127     0.00076759469
    152000   0.015865176   -0.19870262     0.010598388   -0.16432182     0.00027306366
    153000   0.015663298   -0.20091814     0.010662966   -0.16677538     0.0012900917 
    154000   0.016243314   -0.20303496     0.010352663   -0.16833304     0.00042867059
    155000   0.015267737   -0.20293989     0.010436199   -0.16961686     0.00030330267
    156000   0.016068947   -0.20480797     0.011245525   -0.16947457    -0.00094030851
    157000   0.016653306   -0.20899583     0.011586695   -0.17244529    -0.00027295587
    158000   0.01643151    -0.20994624     0.011394756   -0.17392012     0.0015984549 
    159000   0.017112633   -0.21396104     0.012580218   -0.17572843    -0.0003824299 
    160000   0.01664739    -0.21424464     0.011752173   -0.17753749     0.00060220484
    161000   0.016024891   -0.21424915     0.011785084   -0.17844223    -0.00059178094
    162000   0.017335814   -0.22046851     0.011983914   -0.18249766    -0.0015693521 
    163000   0.017424891   -0.22368898     0.011920466   -0.18564804     0.0022229807 
    164000   0.01661629    -0.22371841     0.011305769   -0.18750429     0.0040464211 
    165000   0.018714681   -0.23021627     0.01317253    -0.18898983     0.001473305  
    166000   0.017546646   -0.23107361     0.011578218   -0.19319241     0.00010031964
    167000   0.017660795   -0.23749344     0.013047684   -0.19797166     0.0017357876 
    168000   0.018165229   -0.24050182     0.011499001   -0.20177255    -2.5632469e-05
    169000   0.018238434   -0.24534779     0.012087038   -0.20592075     0.0040101346 
    170000   0.017366957   -0.24738329     0.012150052   -0.20919961     0.00041038612
    171000   0.01858677    -0.2476208      0.012081972   -0.20767666    -0.0013603274 
    172000   0.017868369   -0.24796321     0.011935233   -0.20924271     0.0022585794 
    173000   0.019416967   -0.25340184     0.012832359   -0.21146282     0.0046432205 
    174000   0.018083482   -0.25398913     0.012405223   -0.21447618    -0.0015696846 
    175000   0.018028072   -0.25759224     0.012376948   -0.21819063     0.0017209254 
    176000   0.01834005    -0.25828261     0.012788834   -0.21800145     0.00032958247
    177000   0.020679285   -0.26102979     0.012759363   -0.21727151     0.00021305146
    178000   0.018666222   -0.26170995     0.012654808   -0.22107387     0.00136756   
    179000   0.01875546    -0.26472298     0.01326043    -0.22334751     0.001673501  
    180000   0.018810217   -0.26852355     0.013164478   -0.22716195     0.001036227  
    181000   0.018524868   -0.26965163     0.012798571   -0.22908368     0.0029316191 
    182000   0.01881553    -0.27208203     0.012645368   -0.23123157     0.0024562091 
    183000   0.018545436   -0.27421051     0.012803221   -0.23360708    -0.0015248057 
    184000   0.019179194   -0.2742188      0.012620418   -0.23284816     0.00049276565
    185000   0.018310307   -0.2759224      0.012891733   -0.23558292    -0.0021900002 
    186000   0.018542081   -0.27596934     0.012696466   -0.2354777      0.0015395689 
    187000   0.01854271    -0.27600572     0.012805905   -0.2354037     -0.0011455624 
    188000   0.018488727   -0.2782115      0.014220243   -0.23627606     0.0033278923 
    189000   0.019804276   -0.28071424     0.013229316   -0.23779768     0.0036744475 
    190000   0.019310454   -0.28143812     0.013139148   -0.23935198    -0.002173527  
    191000   0.019818018   -0.28538437     0.014213463   -0.24146306    -8.9434513e-05
    192000   0.020305428   -0.29035785     0.013394155   -0.24652521    -0.0012326414 
    193000   0.020863507   -0.29270282     0.014296082   -0.24713167     0.0051204811 
    194000   0.019330541   -0.29322118     0.013561181   -0.25068289     0.0017237555 
    195000   0.019686439   -0.2942717      0.0143375     -0.25042359    -0.0032694901 
    196000   0.020380451   -0.29595029     0.013547324   -0.25185201     0.0020180886 
    197000   0.0202198     -0.29908942     0.014690182   -0.25408911     0.00098890674
    198000   0.021189365   -0.30465448     0.014763127   -0.25812782     0.0045900095 
    199000   0.022817729   -0.30726685     0.014762593   -0.25829975     0.0014728393 
    200000   0.020938462   -0.30950192     0.014782275   -0.26333221     0.0023979029 
    201000   0.021811494   -0.31223775     0.014499905   -0.26504171     0.0021789642 
    202000   0.020710817   -0.31400819     0.014532042   -0.26842997     0.00058553768
    203000   0.020367634   -0.31378138     0.014516733   -0.26873291     0.00038749936
    204000   0.021452106   -0.31432985     0.01363897    -0.26853348     0.0013699007 
    205000   0.020908641   -0.31568542     0.014258611   -0.27008408    -9.8344357e-05
    206000   0.021519664   -0.31595535     0.013749254   -0.26994743     0.0021539276 
    207000   0.021290126   -0.31721167     0.015204485   -0.2700926      0.0021614746 
    208000   0.021448286   -0.31868185     0.013807631   -0.27272255     0.00043289208
    209000   0.022841955   -0.32122714     0.015128437   -0.27185788    -0.00042822538
    210000   0.022502868   -0.3213679      0.014491295   -0.27314408     0.0021671957 
    211000   0.022687971   -0.32503977     0.014066834   -0.27696293     0.001600805  
    212000   0.021207755   -0.3262467      0.015174993   -0.2792806     -0.0033985699 
    213000   0.021357192   -0.32784914     0.014699377   -0.28113464     0.0028231135 
    214000   0.021446301   -0.32795694     0.014900164   -0.28090808     0.00084510484
    215000   0.021386038   -0.33029511     0.015283267   -0.28295348     0.0017360472 
    216000   0.021688035   -0.33227577     0.016167942   -0.28359676    -0.0021379754 
    217000   0.02321835    -0.33426801     0.014728962   -0.28473399     0.0030921877 
    218000   0.022318679   -0.33550236     0.014783499   -0.28726244     0.004490773  
    219000   0.022588199   -0.33670447     0.015611995   -0.28723204     0.0048807398 
    220000   0.022608852   -0.33841581     0.015803172   -0.28872124    -0.001086394  
    221000   0.023411304   -0.34201551     0.015770436   -0.29115078     0.0018046072 
    222000   0.022833124   -0.34367367     0.015424995   -0.29402108     0.0020511032 
    223000   0.022244144   -0.34775692     0.016531997   -0.29788023    -0.00047349903
    224000   0.022843364   -0.34829588     0.015910819   -0.29814212    -0.0010767755 
    225000   0.022025399   -0.34870463     0.015606101   -0.30008175     0.0013524581 
    226000   0.023327181   -0.34976895     0.015955998   -0.29884476     0.0019683263 
    227000   0.022739486   -0.35144353     0.016480178   -0.30087613     0.0035901166 
    228000   0.024243634   -0.35285621     0.015816594   -0.30069763     0.00133169   
    229000   0.023328717   -0.35327063     0.016928158   -0.30137197     0.0011293565 
    230000   0.024372822   -0.35888174     0.016731498   -0.30561459    -0.0017899564 
    231000   0.024159489   -0.3598084      0.016823411   -0.30676913    -0.0027069843 
    232000   0.024532862   -0.36513827     0.016567112   -0.3117956      0.004439362  
    233000   0.023841594   -0.36641031     0.016887059   -0.31378393     0.0032453182 
    234000   0.023754035   -0.36820683     0.017201085   -0.31539768     0.00061894427
    235000   0.023673755   -0.36888551     0.016260747   -0.31713704    -0.0016391146 
    236000   0.025118781   -0.37182614     0.016884771   -0.3172875      0.0009974958 
    237000   0.024207832   -0.37163487     0.017158033   -0.31818851     0.0023715706 
    238000   0.023865426   -0.37323249     0.017056846   -0.3204006      0.0031656763 
    239000   0.023162694   -0.373348       0.015924463   -0.32270191     0.0010569249 
    240000   0.02483101    -0.37585434     0.016644264   -0.32198759     0.0033780293 
    241000   0.024538329   -0.37873564     0.01833369    -0.32361821    -0.00019074894
    242000   0.024265304   -0.38180692     0.018034522   -0.32739792    -0.0016896645 
    243000   0.025201608   -0.38299148     0.017681891   -0.32753156     0.0011111034 
    244000   0.024347965   -0.3854852      0.017733086   -0.33125373     0.0015514744 
    245000   0.02552776    -0.38749041     0.017617505   -0.33160597     0.00069294923
    246000   0.025992593   -0.38854284     0.017827981   -0.33175112    -0.0013868842 
    247000   0.02657145    -0.39031722     0.0167802     -0.33370556     0.0021042722 
    248000   0.025090357   -0.39055144     0.017943321   -0.33499686     0.0047777459 
    249000   0.026073356   -0.39181305     0.018928386   -0.33379986    -0.00060192886
    250000   0.025602995   -0.39299766     0.017817544   -0.3368004      0.0032503679 
    251000   0.025184627   -0.39456003     0.018372726   -0.33843473     0.00039075213
    252000   0.02516756    -0.39641246     0.017056926   -0.34162855     0.000909523  
    253000   0.025991061   -0.40027794     0.01944519    -0.34187131     0.0027468552 
    254000   0.026770462   -0.40424526     0.018246299   -0.34586918     0.00065718372
    255000   0.026907005   -0.4077255      0.018463172   -0.34892786     0.0013773347 
    256000   0.026450401   -0.40834086     0.018739167   -0.34995169    -0.00038749594
    257000   0.026753706   -0.41096036     0.018772211   -0.35208348    -0.00032160103
    258000   0.026719851   -0.41135688     0.01899956    -0.3523034      0.00083755729
    259000   0.027206027   -0.41342899     0.018510866   -0.35413541     0.0022663881 
    260000   0.026612332   -0.41352286     0.018904682   -0.35472543     0.00032168479
    261000   0.025926534   -0.41338583     0.018225183   -0.35629593     0.00074408727
    262000   0.026605981   -0.41354349     0.018417801   -0.35524246    -0.0011963046 
    263000   0.026556929   -0.41480405     0.018778149   -0.35621621     0.00087764395
    264000   0.027513986   -0.4150545      0.019123446   -0.3546867      0.0035965174 
    265000   0.028196682   -0.41968625     0.021410466   -0.35600805    -0.0023335028 
    266000   0.028761267   -0.42127203     0.019876111   -0.35828185    -0.00061525632
    267000   0.027136128   -0.42472217     0.020017736   -0.3640265      0.0018537073 
    268000   0.028082693   -0.42655025     0.018736624   -0.36571677     0.003199793  
    269000   0.026831271   -0.42736341     0.019998016   -0.36714445    -0.00013974239
    270000   0.026478713   -0.42723218     0.018212024   -0.36932771     0.0049728737 
    271000   0.027010181   -0.42775318     0.020146422   -0.36711763     0.00028843938
    272000   0.028280573   -0.42983724     0.018336056   -0.36910769     0.0050701942 
    273000   0.027345374   -0.43147323     0.018525834   -0.3719558     -0.0026626405 
    274000   0.027486556   -0.43332084     0.019218572   -0.37289904     0.00040749473
    275000   0.02810089    -0.43428042     0.019067499   -0.37308879     0.0021333671 
    276000   0.028310123   -0.4351681      0.019152456   -0.37357786     0.0020728964 
    277000   0.028987768   -0.43811135     0.019750239   -0.37490751    -0.0028359186 
    278000   0.028161677   -0.44347579     0.020116841   -0.38114369     0.002237188  
    279000   0.027883887   -0.44583862     0.020592471   -0.3834473     -0.0019061023 
    280000   0.029222072   -0.44657972     0.019805368   -0.38296953     0.0019597756 
    281000   0.028702043   -0.44631393     0.019056391   -0.38423225     0.00023727078
    282000   0.029524857   -0.4461101      0.01956931    -0.38228208     0.00065268374
    283000   0.029647007   -0.44939096     0.02081778    -0.38413136     0.0057782779 
    284000   0.028821071   -0.45028586     0.021074053   -0.38600809    -0.0031131248 
    285000   0.030227415   -0.45164981     0.019830229   -0.38650771     0.0019043722 
    286000   0.029433797   -0.45259179     0.018785819   -0.38968376     0.0004310385 
    287000   0.029056977   -0.45431208     0.01956596    -0.39118877     0.0023563048 
    288000   0.030657228   -0.45494198     0.020138409   -0.3888474      0.00043163884
    289000   0.030244382   -0.45482976     0.019966014   -0.38952644     0.0044742933 
    290000   0.028828975   -0.45477894     0.019011815   -0.39255156     0.001722421  
    291000   0.028707692   -0.4556127      0.019592294   -0.39298665    -0.00018504107
    292000   0.029861697   -0.45640857     0.019142373   -0.39250255     0.0038410985 
    293000   0.028986522   -0.45596061     0.020469822   -0.39203905     0.0038899653 
    294000   0.02944549    -0.45764983     0.019747367   -0.39376272    -0.0019996629 
    295000   0.031162289   -0.45928495     0.020787216   -0.39178446     0.00034342739
    296000   0.031131545   -0.45925413     0.020779639   -0.3918073      0.0023851367 
    297000   0.031123705   -0.46355491     0.020174757   -0.39672472     0.0033604144 
    298000   0.029610065   -0.46466053     0.021215727   -0.39905836     0.0045827925 
    299000   0.030118053   -0.46441092     0.021590085   -0.3976729      0.005116556  
    300000   0.030869086   -0.46386828     0.021395355   -0.39619917     0.0017169257 
    301000   0.031279243   -0.46616547     0.020821221   -0.39845565     0.0022256578 
    302000   0.030913864   -0.46780435     0.022859325   -0.39860415     0.0055646222 
    303000   0.031597069   -0.47111036     0.02210444    -0.4016409     -0.0005278048 
    304000   0.030943899   -0.47235777     0.021758266   -0.4042136      0.0025485613 
    305000   0.030289538   -0.4725741      0.020458177   -0.40671093     0.0018675813 
    306000   0.0310745     -0.47369752     0.021431165   -0.40568467    -0.0031578305 
    307000   0.030922766   -0.47660435     0.021684913   -0.40856522    -0.00081058487
    308000   0.030989448   -0.47779379     0.021278064   -0.41006154     0.0021844479 
    309000   0.031089482   -0.47930944     0.020827621   -0.41187768     0.00082398043
    310000   0.031558844   -0.47825229     0.022166586   -0.40877798     0.003477786  
    311000   0.032308999   -0.48100371     0.023318256   -0.40925322    -0.0021797681 
    312000   0.032225261   -0.48197508     0.021359593   -0.41230879     0.0062272318 
    313000   0.031819593   -0.482207       0.02202999    -0.41247841     0.0027783954 
    314000   0.032239422   -0.48286442     0.021506889   -0.4130296     -0.0032970385 
    315000   0.030746842   -0.48336635     0.023066978   -0.41420886     0.003265307  
    316000   0.031053357   -0.48630587     0.022779836   -0.41697605     0.0041755683 
    317000   0.032543946   -0.48627004     0.021179366   -0.41630625    -0.0068985591 
    318000   0.031925723   -0.4868364      0.02252108    -0.41645763     0.00081610178
    319000   0.031372408   -0.48745115     0.021854992   -0.4185679     -0.001349446  
    320000   0.032829874   -0.48936733     0.02326139    -0.4168929     -0.0022008452 
    321000   0.031570153   -0.49049567     0.022650249   -0.42052074    -0.0046264208 
    322000   0.032098627   -0.4901391      0.022157614   -0.41986461    -0.0025972222 
    323000   0.032487098   -0.49140389     0.023507574   -0.41919711     0.0025550193 
    324000   0.033143186   -0.49609854     0.022413796   -0.42400204     0.0034912261 
    325000   0.033501316   -0.49768457     0.021997847   -0.42546717     0.00456611   
    326000   0.033715086   -0.49833202     0.023460681   -0.42433134    -0.0020201324 
    327000   0.033360905   -0.50009486     0.023437463   -0.42664832     0.0043592498 
    328000   0.034333725   -0.49964189     0.023499407   -0.42467512     0.0063059824 
    329000   0.033712331   -0.50138901     0.023051335   -0.4278018      0.0013932028 
    330000   0.033333731   -0.50242229     0.023758947   -0.428695       0.0038249065 
    331000   0.033846862   -0.50377359     0.022578424   -0.43045763     0.0010132475 
    332000   0.034586961   -0.5038542      0.023895442   -0.42811178    -0.0002409739 
    333000   0.035671586   -0.50602504     0.023326336   -0.42922585    -0.00036926564
    334000   0.03409198    -0.50626995     0.02306965    -0.43209532     0.0022909746 
    335000   0.034154936   -0.50662148     0.023167408   -0.43225472    -0.0028359506 
    336000   0.034537727   -0.50684125     0.023276968   -0.43179111     0.00032299155
    337000   0.035815065   -0.51005733     0.023360375   -0.43300902     0.0053833727 
    338000   0.034568365   -0.50997028     0.025373015   -0.43277817     0.0028713536 
    339000   0.034375465   -0.51496405     0.024576742   -0.43885737     0.00096668781
    340000   0.03467301    -0.51756095     0.023685521   -0.44189946     0.0025802332 
    341000   0.035490438   -0.51783059     0.023520819   -0.44110846    -0.00086185562
    342000   0.034531631   -0.52067733     0.025067268   -0.44384603    -0.0016722721 
    343000   0.034406017   -0.52263153     0.024961601   -0.4460942     -0.0042854629 
    344000   0.036297047   -0.52274869     0.024127654   -0.4442106     -0.0069854853 
    345000   0.035169766   -0.52362338     0.024799426   -0.44610335    -0.0027449316 
    346000   0.035918476   -0.52277044     0.023527197   -0.44540029    -9.2706572e-05
    347000   0.035036071   -0.52459329     0.025039347   -0.44703374     0.0021437617 
    348000   0.035329635   -0.52710172     0.023601      -0.45054046     0.0024226581 
    349000   0.035265855   -0.53005029     0.026161851   -0.45102379     0.0020992502 
    350000   0.035553794   -0.53086617     0.025073      -0.45249688     0.00089179693
    351000   0.036513314   -0.53090081     0.024766533   -0.45139964    -0.0010235034 
    352000   0.037623763   -0.53237988     0.02382634    -0.45215431     0.0055936128 
    353000   0.035924549   -0.53557343     0.024929291   -0.45679208     0.0021721805 
    354000   0.035260746   -0.53469518     0.025561193   -0.45627699    -0.00027138451
    355000   0.036389971   -0.53489931     0.025068251   -0.45528132     0.0027405152 
    356000   0.035560858   -0.53648998     0.024620793   -0.45856231    -0.0019649801 
    357000   0.036781689   -0.53657346     0.023997098   -0.45743942     0.0051924001 
    358000   0.035754709   -0.537332       0.026578796   -0.45715574    -7.071789e-05 
    359000   0.036240762   -0.53807712     0.0253932     -0.45835785    -0.00015983407
    360000   0.036306595   -0.53854697     0.024944649   -0.45917756     0.0023777222 
    361000   0.035588611   -0.53853155     0.025509666   -0.45967341    -0.00040307414
    362000   0.036873759   -0.54061107     0.024865617   -0.4604705      0.0025930906 
    363000   0.036807836   -0.541854       0.027051519   -0.45962635    -0.0008848    
    364000   0.038198446   -0.54254004     0.025361115   -0.45991822     0.0044228688 
    365000   0.036965165   -0.54193409     0.025443006   -0.46107911     0.0035395071 
    366000   0.038254459   -0.54382835     0.026078745   -0.46040494     0.0069798752 
    367000   0.038475759   -0.54371994     0.026654156   -0.45938938     0.0077057017 
    368000   0.038057271   -0.54430865     0.026715123   -0.46054445    -0.0016844635 
    369000   0.038873416   -0.54494304     0.026162119   -0.46050841     0.0033659764 
    370000   0.03772635    -0.54270245     0.026154296   -0.45999514     0.00067242657
    371000   0.038655337   -0.54701029     0.027683707   -0.46138098     0.0047762517 
    372000   0.038073853   -0.54701353     0.025710051   -0.46422955    -0.0029054014 
    373000   0.037931161   -0.54926257     0.027092608   -0.46530993     6.8852511e-05
    374000   0.040693118   -0.55497241     0.025740842   -0.46823127     0.002219164  
    375000   0.040724681   -0.55408153     0.027257537   -0.46577638     0.0027253347 
    376000   0.040140832   -0.55705365     0.026829508   -0.47005174     0.0030567504 
    377000   0.039139422   -0.55723513     0.025680237   -0.47288364     0.0025628914 
    378000   0.038097765   -0.55642279     0.027526489   -0.47178652     0.0056044511 
    379000   0.04019339    -0.55939784     0.02800378    -0.47114287    -0.0017946686 
    380000   0.036936424   -0.56185399     0.026625174   -0.47985992    -0.00024402606
    381000   0.038457365   -0.56264744     0.027082731   -0.47791588    -6.3427511e-05
    382000   0.038509098   -0.56330002     0.027227819   -0.47834582    -0.0003694775 
    383000   0.039369265   -0.56240292     0.026109114   -0.47727801    -0.00064602311
    384000   0.03756157    -0.56276482     0.027670417   -0.4787884      0.0049762006 
    385000   0.039017099   -0.56332857     0.027614539   -0.47722615    -0.0017486534 
    386000   0.037935033   -0.56201826     0.026584634   -0.47856778     0.0020470416 
    387000   0.039338415   -0.56434925     0.026725008   -0.47865469     0.0018087007 
    388000   0.039800029   -0.56439184     0.028571281   -0.47615903     0.0013960292 
    389000   0.038949005   -0.56481357     0.026913288   -0.47951447     0.0035030745 
    390000   0.039376629   -0.56692631     0.028297558   -0.47960192     7.2745329e-05
    391000   0.039571187   -0.56814924     0.026629062   -0.4822017      0.00088642122
    392000   0.041359975   -0.57050996     0.029121132   -0.47938889    -6.688038e-05 
    393000   0.041158263   -0.57325503     0.027488674   -0.48406879    -0.0045513473 
    394000   0.039307855   -0.57331452     0.02603976    -0.48835102     0.0047798248 
    395000   0.038624865   -0.57324354     0.026348177   -0.48899545    -0.0018790135 
    396000   0.039686994   -0.57350175     0.02604151    -0.48796816     0.0044170417 
    397000   0.040085707   -0.57482773     0.026275137   -0.48846282    -0.00038920001
    398000   0.039208781   -0.57658675     0.027020545   -0.49079097    -0.0043906352 
    399000   0.039359416   -0.57777505     0.027636449   -0.49113757     0.0014526105 
    400000   0.039980436   -0.57878036     0.027842736   -0.49100566     0.0047931769 
    401000   0.040802019   -0.58263498     0.028062241   -0.4934092     -0.0051492294 
    402000   0.040150346   -0.58341806     0.027557209   -0.49567418     0.001589614  
    403000   0.040274001   -0.58312827     0.027285245   -0.495471       0.0032003172 
    404000   0.041035099   -0.58260699     0.028393856   -0.4927002     -0.0011625868 
    405000   0.041102786   -0.58497167     0.027921893   -0.49543537     0.0019617554 
    406000   0.039188793   -0.58443144     0.028846135   -0.49684004     0.0021620566 
    407000   0.041325092   -0.58414806     0.028056174   -0.49414424    -0.00086497651
    408000   0.04108656    -0.58405761     0.027790381   -0.49467715    -0.0013776358 
    409000   0.040531461   -0.58613299     0.030359699   -0.49501532     0.00050404809
    410000   0.041882894   -0.58729808     0.030675384   -0.49383889     0.0028418976 
    411000   0.040761816   -0.59070511     0.028470839   -0.50113099     0.00072991317
    412000   0.040384075   -0.59169809     0.02880744    -0.50235362     0.0015348604 
    413000   0.043168471   -0.59175787     0.028449848   -0.49859709     0.0021847217 
    414000   0.041298178   -0.59117369     0.030405443   -0.49886095     0.00078876115
    415000   0.042997218   -0.59150023     0.028646666   -0.49839935     0.0014348178 
    416000   0.041750006   -0.59223237     0.027920366   -0.5017274      0.0031578783 
    417000   0.043435144   -0.59409763     0.029270902   -0.49971604     0.0020668901 
    418000   0.043559359   -0.59373492     0.029959055   -0.49847898     0.0035099806 
    419000   0.04192742    -0.59347836     0.031236607   -0.4993912     -0.0027577058 
    420000   0.042130567   -0.59403659     0.030613094   -0.50026842    -0.0031998983 
    421000   0.04268912    -0.59369129     0.029124146   -0.50057477    -0.00071043456
    422000   0.043574482   -0.59478033     0.029158616   -0.50030216    -0.0044391899 
    423000   0.040557756   -0.59345201     0.02887938    -0.50377525     0.009646096  
    424000   0.042080799   -0.59423643     0.030728317   -0.50042764     2.4127106e-05
    425000   0.042744299   -0.59397308     0.02913313    -0.50076487     0.0022871342 
    426000   0.042675769   -0.59404642     0.030282717   -0.49979135     0.0032974565 
    427000   0.042491644   -0.59585434     0.027713619   -0.50444438     0.00014552402
    428000   0.04240828    -0.59703824     0.031336237   -0.50213062     0.0025576654 
    429000   0.042956472   -0.59904701     0.030270328   -0.50438354     0.0018469067 
    430000   0.043186      -0.59961936     0.030286316   -0.50459583     0.0018497602 
    431000   0.042332772   -0.59977756     0.03051068    -0.50580869    -0.0029812629 
    432000   0.043700543   -0.59962212     0.03044073    -0.50367287    -0.0036446174 
    433000   0.043943824   -0.59953424     0.029711698   -0.50394933     0.0021188993 
    434000   0.045097942   -0.60232914     0.030148882   -0.50457699     0.0041057809 
    435000   0.045821987   -0.60054592     0.031220901   -0.50063638     0.0067617006 
    436000   0.044385817   -0.60172788     0.032100672   -0.50309143     0.00057359912
    437000   0.046156026   -0.60285831     0.032032431   -0.5016365     -0.0031157457 
    438000   0.045344918   -0.60344373     0.031241369   -0.50422887     0.0026669097 
    439000   0.043029495   -0.60334437     0.029942313   -0.50889946     0.0013535703 
    440000   0.043533331   -0.60435015     0.030167873   -0.50892441     0.0051444143 
    441000   0.0438918     -0.60402341     0.029241145   -0.50898704    -0.0027371068 
    442000   0.043974398   -0.60437234     0.029868635   -0.50858466    -0.000195642  
    443000   0.044478205   -0.60496027     0.030530562   -0.50775544     0.0030773337 
    444000   0.045572445   -0.60617744     0.031896515   -0.50596636     0.00050871622
    445000   0.044293687   -0.60597414     0.030882035   -0.50869444    -0.0013716937 
    446000   0.04520999    -0.60757896     0.032571482   -0.50723624     0.0021215089 
    447000   0.044769816   -0.6088336      0.031195235   -0.51052697     0.0032709547 
    448000   0.045887071   -0.61153717     0.032561345   -0.51018963    -0.00039788837
    449000   0.044733861   -0.61050887     0.03303945    -0.51041192    -0.0042456048 
    450000   0.044661743   -0.61175634     0.032097921   -0.51270903    -0.0043152185 
    451000   0.044439987   -0.61155268     0.030900208   -0.5140355     -0.0032004555 
    452000   0.045898904   -0.61316488     0.03181925    -0.5125417      0.0029707551 
    453000   0.046041832   -0.61345106     0.031486761   -0.51294611     0.0010828465 
    454000   0.044434305   -0.61282282     0.034788916   -0.51142545    -0.0053743384 
    455000   0.04688225    -0.61416688     0.032531387   -0.51135749     0.0029847797 
    456000   0.047013632   -0.61554751     0.034070063   -0.51100249     0.00079562308
    457000   0.048484482   -0.61586386     0.032490136   -0.51069392     0.0037374736 
    458000   0.046600834   -0.61581513     0.032513092   -0.51344589    -0.0053067332 
    459000   0.046803777   -0.61746043     0.031318013   -0.51598204     0.0021853542 
    460000   0.046984553   -0.61801477     0.031628244   -0.51595517     0.00051521917
    461000   0.046348756   -0.61818074     0.032264187   -0.51643827     0.00060510565
    462000   0.04648737    -0.61890052     0.033303606   -0.51591085     0.0034109543 
    463000   0.046799751   -0.62141823     0.031352595   -0.51991129    -0.0030980828 
    464000   0.046772072   -0.62227774     0.030855208   -0.52130969     0.0047705352 
    465000   0.046500364   -0.62319105     0.032760105   -0.5207254     -0.0010022355 
    466000   0.045586378   -0.62338751     0.033258481   -0.52179358    -0.0001932142 
    467000   0.045778882   -0.62507624     0.032777577   -0.52367464     0.0042739174 
    468000   0.047115042   -0.62566142     0.032690113   -0.52234434     0.00034593231
    469000   0.047552157   -0.62643243     0.032547186   -0.52260303     0.0073826541 
    470000   0.048067906   -0.62706821     0.033169695   -0.52184317    -0.0019868055 
    471000   0.048663264   -0.62709248     0.032575561   -0.52156912    -0.0010926262 
    472000   0.04646366    -0.62724727     0.032267232   -0.52532952    -0.00067377691
    473000   0.047136865   -0.6285534      0.033854396   -0.52403932     0.0029314865 
    474000   0.049262401   -0.63009134     0.034478363   -0.52176705    -0.0051171498 
    475000   0.048195407   -0.63216419     0.035075089   -0.52484263     0.0063591984 
    476000   0.049499      -0.63382795     0.034140929   -0.52548642    -0.0080354605 
    477000   0.048887844   -0.6335005      0.033089588   -0.52712646     0.0055612178 
    478000   0.047559728   -0.63405141     0.031420648   -0.5313372      0.0059157088 
    479000   0.04631325    -0.63440835     0.033988471   -0.53099482    -0.0023438654 
    480000   0.049415087   -0.63499762     0.031665331   -0.52925748     0.0052589337 
    481000   0.048896037   -0.63640357     0.033259551   -0.52984728    -0.00041978422
    482000   0.048548827   -0.63753374     0.030988153   -0.53376933     0.010509486  
    483000   0.04860992    -0.63957469     0.03397785    -0.532729       0.0015566755 
    484000   0.049424613   -0.64222454     0.034708299   -0.53342715    -0.0023340132 
    485000   0.04988333    -0.64124306     0.035450015   -0.53101633     0.0055929309 
    486000   0.049835328   -0.641131       0.033097378   -0.53332885     0.0039295982 
    487000   0.049792464   -0.64154835     0.034572862   -0.53233498    -0.0010752426 
    488000   0.050178257   -0.64322316     0.033648108   -0.53435623     0.0010843952 
    489000   0.049025456   -0.64374994     0.034665045   -0.53559415     0.0029945686 
    490000   0.049062918   -0.6433855      0.036027045   -0.53381156    -0.0064669249 
    491000   0.048785771   -0.64374165     0.035939566   -0.53467064    -0.0036530124 
    492000   0.050860141   -0.64405129     0.034176683   -0.53363362    -0.00091363769
    493000   0.04922792    -0.64531307     0.035685174   -0.53583366    -0.0012999448 
    494000   0.048631635   -0.64336172     0.035229202   -0.53523212     0.0020454948 
    495000   0.049864236   -0.64540794     0.035169935   -0.53548991     0.0043524195 
    496000   0.050426857   -0.64646873     0.034088039   -0.53678921     0.0017616327 
    497000   0.050079032   -0.64614579     0.036094245   -0.53498146    -0.0027852272 
    498000   0.048185762   -0.64619788     0.034837185   -0.53912869     0.0015097451 
    499000   0.047808933   -0.6458298      0.034626271   -0.5395364     -0.0017264157 
    500000   0.050300788   -0.64660572     0.033922048   -0.53728117     0.00055132742
Loop time of 126.645 on 8 procs for 500000 steps with 1550 atoms

Performance: 341112.039 tau/day, 3948.056 timesteps/s, 6.119 Matom-step/s
92.0% CPU use with 8 MPI tasks x 1 OpenMP threads

MPI task timing breakdown:
Section |  min time  |  avg time  |  max time  |%varavg| %total
---------------------------------------------------------------
Pair    | 12.988     | 15.234     | 16.74      |  29.7 | 12.03
Bond    | 4.514      | 5.3753     | 6.0045     |  18.6 |  4.24
Neigh   | 0.04698    | 0.047111   | 0.047291   |   0.1 |  0.04
Comm    | 11.731     | 13.569     | 16.61      |  42.6 | 10.71
Output  | 0.42732    | 0.4467     | 0.46923    |   2.1 |  0.35
Modify  | 90.447     | 90.525     | 90.599     |   0.5 | 71.48
Other   |            | 1.447      |            |       |  1.14

Nlocal:         193.75 ave         219 max         152 min
Histogram: 1 0 0 1 0 2 0 0 2 2
Nghost:        583.125 ave         653 max         527 min
Histogram: 1 1 1 0 2 1 1 0 0 1
Neighs:              0 ave           0 max           0 min
Histogram: 8 0 0 0 0 0 0 0 0 0
FullNghs:      2926.25 ave        3699 max        1858 min
Histogram: 1 0 1 0 0 2 1 1 1 1

Total # of neighbors = 23410
Ave neighs/atom = 15.103226
Ave special neighs/atom = 2.1612903
Neighbor list builds = 175
Dangerous builds = 0

unfix ThermoLng

# Now we let the system to create the polymeric network
fix ThermoLng all langevin ${temp} ${temp} ${damp} ${seed3} tally yes zero yes # Brownian Dynamics: langevin + nve
fix ThermoLng all langevin 0.05 ${temp} ${damp} ${seed3} tally yes zero yes 
fix ThermoLng all langevin 0.05 0.05 ${damp} ${seed3} tally yes zero yes 
fix ThermoLng all langevin 0.05 0.05 1 ${seed3} tally yes zero yes 
fix ThermoLng all langevin 0.05 0.05 1 2010 tally yes zero yes 
run ${steps}
run 8000000
WARNING: Using a manybody potential with bonds/angles/dihedrals and special_bond exclusions (src/pair.cpp:250)
Hybrid pair style last /omp style table/omp
Last active /omp style is angle_style harmonic/omp
Per MPI rank memory allocation (min/avg/max) = 24.03 | 24.06 | 24.19 Mbytes
   Step          Temp          E_pair         E_mol          TotEng         Press     
    500000   0.050300788   -0.64660572     0.033922048   -0.53728117     0.00055132742
    501000   0.050357386   -0.64611333     0.036414344   -0.53421164    -0.0042121984 
    502000   0.051959629   -0.64430167     0.035134416   -0.5312781      0.0040661387 
    503000   0.050431371   -0.64413315     0.036078096   -0.5324568      0.0034750359 
    504000   0.052056155   -0.6471939      0.037182284   -0.53197776     0.0025818459 
    505000   0.050925973   -0.6476116      0.038054923   -0.533217       0.00098118829
    506000   0.051374513   -0.6473344      0.034938292   -0.53538406    -0.00041977989
    507000   0.050083122   -0.64684294     0.034039923   -0.5377268      0.0065889215 
    508000   0.049614158   -0.64865828     0.036074305   -0.53821075    -0.0039745314 
    509000   0.051356491   -0.64779616     0.033194525   -0.5376166      0.0027199083 
    510000   0.048394271   -0.64806941     0.035230548   -0.54029429     0.0070430686 
    511000   0.050411143   -0.64987244     0.034893908   -0.5394106      0.00041569522
    512000   0.048765855   -0.64867101     0.036603698   -0.53896573    -0.002644506  
    513000   0.050367135   -0.65109586     0.037194451   -0.53839945     0.0020450976 
    514000   0.053498014   -0.65225601     0.036123083   -0.53593768    -0.0037409357 
    515000   0.051475668   -0.65427581     0.035460681   -0.54165144     0.0024570731 
    516000   0.049750082   -0.6545392      0.036911907   -0.54305031     0.0022279446 
    517000   0.049818276   -0.65573527     0.035798796   -0.54525727    -0.00072168704
    518000   0.051596245   -0.65622039     0.036385324   -0.54249063     0.0043079297 
    519000   0.052106447   -0.6583579      0.036540232   -0.54370842    -0.00069945982
    520000   0.051254991   -0.65899066     0.036541951   -0.54561583    -0.0039392734 
    521000   0.051436425   -0.65982367     0.035162016   -0.5475568     -0.0030858423 
    522000   0.051083858   -0.66078991     0.033649238   -0.55056432    -0.0025777927 
    523000   0.05165165    -0.66151022     0.036434348   -0.54764838    -1.0909278e-05
    524000   0.049783979   -0.66419835     0.035052873   -0.55451768    -0.0018882064 
    525000   0.051741877   -0.665217       0.032998391   -0.55465586     0.0061276279 
    526000   0.049303739   -0.66533149     0.035483156   -0.55594044    -0.0024673325 
    527000   0.048145004   -0.6652787      0.035691685   -0.5574161      0.0023261555 
    528000   0.050122515   -0.664679       0.03417912    -0.55536461     0.0060081201 
    529000   0.050467594   -0.66518805     0.035949322   -0.55358618    -0.0094123643 
    530000   0.050896437   -0.66496325     0.036544817   -0.55212303     0.0081638483 
    531000   0.05002512    -0.66526464     0.034969541   -0.55530583     0.00046817764
    532000   0.05011661    -0.6655394      0.036546032   -0.55386695    -0.0016677182 
    533000   0.051115683   -0.66578548     0.03434332    -0.5548181     -0.00055608969
    534000   0.050650073   -0.66500923     0.034978538   -0.5541046      6.9312176e-05
    535000   0.049289598   -0.66579175     0.035748017   -0.55615704    -0.0026137293 
    536000   0.049922062   -0.66657921     0.035769637   -0.55597479     0.0039911868 
    537000   0.050146944   -0.66594255     0.035823664   -0.554947       0.006286248  
    538000   0.051505095   -0.66709202     0.03753398    -0.55235024    -0.00092579956
    539000   0.050487782   -0.6666742      0.035243034   -0.55574835    -0.0030964123 
    540000   0.049692734   -0.66697194     0.034498777   -0.55798215    -0.0012711214 
    541000   0.051430711   -0.66533179     0.0342133     -0.5540222      0.0023165472 
    542000   0.050570864   -0.66564737     0.034600626   -0.55523939     0.00026661332
    543000   0.051017739   -0.66706242     0.032872027   -0.55771316    -0.00061447145
    544000   0.048615295   -0.66626247     0.034526974   -0.5588596      0.0030260466 
    545000   0.051585869   -0.66626886     0.036378935   -0.55256105    -0.0001950747 
    546000   0.050973241   -0.66606683     0.034693289   -0.554963       0.0063822935 
    547000   0.048742277   -0.66592955     0.035542137   -0.55732117    -0.0047439874 
    548000   0.049287001   -0.66627892     0.034270353   -0.55812576     0.0039679456 
    549000   0.049173816   -0.66657991     0.035209153   -0.55765762     0.00020471621
    550000   0.051178355   -0.66748756     0.034537602   -0.55623195    -0.00060536212
    551000   0.049092229   -0.66629329     0.034977821   -0.55772463    -0.002435409  
    552000   0.049807184   -0.66694307     0.034815003   -0.55746549     0.0015003168 
    553000   0.051229363   -0.66732909     0.03247221    -0.55806241     0.0038223254 
    554000   0.052504512   -0.66994482     0.035721713   -0.55551715    -0.00082548719
    555000   0.049863451   -0.66896162     0.036030772   -0.55818392     0.0046279318 
    556000   0.049290326   -0.6702736      0.034151      -0.56223481     0.0060175737 
    557000   0.050104191   -0.67011777     0.03515819    -0.55985178     0.0009254479 
    558000   0.051296356   -0.67204282     0.03459178    -0.56055615     0.00201498   
    559000   0.049766863   -0.67270076     0.034232763   -0.56386587    -0.0013740817 
    560000   0.049661854   -0.67305983     0.034599992   -0.56401511    -0.0011503849 
    561000   0.050242585   -0.67386972     0.035237771   -0.5633167     -0.0019589294 
    562000   0.050412695   -0.67359447     0.035930692   -0.56209352    -0.0012835504 
    563000   0.05150592    -0.67426021     0.032870684   -0.56418049     0.0027699783 
    564000   0.05129642    -0.67441931     0.036097031   -0.56142729     0.0034831695 
    565000   0.051294396   -0.6742183      0.033823228   -0.56350312     0.002445349  
    566000   0.050741695   -0.67515102     0.036454014   -0.56263357     0.0056291654 
    567000   0.049369299   -0.67664837     0.033929764   -0.56871243    -0.00021972719
    568000   0.050679619   -0.67711501     0.036562009   -0.56458262    -0.00053861929
    569000   0.051296641   -0.6767338      0.035614841   -0.56422364     0.0029809543 
    570000   0.051243851   -0.67726082     0.036776668   -0.56366797    -0.0035765858 
    571000   0.05272747    -0.67883636     0.03733164    -0.56246454    -0.00049592086
    572000   0.053285322   -0.67958468     0.037246746   -0.56246152     0.0029860748 
    573000   0.048849608   -0.67851298     0.037072641   -0.5682132      0.0041136521 
    574000   0.049142648   -0.67926979     0.036548182   -0.56905519    -0.0039729027 
    575000   0.049914357   -0.67858026     0.033267401   -0.57048963     0.0037088816 
    576000   0.049821642   -0.67953376     0.034580785   -0.57026872     0.0061696836 
    577000   0.0512791     -0.67907226     0.035814717   -0.56638852     0.00039627012
    578000   0.051074439   -0.67860924     0.03647657    -0.56557044     0.0021548976 
    579000   0.054154936   -0.68040072     0.036449388   -0.56277133    -0.002432006  
    580000   0.050540544   -0.68040965     0.035478145   -0.5691696      0.0015559604 
    581000   0.050430738   -0.67946675     0.036096596   -0.56777285     0.0056339738 
    582000   0.050162975   -0.68051847     0.03694948    -0.56837307    -0.0027413388 
    583000   0.051971352   -0.6810171      0.03434244    -0.56876793    -0.0010189462 
    584000   0.051